B  H  N 
 1.0000000000000000
    12.0000000000000000    0.0000000000000000    0.0000000000000000
     0.0000000000000000   12.0000000000000000    0.0000000000000000
     0.0000000000000000    0.0000000000000000   12.0000000000000000
 B   H   N  
   1   6   1
Cartesian
  5.8113476876972197  3.9361047223466978  4.7050620560288827
  7.1167393742029255  7.0477204382760661  8.2419731591142735
  6.5051284502168638  8.4682830814563061  7.2906492118904325
  6.1728831729016775  6.8605115283059197  6.7433132752204363
  4.8832606257970781  3.5317169185436934  5.2656382589341213
  6.9294632633432833  3.7972712303980316  4.8445026742717197
  5.5189234994023249  4.5504553263868530  3.7580268408857265
  6.6071638287606786  7.4510422820794417  7.4685538003160303
