B  H  N 
 1.0000000000000000
    12.0000000000000000    0.0000000000000000    0.0000000000000000
     0.0000000000000000   12.0000000000000000    0.0000000000000000
     0.0000000000000000    0.0000000000000000   12.0000000000000000
 B   H   N  
   1   6   1
Cartesian
  3.9487934370802584  7.5472952356125660  5.3422607563119211
  8.6986632625269564  3.6763233126695449  6.7238377286951181
  8.5134780035130184  5.3047583989959861  7.3573461460890197
  7.1320308499217004  4.5220980527267258  6.5525120721291454
  4.8591627680013847  8.3236766873304546  4.9062420949264247
  3.3013367374730431  7.6932318134527469  6.4727303862179477
  3.5670062304640044  6.4687070666046083  4.6426538539109803
  8.1394765466920802  4.5106061163442561  6.9013057526055173
