 C  H 
 1.0000000000000000
    15.0000000000000000    0.0000000000000000    0.0000000000000000
     0.0000000000000000   15.0000000000000000    0.0000000000000000
     0.0000000000000000    0.0000000000000000   15.0000000000000000
 C   H  
   4   6
Cartesian
  8.3945903778076172  8.7936601638793945  6.5342597961425781
  7.6417398452758789  8.2394800186157227  7.4883999824523926
  7.3655500411987305  6.7533397674560547  7.5474700927734375
  6.5960302352905273  6.1717600822448730  8.4961595535278320
  8.5505800247192383  9.9190998077392578  6.5672402381896973
  8.9342498779296875  8.3401699066162109  5.6962699890136719
  7.2210001945495605  8.8233995437622070  8.2999296188354492
  7.8164901733398438  6.1652297973632812  6.7904200553894043
  6.0689601898193359  6.7052497863769531  9.2475099563598633
  6.4107999801635742  5.0886201858520508  8.3323497772216797
