B  H  N 
 1.0000000000000000
    12.0000000000000000    0.0000000000000000    0.0000000000000000
     0.0000000000000000   12.0000000000000000    0.0000000000000000
     0.0000000000000000    0.0000000000000000   12.0000000000000000
 B   H   N  
   1   6   1
Cartesian
  6.0697831344923543  6.0838120889177674  5.2759650657039927
  5.1281296735269493  4.9157813432724140  6.7537100114826742
  5.7787812573202402  6.2547939501284295  7.3568959071008129
  6.8718703264730649  5.0553125430291175  6.8936433593959299
  6.5660601205772116  7.0842186567276144  5.2921581032154066
  5.1645469352699962  6.2414940892447808  4.8203752684025218
  6.7626587594369099  5.4505986959251231  4.6431040928991862
  5.9494070402492980  5.4740805711506084  6.6492575935304430
