B  H  N 
 1.0000000000000000
    12.0000000000000000    0.0000000000000000    0.0000000000000000
     0.0000000000000000   12.0000000000000000    0.0000000000000000
     0.0000000000000000    0.0000000000000000   12.0000000000000000
 B   H   N  
   1   6   1
Cartesian
  8.6713530175073004  6.0900108931256502  5.8979082918258356
  3.6322095657586004  6.3769303296054716  5.8525565920254152
  3.0075257269827094  5.5361059964135251  7.2046705571530865
  3.1229497046620120  4.6964162771530482  5.6646547029877112
  8.1183236936680636  5.7596919444032437  4.7953294428469135
  8.9924742730172937  5.1069890249124796  6.7266057542373465
  8.6753544226023926  7.3035837228469660  6.3262640008307116
  3.3976743509740466  5.5009597799588619  6.2980483627852450
