B  H  N 
 1.0000000000000000
    12.0000000000000000    0.0000000000000000    0.0000000000000000
     0.0000000000000000   12.0000000000000000    0.0000000000000000
     0.0000000000000000    0.0000000000000000   12.0000000000000000
 B   H   N  
   1   6   1
Cartesian
  6.4253954341494648  4.4761267618490574  4.2195241196752882
  4.7036442662093290  8.1378453426808495  8.3865876015561085
  6.2462775347097814  7.3230572465996548  8.1350048505036483
  4.8738588537693861  6.3677307207776206  8.2764014804014394
  5.2691331261228100  4.4553785174161877  3.7367169485786667
  6.5149304584517287  3.8621546573191505  5.2843094029769482
  7.2963557337906710  5.0074960336904812  3.6134123984438919
  5.2619596082326936  7.3146320126334219  8.2065680943577739
