B  H  N 
 1.0000000000000000
    12.0000000000000000    0.0000000000000000    0.0000000000000000
     0.0000000000000000   12.0000000000000000    0.0000000000000000
     0.0000000000000000    0.0000000000000000   12.0000000000000000
 B   H   N  
   1   6   1
Cartesian
  5.7003329620443104  5.8919133781162394  6.9894522823288971
  6.0681230403572606  5.7407414677837387  4.5351822842999923
  7.1092458945140349  6.0817894990592434  5.9588901989201020
  6.1929899076965356  7.2555869155777666  5.3130324902362105
  5.5587267319568738  4.7444130844222325  7.0970321254844322
  6.8155112049617550  6.1534620791196826  7.1066186273679222
  4.8907541054859642  6.5187251593769897  7.4648177156999935
  6.1199535380895638  6.2738265845043051  5.4421322500783731
