B  H  N 
 1.0000000000000000
    12.0000000000000000    0.0000000000000000    0.0000000000000000
     0.0000000000000000   12.0000000000000000    0.0000000000000000
     0.0000000000000000    0.0000000000000000   12.0000000000000000
 B   H   N  
   1   6   1
Cartesian
  6.7853578793449110  5.9370414928665429  5.6051829058534679
  4.5075539063567369  5.2354510409249890  5.9061845910686088
  5.2150799125148701  6.8148331617871722  5.6249473199315219
  5.1968924155985654  6.1112875942140406  7.1404756330748285
  7.1507455553695785  4.9908830788992056  4.8595243669252000
  6.3282700240802860  7.0091169211007944  5.2062592708959698
  7.4924460936432631  6.1478380081706856  6.5948067425503609
  5.2927032807601258  5.8487670871505495  6.1824277174161182
