8
Lattice="12.0 0.0 0.0 0.0 12.0 0.0 0.0 0.0 12.0" Properties=species:S:1:pos:R:3:momenta:R:3:forces:R:3 energy=-439.9736803034201 pbc="T T T"
B        5.92726146       6.12796642       4.93800919      -0.76286052      -0.15243908      -0.67093027      -0.65282358       0.08072230       1.36480483
H        5.78654866       6.96581259       7.42811203       0.10200452       0.03449200       0.26788623      -0.60549269       1.87005773       0.31163808
H        6.94142007       5.83995607       7.24384167       0.07128843       0.15694773       0.20882510       2.83300980      -0.83184816       0.42189738
H        5.35993308       5.35034670       7.33462920       0.16765012      -0.23212314       0.14476500      -0.15502973      -0.01009505      -0.27771348
H        5.03873201       6.86505241       4.79972198      -0.26681900       0.34164586      -0.02903054      -0.22995296       0.29715794       0.20944545
H        5.61527908       5.03418741       4.57188797      -0.07602222      -0.14369708      -0.26160091       0.72588195       0.31580597       0.69782443
H        6.96126799       6.61196612       4.67312572       0.26136637       0.01700830      -0.19353061       0.18674532      -0.39686758       0.17887342
N        6.01519175       6.08739642       6.98458899      -0.67587043      -0.13015027       1.24986322      -2.10233812      -1.32493314      -2.90677011
8
Lattice="12.0 0.0 0.0 0.0 12.0 0.0 0.0 0.0 12.0" Properties=species:S:1:pos:R:3:momenta:R:3:forces:R:3 energy=-440.09148149847016 pbc="T T T"
B        5.84647318       5.79752685       6.92915717      -0.24120521       0.19946409      -0.26886795       0.04232671       1.69759762      -3.00987239
H        5.11590983       7.31794793       5.18972519       0.06382170      -0.28378317       0.27968662       1.00022418      -1.13991610      -0.17811209
H        4.98471321       5.62930115       4.72117667       0.20394849       0.19960877       0.05994998       1.03923159       0.84022087       0.13588034
H        6.60372744       6.43194331       4.72779291      -0.09565796       0.19683109       0.16158354      -0.21663569      -0.03150083      -0.24941458
H        5.05233368       6.62084433       7.27882333      -0.04225940      -0.07899531       0.08805388       0.63103556      -1.04848283       0.88632440
H        7.01528679       6.05229519       6.95594291       0.05429712      -0.18321055      -0.18797686      -0.78448727      -0.31564806       0.86291344
H        5.53745000       4.68205207       6.71287123      -0.10217464       0.16226430       0.16522704       0.00080303       0.12098270       0.81349737
N        5.63887163       6.37593126       5.12934251      -0.70711844      -0.29175361       0.22853655      -1.71249809      -0.12325337       0.73878351
