8
Lattice="12.0 0.0 0.0 0.0 12.0 0.0 0.0 0.0 12.0" Properties=species:S:1:pos:R:3:momenta:R:3:forces:R:3 energy=-440.3422223640724 pbc="T T T"
B        6.36164237       5.66254578       6.30887966      -0.71214589       0.65723352      -0.25683532      -0.43031719       1.57361391      -1.83296681
H        4.67475595       6.13198381       4.67925408       0.02643006      -0.00527948       0.06596280      -0.68071299      -0.34035990      -0.23716223
H        5.79888746       7.38772857       4.77656735       0.07443380      -0.03211802       0.31454264       0.95722881       0.93714320      -0.70930573
H        4.67270159       7.26223216       6.01367247      -0.18303670       0.02525675       0.03398688      -1.34458463       0.76721639       1.18430922
H        7.32729841       5.84799888       5.67958262       0.08961165      -0.29063549       0.01492310       0.23720903      -0.00775603       0.35301466
H        5.93903914       4.61227143       6.18803539       0.18803444      -0.07220913       0.21909679      -0.57795133      -0.86998414       0.01454777
H        6.23761858       6.17728448       7.32074592       0.36644357      -0.35026051       0.11741893       0.23327755       0.19717797       0.84912034
N        5.19377303       6.76516029       5.30653566      -0.54871671       0.00381395      -0.08457807       1.60585075      -2.25705140       0.37844279
8
Lattice="12.0 0.0 0.0 0.0 12.0 0.0 0.0 0.0 12.0" Properties=species:S:1:pos:R:3:momenta:R:3:forces:R:3 energy=-440.15978060144914 pbc="T T T"
B        6.61140991       5.37120516       5.81240690      -0.86862678       0.58724514      -0.28987357      -1.32924118      -0.45233393       0.25954578
H        4.78923447       6.74243779       6.82068500       0.06275937      -0.22488776      -0.14789551      -0.10751704      -0.19283552      -0.42712677
H        4.43766652       5.98729061       5.23777095       0.12026742      -0.11719599       0.07870018      -0.27704843       0.45539102       0.17309039
H        5.39936899       7.50110233       5.35412412       0.03292393       0.12196633       0.28376714      -0.52623774      -0.93297840       0.25301669
H        6.60022872       4.97884225       6.94943241       0.06437366       0.02536211       0.28886829       0.01793552       0.44721209      -0.73585481
H        7.56233348       6.04834356       5.52970407       0.09894564      -0.14214082      -0.07991079      -0.87498886      -0.40607975      -0.08519521
H        6.17512690       4.49889767       5.05056759      -0.03596397      -0.21629582       0.03481134       0.81693566       1.45203066       0.71158611
N        5.06677707       6.59518505       5.81461918      -0.24718630      -0.10500822       0.30072948       2.28016206      -0.37040618      -0.14906219
8
Lattice="12.0 0.0 0.0 0.0 12.0 0.0 0.0 0.0 12.0" Properties=species:S:1:pos:R:3:momenta:R:3:forces:R:3 energy=-440.2795550870139 pbc="T T T"
B        6.70179002       5.43332673       5.63254242      -0.46287065      -0.00593407      -0.03037666      -1.30495620       0.66944783       1.56345690
H        5.54385932       7.46832212       6.48554373       0.13234981      -0.19037644       0.23599791       0.16090315       0.91918375      -0.44829828
H        5.35317657       6.11527587       7.44000912      -0.06852523      -0.08052060       0.03109016      -0.40815489      -0.66505206       0.91704006
H        4.40518536       6.26618299       5.95415075      -0.07309066       0.06120309      -0.09305184      -0.35009195      -0.10776263       0.10310006
H        6.33903051       5.28403915       4.55999088      -0.13347891      -0.09294223      -0.01774308      -0.47748360      -0.18605253      -0.72342385
H        6.72433858       4.53167788       6.36964439       0.06066460      -0.16286025       0.23986576      -0.16862209      -0.26120290      -0.15355797
H        7.59481464       6.12878028       5.75563962      -0.00424383       0.37348765      -0.07670031       0.72439666       0.74018040       0.09276481
N        5.27268581       6.47637001       6.48467249      -0.08503891       0.03968826       0.09613176       1.82400892      -1.10874185      -1.35108173
