8
Lattice="12.0 0.0 0.0 0.0 12.0 0.0 0.0 0.0 12.0" Properties=species:S:1:pos:R:3:momenta:R:3:forces:R:3 energy=-437.85480187609 free_energy=-437.85480187609 stress="-0.00043102168021161 -0.00040220224746149 -0.00056256140675809 -0.00040220224746149 -0.00012834249036576 -0.00062701163088552 -0.00056256140675809 -0.00062701163088552 0.00066717960070992" pbc="T T T"
B        4.53485912       5.52975519       4.42322380       1.32365986       0.16116510      -0.19035739       0.28826247      -0.33149838       1.94685034
H        7.74445881       6.96488537       8.69041989      -0.19017787      -0.17391075       0.04457014       0.62674715       0.40498625       1.65245695
H        7.02549567       6.32802995       7.48178501      -0.08811289      -0.13791087      -0.20888039      -1.14469407      -1.12000680      -1.08984607
H        8.30859742       7.27103759       7.19405918       0.04558499       0.14148909      -0.16984399       0.70720786       0.18964012      -0.45453648
H        4.92635579       5.81486538       3.30958011      -0.22663949      -0.05766462       0.01977908      -0.44923051      -0.18755881       0.89894308
H        3.69140258       4.72896241       4.75545432      -0.01927064       0.19285355      -0.09903442       0.22052775       0.37612377      -1.14376008
H        5.00470173       5.93126782       5.49763666       0.04877301       0.12310473      -0.06608767      -0.04622924       0.14723715      -1.68744081
N        7.97674083       6.50520995       7.80683447      -0.57769902       1.23755646      -0.33110146      -0.19698281       0.51115255      -0.12228874
8
Lattice="11.999719810625429 0.0 0.0 0.0 11.999719810625429 0.0 0.0 0.0 11.999719810625429" Properties=species:S:1:pos:R:3:momenta:R:3:forces:R:3 energy=-437.90092683355 free_energy=-437.90092683355 stress="-0.00010621442653173 -0.00032701458228879 -0.00043991095352246 -0.00032701458228879 -0.00015530261473976 -0.00052083389411655 -0.00043991095352246 -0.00052083389411655 0.00055983473665699" pbc="T T T"
B        4.54134974       5.53004646       4.41385064       1.28927250      -0.04690292       0.03956814      -0.07848290      -0.57517563       2.32114223
H        7.73456560       6.94825047       8.69127301      -0.19750228      -0.33942879       0.24570779       0.68490842       0.42057261       1.44161318
H        7.01847129       6.31133835       7.46703410      -0.16999010      -0.37478311      -0.13340562      -0.57823138      -0.95924301      -0.93139020
H        8.31027510       7.26950574       7.18197672       0.03946578      -0.03258432      -0.06565088       0.65297808       0.28740138      -0.39699429
H        4.91346488       5.80321197       3.30844680      -0.28341333      -0.24937875       0.17973131      -0.25329783      -0.05321292       0.52046836
H        3.68944471       4.73021407       4.74605526      -0.04519081       0.02754584      -0.03038797       0.33424899       0.45910430      -1.15608624
H        5.00571020       5.92882025       5.48917553       0.00838171      -0.05481791      -0.02342041       0.01091575       0.17344687      -1.67084543
N        7.97510359       6.50935912       7.79672869      -0.64091166       1.07014074      -0.21214227      -0.76842555       0.23871710      -0.12983668
8
Lattice="11.999438691122219 0.0 0.0 0.0 11.999438691122219 0.0 0.0 0.0 11.999438691122219" Properties=species:S:1:pos:R:3:momenta:R:3:forces:R:3 energy=-437.94863017582 free_energy=-437.94863017582 stress="0.00025219466946759 -0.00023754481435988 -0.0003236131830998 -0.00023754481435988 -0.00014997186589521 -0.00038541402375856 -0.0003236131830998 -0.00038541402375856 0.00047988970307083" pbc="T T T"
B        4.54660100       5.52931390       4.40271709       1.26762374      -0.08045141       0.16105485      -0.44069622      -0.80617913       2.63773074
H        7.72519460       6.93184223       8.69321809      -0.16076571      -0.31773550       0.30541486       0.75697254       0.36505338       1.05700677
H        7.00893555       6.29158212       7.44782141      -0.18153150      -0.41380994      -0.17292986       0.06307217      -0.73665059      -0.71519144
H        8.31231993       7.26777858       7.16668847       0.06911636      -0.01712454      -0.08228497       0.56624916       0.33045854      -0.29854231
H        4.89888095       5.79062044       3.30622060      -0.28891435      -0.24677616       0.19349869      -0.04927269       0.08716347       0.09114033
H        3.68711876       4.73166011       4.73162313      -0.02657465       0.05110084      -0.08649538       0.41281245       0.50597707      -1.13756810
H        5.00555994       5.92591158       5.47444793       0.01080020      -0.04479797      -0.10295958       0.09056802       0.21700301      -1.57572742
N        7.97216800       6.51262632       7.78432844      -0.68966450       1.06944032      -0.21534732      -1.39579393       0.03046616      -0.06151372
8
Lattice="11.999153958553029 0.0 0.0 0.0 11.999153958553029 0.0 0.0 0.0 11.999153958553029" Properties=species:S:1:pos:R:3:momenta:R:3:forces:R:3 energy=-437.98659073945 free_energy=-437.98659073945 stress="0.00059090435381808 -0.00014233309431686 -0.00022973380546172 -0.00014233309431686 -0.00012167383576031 -0.00024486027275647 -0.00022973380546172 -0.00024486027275647 0.00041889410072169" pbc="T T T"
B        4.55054220       5.52740766       4.39089373       1.22685641      -0.12440890       0.29471959      -0.78045405      -1.01314939       2.86158423
H        7.71653720       6.91544404       8.69629413      -0.12034425      -0.29941112       0.34255516       0.83427131       0.26951344       0.55970773
H        6.99846078       6.26923878       7.42569603      -0.16167659      -0.44012138      -0.20070227       0.68425054      -0.47901647      -0.47564780
H        8.31452639       7.26585343       7.14944773       0.09353512      -0.00105293      -0.09289644       0.45288458       0.31670198      -0.16273690
H        4.88313541       5.77734468       3.30285983      -0.28401019      -0.23698683       0.18534568       0.14972378       0.22449014      -0.35565461
H        3.68462757       4.73330053       4.71323321      -0.00514335       0.07575166      -0.14037482       0.45220831       0.51423510      -1.08710279
H        5.00445867       5.92254570       5.45472154       0.01763654      -0.03221474      -0.17517263       0.19195709       0.27816513      -1.40200368
N        7.96784884       6.51486972       7.77065100      -0.76678104       1.05834213      -0.21353967      -1.98198363      -0.11602583       0.06094277
8
Lattice="11.99886508599609 0.0 0.0 0.0 11.99886508599609 0.0 0.0 0.0 11.99886508599609" Properties=species:S:1:pos:R:3:momenta:R:3:forces:R:3 energy=-438.00977264449 free_energy=-438.00977264449 stress="0.00086761435859694 -5.1704079387425e-05 -0.00016815743090804 -5.1704079387425e-05 -8.1751124131044e-05 -0.00012239773122775 -0.00016815743090804 -0.00012239773122775 0.00036814892173592" pbc="T T T"
B        4.55319314       5.52430060       4.37957226       1.16953631      -0.17717518       0.43462956      -1.07961701      -1.18463849       2.94923891
H        7.70886686       6.89885043       8.70042745      -0.07652253      -0.28589999       0.35360236       0.90454615       0.16366735       0.02092610
H        6.98863250       6.24497319       7.40240039      -0.11346740      -0.45294807      -0.21639039       1.21807602      -0.21386537      -0.24068077
H        8.31670853       7.26370771       7.13173572       0.11165224       0.01293893      -0.09596128       0.32135813       0.25109848       0.00204437
H        4.86681599       5.76373709       3.29843764      -0.26956491      -0.22064141       0.15579591       0.32928579       0.34834382      -0.77527439
H        3.68215656       4.73515737       4.69218350       0.01702457       0.09953953      -0.19040253       0.44985361       0.48297710      -1.00487063
H        5.00274500       5.91888160       5.43159835       0.02988615      -0.01628287      -0.23619860       0.31397655       0.35685386      -1.15189177
N        7.96214962       6.51607748       7.75686610      -0.86849424       1.04040464      -0.20509838      -2.45640632      -0.20874986       0.20212747
8
Lattice="11.998572419334367 0.0 0.0 0.0 11.998572419334367 0.0 0.0 0.0 11.998572419334367" Properties=species:S:1:pos:R:3:momenta:R:3:forces:R:3 energy=-438.02044693897 free_energy=-438.02044693897 stress="0.0010542254330218 2.3216916608632e-05 -0.00014250068172712 2.3216916608632e-05 -4.1823717297939e-05 -3.5274777269895e-05 -0.00014250068172712 -3.5274777269895e-05 0.00032392747056923" pbc="T T T"
B        4.55465793       5.52008336       4.36991407       1.09898593      -0.23665718       0.57296710      -1.32136015      -1.30982464       2.85837688
H        7.70250419       6.88193380       8.70546427      -0.03008220      -0.27732624       0.33849149       0.95627524       0.06897484      -0.49459416
H        6.98087940       6.21956127       7.37965669      -0.04251686      -0.45284124      -0.22089790       1.62661475       0.03503536      -0.02963818
H        8.31871198       7.26130370       7.11509834       0.12290800       0.02257725      -0.09047796       0.18202188       0.14519755       0.18308893
H        4.85052234       5.75021710       3.29310815      -0.24711776      -0.19886412       0.10774205       0.47608180       0.44844576      -1.11704133
H        3.67986044       4.73726872       4.66984592       0.03781446       0.12055864      -0.23510681       0.40461696       0.41272935      -0.89238764
H        5.00087569       5.91522657       5.40685818       0.04845721       0.00376675      -0.28256513       0.45424465       0.45198270      -0.83219340
N        7.95516413       6.51635908       7.74414667      -0.98843607       1.01872432      -0.19011123      -2.77962945      -0.25743907       0.32731049
8
Lattice="11.998277011549416 0.0 0.0 0.0 11.998277011549416 0.0 0.0 0.0 11.998277011549416" Properties=species:S:1:pos:R:3:momenta:R:3:forces:R:3 energy=-438.02590965245 free_energy=-438.02590965245 stress="0.0011359563404807 7.1798436974049e-05 -0.00015087691920129 7.1798436974049e-05 -1.2261077747954e-05 7.6437037197238e-06 -0.00015087691920129 7.6437037197238e-06 0.00028880340111662" pbc="T T T"
B        4.55511422       5.51494934       4.36290452       1.01898300      -0.30032636       0.70036519      -1.49226385      -1.37951816       2.56038609
H        7.69777976       6.86468265       8.71118952       0.01779710      -0.27291826       0.29997891       0.98155896      -0.00294781      -0.93791714
H        6.97637414       6.19381809       7.35898404       0.04433473      -0.44135906      -0.21588992       1.89414929       0.24908432       0.14534547
H        8.32042716       7.25860236       7.10097773       0.12730443       0.02632422      -0.07615069       0.04583154       0.01448223       0.36540869
H        4.83482442       5.73723270       3.28708749      -0.21869807      -0.17316093       0.04642046       0.58086898       0.51674485      -1.33453283
H        3.67784985       4.73967465       4.64752291       0.05514978       0.13701308      -0.27318094       0.31712416       0.30563482      -0.75265446
H        4.99940654       5.91201730       5.38230033       0.07407334       0.02861462      -0.31141821       0.60795304       0.56027221      -0.45714397
N        7.94706990       6.51592551       7.73352595      -1.11898029       0.99572280      -0.17004912      -2.93823501      -0.26997682       0.41370344
8
Lattice="11.997980386106907 0.0 0.0 0.0 11.997980386106907 0.0 0.0 0.0 11.997980386106907" Properties=species:S:1:pos:R:3:momenta:R:3:forces:R:3 energy=-438.0347472759 free_energy=-438.0347472759 stress="0.0011086058796933 8.5071370653811e-05 -0.00018654148376604 8.5071370653811e-05 -1.4694479252403e-06 6.1012840519009e-06 -0.00018654148376604 6.1012840519009e-06 0.00026898635936321" pbc="T T T"
B        4.55480027       5.50917479       4.35923756       0.93347660      -0.36529915       0.80683546      -1.58343990      -1.38731455       2.05420117
H        7.69500387       6.84721067       8.71732963       0.06571331      -0.27146069       0.24267853       0.97643723      -0.04838327      -1.27629556
H        6.97598759       6.16853686       7.34156326       0.13994249      -0.42073783      -0.20344239       2.01742765       0.41366409       0.27652050
H        8.32180040       7.25557925       7.09056827       0.12533238       0.02343094      -0.05337111      -0.07628897      -0.12382396       0.53321571
H        4.82023054       5.72522322       3.28065076      -0.18653847      -0.14525028      -0.02116455       0.64044303       0.54926486      -1.39673581
H        3.67617999       4.74240113       4.62633123       0.06707497       0.14727337      -0.30349886       0.19056081       0.16611458      -0.59037068
H        4.99896622       5.90979055       5.35960012       0.10711938       0.05870142      -0.32085338       0.76622547       0.67487503      -0.05160091
N        7.93811631       6.51506506       7.72578433      -1.25219535       0.97321941      -0.14711656      -2.93511281      -0.25207696       0.45260476
8
Lattice="11.997684307061348 0.0 0.0 0.0 11.997684307061348 0.0 0.0 0.0 11.997684307061348" Properties=species:S:1:pos:R:3:momenta:R:3:forces:R:3 energy=-438.05357795862 free_energy=-438.05357795862 stress="0.00097721845008212 5.7588308440585e-05 -0.00023904086359228 5.7588308440585e-05 -1.4671920330786e-05 -3.3027403804548e-05 -0.00023904086359228 -3.3027403804548e-05 0.00026940002041533" pbc="T T T"
B        4.55400016       5.50309553       4.35924551       0.84639866      -0.42841437       0.88321551      -1.59186625      -1.32972190       1.37700748
H        7.69444299       6.82974342       8.72355267       0.11216759      -0.27161958       0.17235711       0.94060637      -0.06825083      -1.49112305
H        6.98027096       6.14443639       7.32815290       0.23722538      -0.39373014      -0.18588070       1.99963991       0.51747113       0.35844148
H        8.32284138       7.25223987       7.08471150       0.11794877       0.01397943      -0.02325334      -0.17553193      -0.25409065       0.67313155
H        4.80716851       5.71458807       3.27413163      -0.15278018      -0.11686185      -0.08719712       0.65879645       0.54709015      -1.29866244
H        3.67484293       4.74544444       4.60712361       0.07187470       0.14997081      -0.32515607       0.03143939       0.00126964      -0.41193023
H        5.00021865       5.90914138       5.34018255       0.14740160       0.09400116      -0.31040941       0.91551833       0.78410096       0.34880975
N        7.92860925       6.51411653       7.72137826      -1.38031648       0.95252996      -0.12363518      -2.78118456      -0.20649383       0.44507307
8
Lattice="11.997390572596494 0.0 0.0 0.0 11.997390572596494 0.0 0.0 0.0 11.997390572596494" Properties=species:S:1:pos:R:3:momenta:R:3:forces:R:3 energy=-438.08526002904 free_energy=-438.08526002904 stress="0.00075407780595567 -1.2099858065912e-05 -0.00029515143862046 -1.2099858065912e-05 -5.4487891067031e-05 -9.7563791384954e-05 -0.00029515143862046 -9.7563791384954e-05 0.00028828859470409" pbc="T T T"
B        4.55302549       5.49708065       4.36288078       0.76153580      -0.48635363       0.92295838      -1.51870261      -1.20645048       0.60236513
H        7.69629861       6.81259052       8.72948496       0.15565147      -0.27211326       0.09545671       0.87534828      -0.06530933      -1.57062868
H        6.98944291       6.12211054       7.31905174       0.32925559      -0.36352168      -0.16575162       1.84498750       0.55026546       0.38582211
H        8.32362561       7.24863057       7.08383665       0.10648334      -0.00120353       0.01246529      -0.24408648      -0.36123252       0.77291123
H        4.79597848       5.70566336       3.26790561      -0.11921032      -0.08953668      -0.14431463       0.64474534       0.51572238      -1.06117726
H        3.67376496       4.74876000       4.59044991       0.06825839       0.14415266      -0.33754684      -0.14932179      -0.17820894      -0.22541631
H        5.00381033       5.91066648       5.32511325       0.19390153       0.13376569      -0.28153503       1.03725420       0.87146376       0.69947113
N        7.91889193       6.51344063       7.72041426      -1.49591443       0.93466960      -0.10170975      -2.49001125      -0.13439695       0.39746444
8
Lattice="11.997100900283645 0.0 0.0 0.0 11.997100900283645 0.0 0.0 0.0 11.997100900283645" Properties=species:S:1:pos:R:3:momenta:R:3:forces:R:3 energy=-438.12843989305 free_energy=-438.12843989305 stress="0.00045955462865899 -0.00012014364587255 -0.00034128806945941 -0.00012014364587255 -0.00012007386686592 -0.00017283879536183 -0.00034128806945941 -0.00017283879536183 0.0003161223945287" pbc="T T T"
B        4.55219281       5.49150232       4.36974397       0.68251753      -0.53582536       0.92364316      -1.36957802      -1.02029474      -0.17486410
H        7.70068701       6.79610795       8.73474977       0.19473224      -0.27182277       0.01883982       0.78343673      -0.04279085      -1.50848211
H        7.00337680       6.10197416       7.31409857       0.40937263      -0.33374190      -0.14583253       1.56025909       0.50341933       0.35396137
H        8.32428995       7.24484338       7.08794286       0.09258115      -0.02062125       0.05151125      -0.27649256      -0.43269659       0.82340152
H        4.78691155       5.69870387       3.26235113      -0.08713587      -0.06449263      -0.18667529       0.60938237       0.46330253      -0.72474581
H        3.67281095       4.75225752       4.57655030       0.05559699       0.12947758      -0.34047357      -0.33616157      -0.35822856      -0.03986475
H        5.01030190       5.91489222       5.31500339       0.24459132       0.17632744      -0.23790170       1.11041502       0.91753871       0.95490722
N        7.90932050       6.51338927       7.72266184      -1.59222588       0.92059741      -0.08308655      -2.07832708      -0.03619292       0.31737583
8
Lattice="11.996816798142985 0.0 0.0 0.0 11.996816798142985 0.0 0.0 0.0 11.996816798142985" Properties=species:S:1:pos:R:3:momenta:R:3:forces:R:3 energy=-438.17783277595 free_energy=-438.17783277595 stress="0.00012191347762434 -0.00025735108011172 -0.00036559753144648 -0.00025735108011172 -0.00020755525366087 -0.00024427532472592 -0.00036559753144648 -0.00024427532472592 0.00033608531720905" pbc="T T T"
B        4.55179628       5.48670184       4.37914798       0.61269328      -0.57384357       0.88759885      -1.15557397      -0.77857877      -0.86261758
H        7.70761951       6.78065483       8.73902463       0.22815125      -0.26982316      -0.05040337       0.66876813      -0.00400507      -1.30282578
H        7.02159317       6.08420792       7.31270250       0.47142371      -0.30841237      -0.12909507       1.15821876       0.37154971       0.26029748
H        8.32501992       7.24101322       7.09661870       0.07811094      -0.04221193       0.09121351      -0.26952747      -0.45832451       0.81836815
H        4.78012859       5.69386855       3.25779216      -0.05735391      -0.04255333      -0.21067190       0.56315655       0.39852272      -0.33790138
H        3.67179688       4.75580358       4.56537323       0.03416163       0.10639749      -0.33422775      -0.50958557      -0.52212333       0.13583027
H        5.02009141       5.92219485       5.30994031       0.29646451       0.21908924      -0.18519839       1.11613124       0.90429999       1.08016365
N        7.90023387       6.51427281       7.72759687      -1.66356841       0.91131777      -0.06917220      -1.56749021       0.08583688       0.21136935
8
Lattice="11.99653944541306 0.0 0.0 0.0 11.99653944541306 0.0 0.0 0.0 11.99653944541306" Properties=species:S:1:pos:R:3:momenta:R:3:forces:R:3 energy=-438.22510948259 free_energy=-438.22510948259 stress="-0.00022318464861665 -0.00040946074692698 -0.00035942587412147 -0.00040946074692698 -0.00031029952708162 -0.00029927078047472 -0.00035942587412147 -0.00029927078047472 0.00032845286419111" pbc="T T T"
B        4.55207731       5.48295416       4.39019829       0.55481523      -0.59807698       0.82129418      -0.89487634      -0.49512608      -1.39455048
H        7.71698611       6.76654983       8.74210298       0.25493482      -0.26543823      -0.10532661       0.53679786       0.04700423      -0.95909404
H        7.04326845       6.06871046       7.31389552       0.51035889      -0.29165462      -0.11848936       0.66408644       0.15666443       0.10806064
H        8.32602933       7.23730875       7.10908674       0.06506161      -0.06349602       0.12869860      -0.22234608      -0.43091368       0.75483629
H        4.77569645       5.69120792       3.25443646      -0.03021648      -0.02414557      -0.21510374       0.51408815       0.32902837       0.05382264
H        3.67051011       4.75923070       4.55660908       0.00526818       0.07624882      -0.31958283      -0.64831912      -0.65259373       0.29419004
H        5.03334359       5.93272622       5.30946173       0.34584271       0.25878482      -0.13033941       1.04328479       0.82062724       1.06143134
N        7.89192036       6.51632700       7.73446143      -1.70596867       0.90779191      -0.06108697      -0.98891616       0.22532775       0.08416770
8
Lattice="11.99626953816099 0.0 0.0 0.0 11.99626953816099 0.0 0.0 0.0 11.99626953816099" Properties=species:S:1:pos:R:3:momenta:R:3:forces:R:3 energy=-438.26098629913 free_energy=-438.26098629913 stress="-0.00053473360865595 -0.00055769452114908 -0.00031745963376005 -0.00055769452114908 -0.00041882632965217 -0.00032759365464509 -0.00031745963376005 -0.00032759365464509 0.00027803650843872" pbc="T T T"
B        4.55319406       5.48043479       4.40187501       0.51061057      -0.60720539       0.73368628      -0.61292811      -0.19080825      -1.74181379
H        7.72854547       6.75402933       8.74394120       0.27450479      -0.25829036      -0.13968825       0.39516651       0.10429729      -0.49564911
H        7.06727907       6.05507516       7.31640812       0.52304002      -0.28714526      -0.11651299       0.12220986      -0.12587651      -0.08874992
H        8.32753540       7.23391879       7.12426601       0.05538902      -0.08176858       0.16110506      -0.13674519      -0.34728991       0.63373954
H        4.77358080       5.69065388       3.25232833      -0.00574643      -0.00934999      -0.20085799       0.46731580       0.26063241       0.41476987
H        3.66873414       4.76235075       4.54973548      -0.02875445       0.04118925      -0.29768411      -0.73273827      -0.73452697       0.43021121
H        5.04994200       5.94636258       5.31259134       0.38889992       0.29196921      -0.08024093       0.89258444       0.66649619       0.91049172
N        7.88458400       6.51968313       7.74233107      -1.71786228       0.91064149      -0.05974256      -0.39164557       0.36884933      -0.06121205
8
Lattice="11.996007089406428 0.0 0.0 0.0 11.996007089406428 0.0 0.0 0.0 11.996007089406428" Properties=species:S:1:pos:R:3:momenta:R:3:forces:R:3 energy=-438.2787100501 free_energy=-438.2787100501 stress="-0.00077073127145612 -0.00067960935966945 -0.0002367811527682 -0.00067960935966945 -0.00052005833047231 -0.0003202973933187 -0.0002367811527682 -0.0003202973933187 0.00018314573446556" pbc="T T T"
B        4.55519611       5.47919442       4.41310873       0.48043805      -0.60117600       0.63426878      -0.33933955       0.10881242      -1.91080087
H        7.74192660       6.74321127       8.74467670       0.28677948      -0.24840070      -0.14879070       0.25387207       0.15898902       0.04920969
H        7.09229615       6.04260881       7.31877424       0.50920721      -0.29729446      -0.12456646      -0.40136350      -0.44163002      -0.30110220
H        8.32973311       7.23103717       7.14084778       0.05084921      -0.09435894       0.18582341      -0.01769814      -0.20990824       0.46094335
H        4.77363946       5.69201443       3.25133039       0.01623911       0.00201304      -0.17033152       0.42554032       0.19725939       0.72114285
H        3.66627398       4.76496992       4.54407350      -0.06478979       0.00397226      -0.26987736      -0.74877799      -0.75795394       0.54181719
H        5.06947715       5.96268990       5.31794183       0.42226746       0.31559731      -0.04060752       0.67689352       0.45359791       0.66041713
N        7.87831525       6.52434585       7.75018490      -1.70093116       0.91969150      -0.06588135       0.15389608       0.49341205      -0.22152238
8
Lattice="11.995751204825178 0.0 0.0 0.0 11.995751204825178 0.0 0.0 0.0 11.995751204825178" Properties=species:S:1:pos:R:3:momenta:R:3:forces:R:3 energy=-438.27754127711 free_energy=-438.27754127711 stress="-0.0008952856349211 -0.00075098633326397 -0.00011611286139901 -0.00075098633326397 -0.00059655255779481 -0.00026857042548758 -0.00011611286139901 -0.00026857042548758 6.2229029796096e-05" pbc="T T T"
B        4.55800945       5.47914679       4.42285529       0.46321127      -0.58124523       0.53149597      -0.10202664       0.37846912      -1.93180630
H        7.75664639       6.73406724       8.74460700       0.29223996      -0.23631318      -0.13054856       0.12425678       0.19919203       0.61249956
H        7.11693858       6.03040941       7.31947865       0.47226153      -0.32229939      -0.14224346      -0.82640868      -0.73615618      -0.48531907
H        8.33277319       7.22884774       7.15739034       0.05281902      -0.09896160       0.20076127       0.12582823      -0.02869672       0.24845587
H        4.77562148       5.69497763       3.25114421       0.03603300       0.01029172      -0.12682138       0.38981045       0.14130361       0.95953196
H        3.66297802       4.76690346       4.53886024      -0.09931805      -0.03240021      -0.23753389      -0.69104264      -0.72015837       0.62955522
H        5.09127437       5.98103033       5.32387692       0.44352932       0.32750023      -0.01513468       0.41765409       0.20205566       0.35497464
N        7.87307013       6.53018331       7.75698299      -1.66074655       0.93348366      -0.07997532       0.56413923       0.56748914      -0.38901621
8
Lattice="11.995499906239676 0.0 0.0 0.0 11.995499906239676 0.0 0.0 0.0 11.995499906239676" Properties=species:S:1:pos:R:3:momenta:R:3:forces:R:3 energy=-438.2636239138 free_energy=-438.2636239138 stress="-0.00088730043555958 -0.00074976890416143 4.332610809531e-05 -0.00074976890416143 -0.0006273579767651 -0.00016469268106425 4.332610809531e-05 -0.00016469268106425 -4.6658661493844e-05" pbc="T T T"
B        4.56143678       5.48007502       4.43017873       0.45664619      -0.54975035       0.43189231       0.07885126       0.59860924      -1.84445757
H        7.77214373       6.72640633       8.74412758       0.29190263      -0.22316552      -0.08653001       0.01645942       0.21187692       1.10957858
H        7.13996878       6.01750763       7.31715120       0.41931948      -0.35943317      -0.16687387      -1.07895479      -0.94412853      -0.59198139
H        8.33674629       7.22751005       7.17244056       0.06210101      -0.09401965       0.20462510       0.28003363       0.17754294       0.01524983
H        4.77917737       5.69912919       3.25137232       0.05397949       0.01592558      -0.07402674       0.36025990       0.09409755       1.12400821
H        3.65875361       4.76798985       4.53334288      -0.12887550      -0.06506788      -0.20191227      -0.56395625      -0.62614190       0.69571489
H        5.11445502       6.00050434       5.32871083       0.45146329       0.32661687      -0.00529936       0.13932804      -0.06492823       0.03719077
N        7.86866285       6.53693357       7.76175826      -1.60657507       0.94899921      -0.10190015       0.76715601       0.55832946      -0.54690848
8
Lattice="11.995250115354107 0.0 0.0 0.0 11.995250115354107 0.0 0.0 0.0 11.995250115354107" Properties=species:S:1:pos:R:3:momenta:R:3:forces:R:3 energy=-438.24675004417 free_energy=-438.24675004417 stress="-0.000747255872895 -0.00066183373226299 0.00023534434394012 -0.00066183373226299 -0.0005919093959878 -6.0616061009274e-06 0.00023534434394012 -6.0616061009274e-06 -9.6363048208523e-05" pbc="T T T"
B        4.56517604       5.48165812       4.43434508       0.45772908      -0.50967070       0.33989360       0.19413983       0.75853755      -1.68539682
H        7.78782529       6.71987678       8.74363705       0.28713829      -0.21063647      -0.02257073      -0.06397543       0.18685488       1.44952906
H        7.16048355       6.00305095       7.31078608       0.36017553      -0.40301803      -0.19367341      -1.11787936      -1.00901618      -0.58263709
H        8.34167332       7.22714439       7.18468260       0.07868788      -0.07913651       0.19722849       0.42605489       0.38125689      -0.21321309
H        4.78388336       5.70398570       3.25161306       0.07043835       0.01939735      -0.01572353       0.33664120       0.05632076       1.21325018
H        3.65357680       4.76810572       4.52689110      -0.15048510      -0.09164419      -0.16407532      -0.38057203      -0.48730298       0.74326917
H        5.13801780       6.02011567       5.33091640       0.44599650       0.31296234      -0.01065411      -0.13564288      -0.32596301      -0.25843107
N        7.86477768       6.54422933       7.76372297      -1.54984116       0.96192502      -0.13046164       0.73480995       0.44651913      -0.66814140
8
Lattice="11.994997901827608 0.0 0.0 0.0 11.994997901827608 0.0 0.0 0.0 11.994997901827608" Properties=species:S:1:pos:R:3:momenta:R:3:forces:R:3 energy=-438.23475172351 free_energy=-438.23475172351 stress="-0.00049769279043702 -0.00048614505141553 0.00044690952420271 -0.00048614505141553 -0.00047638850645741 0.00019972663157594 0.00044690952420271 0.00019972663157594 -4.8420372170557e-05" pbc="T T T"
B        4.56885704       5.48351612       4.43491838       0.46323536      -0.46412595       0.25817575       0.24526424       0.85642425      -1.48206195
H        7.80311422       6.71399113       8.74343075       0.27935317      -0.20064788       0.05167749      -0.11845357       0.12148493       1.56143322
H        7.17804095       5.98648381       7.29993657       0.30515909      -0.44540019      -0.21669584      -0.95248252      -0.90494556      -0.44625807
H        8.34749915       7.22781389       7.19310235       0.10156956      -0.05538185       0.17967840       0.54129642       0.54914932      -0.40775750
H        4.78927945       5.70904276       3.25156716       0.08575386       0.02120877       0.04441569       0.31864655       0.02828976       1.22843211
H        3.64749875       4.76718401       4.51911271      -0.16196934      -0.11042468      -0.12486904      -0.15958469      -0.31888029       0.77504116
H        5.16092713       6.03884589       5.32931114       0.42795031       0.28741571      -0.02935486      -0.38966773      -0.56430970      -0.50867969
N        7.86100442       6.55164109       7.76237834      -1.50136535       0.96758335      -0.16307410       0.50174354       0.24056247      -0.72201994
8
Lattice="11.994739012215776 0.0 0.0 0.0 11.994739012215776 0.0 0.0 0.0 11.994739012215776" Properties=species:S:1:pos:R:3:momenta:R:3:forces:R:3 energy=-438.22945422669 free_energy=-438.22945422669 stress="-0.00017688895640814 -0.00023659018298917 0.00065868487397893 -0.00023659018298917 -0.00027968987836125 0.00043260056339478 0.00065868487397893 0.00043260056339478 0.00010944594908099" pbc="T T T"
B        4.57209071       5.48526700       4.43183225       0.47015623      -0.41600569       0.18821101       0.24122017       0.89718339      -1.25253705
H        7.81749219       6.70818010       8.74361728       0.26964364      -0.19492844       0.12435105      -0.15454517       0.02325791       1.42031924
H        7.19267707       5.96766522       7.28481785       0.26280522      -0.47867316      -0.23028487      -0.63836626      -0.64717132      -0.20445948
H        8.35408840       7.22950407       7.19713202       0.12862058      -0.02539008       0.15440824       0.60337477       0.64846404      -0.54110980
H        4.79491670       5.71383237       3.25112173       0.10023286       0.02186928       0.10287340       0.30602793       0.01005056       1.17203114
H        3.64065061       4.76523494       4.50994094      -0.16211336      -0.12046384      -0.08496665       0.07793953      -0.13743368       0.79319706
H        5.18219837       6.05574709       5.32318879       0.39875575       0.25146837      -0.05871072      -0.61043308      -0.76836774      -0.70021153
N        7.85689505       6.55873487       7.75759800      -1.46854296       0.96231833      -0.19593364       0.15634162      -0.02087570      -0.68832304
8
Lattice="11.994469596467322 0.0 0.0 0.0 11.994469596467322 0.0 0.0 0.0 11.994469596467322" Properties=species:S:1:pos:R:3:momenta:R:3:forces:R:3 energy=-438.22699648974 free_energy=-438.22699648974 stress="0.00017437670289359 6.2853848270332e-05 0.00084972067203961 6.2853848270332e-05 -1.4598471597037e-05 0.00066444320957367 0.00084972067203961 0.00066444320957367 0.00035877014108469" pbc="T T T"
B        4.57452341       5.48658456       4.42541016       0.47599172      -0.36780957       0.13079731       0.19397425       0.88859722      -1.00625752
H        7.83053047       6.70186941       8.74408816       0.25861041      -0.19459071       0.18388155      -0.18304132      -0.09211314       1.05626995
H        7.20482031       5.94688823       7.26627816       0.23823595      -0.49654903      -0.23047437      -0.25317849      -0.28426144       0.09789933
H        8.36122293       7.23210431       7.19673785       0.15675130       0.00690481       0.12491628       0.59358802       0.65613751      -0.59368851
H        4.80040746       5.71797969       3.25038143       0.11414272       0.02189327       0.15629809       0.29873434       0.00170125       1.04777198
H        3.63324667       4.76236528       4.49966424      -0.15067595      -0.12154188      -0.04494046       0.31351613       0.04312226       0.79963296
H        5.20097507       6.07002365       5.31237188       0.36023090       0.20701047      -0.09564856      -0.79135763      -0.93210172      -0.82914142
N        7.85203210       6.56513514       7.74965575      -1.45375077       0.94471975      -0.22484789      -0.18955674      -0.28317295      -0.57036246
8
Lattice="11.994186830072444 0.0 0.0 0.0 11.994186830072444 0.0 0.0 0.0 11.994186830072444" Properties=species:S:1:pos:R:3:momenta:R:3:forces:R:3 energy=-438.22163144988 free_energy=-438.22163144988 stress="0.00051723780776537 0.00038028558239066 0.0010010797791459 0.00038028558239066 0.00029279318636553 0.00086538131177754 0.0010010797791459 0.00086538131177754 0.00065189454687418" pbc="T T T"
B        4.57588378       5.48724593       4.41631959       0.47889378      -0.32161612       0.08632162       0.11650142       0.84031218      -0.75104965
H        7.84191021       6.69456237       8.74455348       0.24640065      -0.19992387       0.22132962      -0.21181352      -0.20591522       0.54417267
H        7.21514722       5.92480459       7.24564535       0.23285831      -0.49553230      -0.21567333       0.12886886       0.12081478       0.40996911
H        8.36860750       7.23539878       7.19241908       0.18230023       0.03683704       0.09525648       0.50677716       0.56509284      -0.56169201
H        4.80546770       5.72124875       3.24963335       0.12771615       0.02178474       0.20155731       0.29653260       0.00270117       0.86069227
H        3.62557933       4.75878805       4.48888518      -0.12834233      -0.11410912      -0.00532035       0.52967727       0.20958894       0.79532554
H        5.21659029       6.08109522       5.29717973       0.31447362       0.15620627      -0.13696673      -0.92773606      -1.05140462      -0.89332707
N        7.84609091       6.57058052       7.73918135      -1.45457923       0.91614589      -0.24642576      -0.44675266      -0.49073382      -0.39907881
8
Lattice="11.993889501672857 0.0 0.0 0.0 11.993889501672857 0.0 0.0 0.0 11.993889501672857" Properties=species:S:1:pos:R:3:momenta:R:3:forces:R:3 energy=-438.21000680886 free_energy=-438.21000680886 stress="0.00082335717660842 0.00068494842069457 0.0011004074425901 0.00068494842069457 0.00061007145745936 0.0010127702530788 0.0011004074425901 0.0010127702530788 0.00093163334385268" pbc="T T T"
B        4.57601357       5.48715468       4.40547240       0.47765462      -0.27913712       0.05489819       0.01937627       0.76060761      -0.49326887
H        7.85142989       6.68590404       8.74462561       0.23286635      -0.21041015       0.23192431      -0.24472279      -0.30238683      -0.02522700
H        7.22443563       5.90229123       7.22450541       0.24499531      -0.47520622      -0.18662957       0.45536611       0.50989011       0.68901987
H        8.37588168       7.23907465       7.18512067       0.20164319       0.05994240       0.06930278       0.34995253       0.38771579      -0.45603451
H        4.80994427       5.72356203       3.24926389       0.14116937       0.02200065       0.23588933       0.29904785       0.01225532       0.61854004
H        3.61800783       4.75481485       4.47842546      -0.09650424      -0.09913794       0.03342716       0.71441967       0.35327344       0.78143575
H        5.22860345       6.08862460       5.27832777       0.26372033       0.10130844      -0.17956195      -1.01777987      -1.12506551      -0.89476145
N        7.83888249       6.57495464       7.72705715      -1.46555897       0.88032268      -0.25913704      -0.57421023      -0.60760863      -0.21673598
8
Lattice="11.993578134179705 0.0 0.0 0.0 11.993578134179705 0.0 0.0 0.0 11.993578134179705" Properties=species:S:1:pos:R:3:momenta:R:3:forces:R:3 energy=-438.19317810148 free_energy=-438.19317810148 stress="0.0010720679688173 0.00094892590771818 0.0011419636982742 0.00094892590771818 0.00090320621685954 0.0010936823418146 0.0011419636982742 0.0010936823418146 0.0011442872652938" pbc="T T T"
B        4.57487254       5.48633971       4.39390165       0.47164361      -0.24175212       0.03627197      -0.08908805       0.65664761      -0.24307941
H        7.85900222       6.67571181       8.74391900       0.21786342      -0.22499435       0.21523715      -0.28090084      -0.37176940      -0.56913027
H        7.23344660       5.88030417       7.20448049       0.27109314      -0.43773781      -0.14580147       0.69774898       0.83931247       0.90637574
H        8.38264508       7.24274880       7.17608429       0.21193520       0.07273622       0.05007482       0.14281992       0.15176590      -0.30004829
H        4.81381872       5.72499334       3.24965913       0.15474349       0.02288964       0.25708182       0.30531083       0.02878299       0.33263114
H        3.61093305       4.75082933       4.46920875      -0.05701467      -0.07801679       0.07093366       0.85906902       0.46796561       0.75904122
H        5.23680909       6.09251521       5.25680100       0.21032546       0.04454935      -0.22044506      -1.06022218      -1.15249808      -0.83552099
N        7.83036196       6.57828993       7.71428892      -1.48044147       0.84205579      -0.26330526      -0.56698922      -0.63001419      -0.05061264
8
Lattice="11.993254914792185 0.0 0.0 0.0 11.993254914792185 0.0 0.0 0.0 11.993254914792185" Properties=species:S:1:pos:R:3:momenta:R:3:forces:R:3 energy=-438.17597463861 free_energy=-438.17597463861 stress="0.0012491059673389 0.0011493298566091 0.0011255515878633 0.0011493298566091 0.0011412633926981 0.0011042775015642 0.0011255515878633 0.0011042775015642 0.0012508153408826" pbc="T T T"
B        4.57252366       5.48492940       4.38264767       0.46062235      -0.21047821       0.02957225      -0.20249901       0.53463677      -0.01675902
H        7.86464053       6.66397003       8.74213402       0.20138515      -0.24231767       0.17432027      -0.31652793      -0.41061097      -1.02653819
H        7.24284437       5.85974997       7.18705153       0.30675822      -0.38697973      -0.09667439       0.84609551       1.08118152       1.04648053
H        8.38849056       7.24600820       7.16667885       0.21153124       0.07331357       0.03927755      -0.08778095      -0.10749167      -0.12235327
H        4.81719015       5.72573653       3.25112089       0.16864822       0.02470102       0.26360520       0.31342786       0.04972126       0.01893402
H        3.60476435       4.74724672       4.46215260      -0.01199282      -0.05234480       0.10690578       0.95792557       0.54963952       0.72935151
H        5.24122175       6.09288209       5.23373426       0.15667375      -0.01187247      -0.25678791      -1.05395980      -1.13339499      -0.71759574
N        7.82061210       6.58074070       7.70188898      -1.49339616       0.80579972      -0.26023035      -0.44621226      -0.57027940       0.08727661
8
Lattice="11.99292339018159 0.0 0.0 0.0 11.99292339018159 0.0 0.0 0.0 11.99292339018159" Properties=species:S:1:pos:R:3:momenta:R:3:forces:R:3 energy=-438.16488098838 free_energy=-438.16488098838 stress="0.0013449243652397 0.001269150742386 0.0010543068830831 0.001269150742386 0.0012990513420617 0.0010469100061127 0.0010543068830831 0.0010469100061127 0.0012303992174729" pbc="T T T"
B        4.56910817       5.48311412       4.37266793       0.44456129      -0.18596548       0.03299562      -0.31519313       0.40075093       0.16441779
H        7.86843966       6.65080035       8.73910862       0.18359252      -0.26093840       0.11449603      -0.34682362      -0.41996399      -1.35975059
H        7.25314844       5.84138808       7.17343767       0.34742600      -0.32768450      -0.04320184       0.90180690       1.21971762       1.10291287
H        8.39304052       7.24845508       7.15824356       0.20009293       0.06148639       0.03720914      -0.31393164      -0.35547950       0.04986347
H        4.82024379       5.72606095       3.25381477       0.18295150       0.02754575       0.25476617       0.32026685       0.07135648      -0.30144990
H        3.59988287       4.74446831       4.45808376       0.03627439      -0.02381524       0.14109635       1.00737063       0.59572511       0.69375491
H        5.24204860       6.09001172       5.21031947       0.10512311      -0.06578248      -0.28588637      -0.99784516      -1.06757270      -0.54290206
N        7.80981424       6.58254103       7.69078751      -1.49980191       0.77507212      -0.25149579      -0.24860458      -0.44724812       0.19252748
8
Lattice="11.992588054083711 0.0 0.0 0.0 11.992588054083711 0.0 0.0 0.0 11.992588054083711" Properties=species:S:1:pos:R:3:momenta:R:3:forces:R:3 energy=-438.16537534895 free_energy=-438.16537534895 stress="0.0013541311599006 0.0012976537454247 0.00093301478284277 0.0012976537454247 0.0013585547974363 0.00092739135640986 0.00093301478284277 0.00092739135640986 0.0010790153071654" pbc="T T T"
B        4.56481793       5.48110933       4.36476809       0.42358374      -0.16849048       0.04362891      -0.42118645       0.26183960       0.27631552
H        7.87055649       6.63642359       8.73483711       0.16482871      -0.27946806       0.04235409      -0.36729477      -0.40341259      -1.54915103
H        7.26470716       5.82576331       7.16451988       0.38871110      -0.26501062       0.01054592       0.87209762       1.24701407       1.07464752
H        8.39598162       7.24974906       7.15195879       0.17850050       0.03856786       0.04297304      -0.51128903      -0.56363984       0.19498613
H        4.82321323       5.72626418       3.25775095       0.19749585       0.03132944       0.23090379       0.32136361       0.08891644      -0.60302359
H        3.59660643       4.74283899       4.45767533       0.08539494       0.00581741       0.17329234       1.00519704       0.60458555       0.65383593
H        5.23966161       6.08432409       5.18773994       0.05803168      -0.11500754      -0.30507768      -0.89112986      -0.95541163      -0.31400846
N        7.79821512       6.58396205       7.68176795      -1.49646190       0.75223737      -0.23863207      -0.00924825      -0.28166798       0.26624817
8
Lattice="11.992253898722037 0.0 0.0 0.0 11.992253898722037 0.0 0.0 0.0 11.992253898722037" Properties=species:S:1:pos:R:3:momenta:R:3:forces:R:3 energy=-438.17954748952 free_energy=-438.17954748952 stress="0.0012759271925475 0.0012308668182758 0.00076772251470438 0.0012308668182758 0.0013097135405699 0.00075385999487021 0.00076772251470438 0.00075385999487021 0.00080596304301782" pbc="T T T"
B        4.55987188       5.47912526       4.35954570       0.39801539      -0.15792063       0.05740767      -0.51316333       0.12611966       0.29495325
H        7.87119458       6.62112403       8.72946400       0.14559808      -0.29662014      -0.03487715      -0.37412340      -0.36581537      -1.58687395
H        7.27768532       5.81315991       7.16078752       0.42654371      -0.20427424       0.06052961       0.76721459       1.16056102       0.96408218
H        8.39709551       7.24964201       7.14874421       0.14861710       0.00706362       0.05479592      -0.66115016      -0.71140059       0.29818660
H        4.82634229       5.72662897       3.26278989       0.21181403       0.03571802       0.19356541       0.31125677       0.09707809      -0.85839868
H        3.59515839       4.74261189       4.46139630       0.13286238       0.03474984       0.20329532       0.95033912       0.57529693       0.61136856
H        5.23457539       6.07634358       5.16711918       0.01776340      -0.15735423      -0.31175782      -0.73458938      -0.79887538      -0.03557335
N        7.78609782       6.58527590       7.67541664      -1.48133614       0.73857689      -0.22296102       0.24484570      -0.08788791       0.31257229
8
Lattice="11.991925962958195 0.0 0.0 0.0 11.991925962958195 0.0 0.0 0.0 11.991925962958195" Properties=species:S:1:pos:R:3:momenta:R:3:forces:R:3 energy=-438.20478080242 free_energy=-438.20478080242 stress="0.0011148745725011 0.0010721579317587 0.00056650469175088 0.0010721579317587 0.0011509618795716 0.00053735478684277 0.00056650469175088 0.00053735478684277 0.00042970531144133" pbc="T T T"
B        4.55449916       5.47734489       4.35734077       0.36855532      -0.15368245       0.06925419      -0.58149833       0.00371975       0.20235772
H        7.87059404       6.60521698       8.72326213       0.12655447      -0.31130722      -0.10973390      -0.36370867      -0.31277279      -1.47184552
H        7.29206468       5.80356986       7.16229662       0.45734133      -0.15078993       0.10286687       0.59978346       0.96267341       0.77673458
H        8.39628394       7.24800484       7.14917910       0.11303825      -0.02968533       0.07034441      -0.74951514      -0.78582684       0.35036606
H        4.82985043       5.72738689       3.26866383       0.22510215       0.04012855       0.14558684       0.28428550       0.09089183      -1.04237331
H        3.59564202       4.74392112       4.46946836       0.17605348       0.06112968       0.23092973       0.84325752       0.50797208       0.56826597
H        5.22742855       6.06667478       5.14946809      -0.01340159      -0.19071041      -0.30360056      -0.53263503      -0.60325933       0.28352441
N        7.77375873       6.58672912       7.67207926      -1.45349018       0.73476063      -0.20563538       0.49057174       0.12779780       0.33387046
8
Lattice="11.991608905703922 0.0 0.0 0.0 11.991608905703922 0.0 0.0 0.0 11.991608905703922" Properties=species:S:1:pos:R:3:momenta:R:3:forces:R:3 energy=-438.23412018676 free_energy=-438.23412018676 stress="0.0008824256183339 0.00083370138892379 0.00034066883311495 0.00083370138892379 0.00089138281054373 0.00029337630540195 0.00034066883311495 0.00029337630540195 -2.192079793767e-05" pbc="T T T"
B        4.54892747       5.47591104       4.35819859       0.33648959      -0.15473059       0.07355517      -0.61549124      -0.09398228      -0.00646432
H        7.86902493       6.58901777       8.71660106       0.10850842      -0.32278479      -0.17484606      -0.33511723      -0.25012349      -1.21274781
H        7.30766292       5.79668126       7.16864968       0.47826316      -0.10961929       0.13406187       0.38739410       0.66691995       0.52468925
H        8.39358536       7.24484411       7.15344924       0.07492804      -0.06786516       0.08697925      -0.77041734      -0.78065152       0.34875293
H        4.83390453       5.72869108       3.27500784       0.23629580       0.04376555       0.09094778       0.23622354       0.06705715      -1.13739002
H        3.59802355       4.74676479       4.48183691       0.21233489       0.08308827       0.25610437       0.68576835       0.40352857       0.52642095
H        5.21896057       6.05597584       5.13562675      -0.03349925      -0.21331890      -0.27893330      -0.29354478      -0.37753990       0.62888513
N        7.76148816       6.58852686       7.67182756      -1.41349117       0.74127110      -0.18784317       0.70316724       0.35711212       0.32885288
8
Lattice="11.991306530167694 0.0 0.0 0.0 11.991306530167694 0.0 0.0 0.0 11.991306530167694" Properties=species:S:1:pos:R:3:momenta:R:3:forces:R:3 energy=-438.25848431432 free_energy=-438.25848431432 stress="0.00059542553985023 0.00053556990131055 0.00010603172994308 0.00053556990131055 0.00055071363812969 4.2643101917798e-05 0.00010603172994308 4.2643101917798e-05 -0.00051751390765293" pbc="T T T"
B        4.54336919       5.47492077       4.36185277       0.30386363      -0.15950313       0.06498458      -0.60136715      -0.15386886      -0.31758914
H        7.86677917       6.57281211       8.70991543       0.09239880      -0.33075139      -0.22337714      -0.28576372      -0.18446091      -0.82336990
H        7.32416282       5.79189251       7.17900749       0.48757177      -0.08506328       0.15136873       0.15148629       0.29576111       0.22589165
H        8.38918332       7.24030651       7.16132153       0.03782368      -0.10347387       0.10197977      -0.71712542      -0.69525324       0.29245266
H        4.83859424       5.73059964       3.28139110       0.24423787       0.04571406       0.03432830       0.16491360       0.02475281      -1.13645996
H        3.60212321       4.75100002       4.49816261       0.23931391       0.09887996       0.27889097       0.48370511       0.26594497       0.48751782
H        5.20996979       6.04492144       5.12620476      -0.04124186      -0.22416335      -0.23716784      -0.03474075      -0.13799079       0.97789906
N        7.74954644       6.59082473       7.67444255      -1.36394760       0.75827352      -0.17098134       0.84443558       0.58391328       0.29422448
8
Lattice="11.991021458162649 0.0 0.0 0.0 11.991021458162649 0.0 0.0 0.0 11.991021458162649" Properties=species:S:1:pos:R:3:momenta:R:3:forces:R:3 energy=-438.27015528884 free_energy=-438.27015528884 stress="0.00027692575532892 0.00020592131676975 -0.00011736071336656 0.00020592131676975 0.00016188065548903 -0.00018918215932269 -0.00011736071336656 -0.00018918215932269 -0.0010166839433162" pbc="T T T"
B        4.53801096       5.47442209       4.36774399       0.27347250      -0.16588909       0.03948794      -0.52635605      -0.16368694      -0.69693523
H        7.86416032       6.55682917       8.70367392       0.07922364      -0.33534405      -0.24980657      -0.21696416      -0.12177287      -0.33420471
H        7.34116427       5.78836713       7.19215435       0.48499759      -0.07974391       0.15333008      -0.08013919      -0.10891623      -0.09098981
H        8.38340073       7.23467379       7.17216302       0.00536902      -0.13271720       0.11279216      -0.59071925      -0.53437879       0.18556269
H        4.84391992       5.73306864       3.28734754       0.24788909       0.04511092      -0.01958835       0.07179297      -0.03377780      -1.04561529
H        3.60762072       4.75634767       4.51784554       0.25509303       0.10703798       0.29951840       0.24621067       0.10163706       0.45262106
H        5.20126097       6.03415490       5.12153728      -0.03632195      -0.22323142      -0.17909504       0.22043791       0.09447673       1.30134159
N        7.73814303       6.59372065       7.67942888      -1.30953898       0.78484743      -0.15662297       0.88521536       0.77042403       0.22815414
8
Lattice="11.990754730470947 0.0 0.0 0.0 11.990754730470947 0.0 0.0 0.0 11.990754730470947" Properties=species:S:1:pos:R:3:momenta:R:3:forces:R:3 energy=-438.26624834124 free_energy=-438.26624834124 stress="-4.5685494180824e-05 -0.00012180901549406 -0.00030719540606525 -0.00012180901549406 -0.00023063424662589 -0.00037485864803149 -0.00030719540606525 -0.00037485864803149 -0.0014718169934095" pbc="T T T"
B        4.53300237       5.47441474       4.37507684       0.24871863      -0.17125667      -0.00485417      -0.38021339      -0.11396403      -1.09413653
H        7.86146894       6.54122269       8.69834844       0.06988142      -0.33700232      -0.25068948      -0.13268367      -0.06657463       0.20624607
H        7.35824236       5.78513495       7.20661909       0.47183025      -0.09377831       0.14015594      -0.27746839      -0.48939708      -0.38924304
H        8.37668472       7.22834425       7.18500138      -0.01897839      -0.15224781       0.11721004      -0.39727960      -0.30943730       0.03628540
H        4.84978628       5.73595809       3.29240629       0.24645353       0.04131597      -0.06676137      -0.03851992      -0.10377485      -0.88150448
H        3.61407001       4.76241048       4.54008026       0.25849154       0.10660798       0.31832227      -0.01244041      -0.07898134       0.42177434
H        5.19357317       6.02423326       5.12166266      -0.01974567      -0.21168242      -0.10708971       0.44286857       0.29521529       1.56523269
N        7.72741604       6.59724748       7.68606338      -1.25639957       0.81817314      -0.14629372       0.80434990       0.87097615       0.13472876
8
Lattice="11.990505541599585 0.0 0.0 0.0 11.990505541599585 0.0 0.0 0.0 11.990505541599585" Properties=species:S:1:pos:R:3:momenta:R:3:forces:R:3 energy=-438.25044834592 free_energy=-438.25044834592 stress="-0.00034294420517211 -0.00041287550815138 -0.00044314589550311 -0.00041287550815138 -0.00057547147815705 -0.00049173161131516 -0.00044314589550311 -0.00049173161131516 -0.0018299096248671" pbc="T T T"
B        4.52844842       5.47485268       4.38291380       0.23328785      -0.17268395      -0.06731999      -0.15977221      -0.00190067      -1.45136078
H        7.85898259       6.52606102       8.69437666       0.06496862      -0.33629649      -0.22552842      -0.04079743      -0.01997321       0.73017617
H        7.37501098       5.78123232       7.22084594       0.45076663      -0.12420735       0.11393555      -0.41438727      -0.77973724      -0.62955452
H        8.36957876       7.22180417       7.19862915      -0.03232345      -0.15953484       0.11361291      -0.15088540      -0.04014601      -0.14143542
H        4.85600568       5.73904559       3.29612888       0.23946032       0.03399872      -0.10425014      -0.15901161      -0.17896798      -0.66748810
H        3.62092678       4.76870137       4.56394086       0.24921791       0.09730692       0.33564541      -0.27283823      -0.26137559       0.39343531
H        5.18750164       6.01557003       5.12632816       0.00606242      -0.19183386      -0.02508476       0.60298232       0.44062818       1.73641386
N        7.71741901       6.60136581       7.69347846      -1.21126380       0.85333281      -0.14102300       0.59770456       0.84335609       0.02898570
8
Lattice="11.990271130489282 0.0 0.0 0.0 11.990271130489282 0.0 0.0 0.0 11.990271130489282" Properties=species:S:1:pos:R:3:momenta:R:3:forces:R:3 energy=-438.23158360831 free_energy=-438.23158360831 stress="-0.00058631346696202 -0.00063659642531447 -0.00051220573532115 -0.00063659642531447 -0.00082314985687025 -0.00052908185998841 -0.00051220573532115 -0.00052908185998841 -0.002039378624858" pbc="T T T"
B        4.52440514       5.47565221       4.39029761       0.23065402      -0.16738909      -0.14453771       0.12636004       0.16469066      -1.71448954
H        7.85693149       6.51133337       8.69211177       0.06459990      -0.33370292      -0.17741217       0.04725058       0.02194402       1.15823013
H        7.39117616       5.77586424       7.23339520       0.42542085      -0.16509024       0.07845588      -0.47631253      -0.92220078      -0.77973050
H        8.36268213       7.21558654       7.21174714      -0.03275235      -0.15330037       0.10123818       0.12433122       0.24444385      -0.32684908
H        4.86230915       5.74204805       3.29815936       0.22679114       0.02312453      -0.13039217      -0.28158342      -0.25278650      -0.42894591
H        3.62758901       4.77468459       4.58848697       0.22801444       0.07962220       0.35169619      -0.51141951      -0.42751285       0.36400076
H        5.18342536       6.00838914       5.13502852       0.03745084      -0.16693831       0.06171667       0.67774195       0.51393411       1.78970449
N        7.70811611       6.60596407       7.70077479      -1.18018914       0.88371116      -0.14078300       0.28887919       0.65895248      -0.06285469
8
Lattice="11.990046924212962 0.0 0.0 0.0 11.990046924212962 0.0 0.0 0.0 11.990046924212962" Properties=species:S:1:pos:R:3:momenta:R:3:forces:R:3 energy=-438.21934754727 free_energy=-438.21934754727 stress="-0.00075126090382791 -0.0007712930892283 -0.00051305974621975 -0.0007712930892283 -0.00093631965829324 -0.0004931300634669 -0.00051305974621975 -0.0004931300634669 -0.002060745491196" pbc="T T T"
B        4.52088102       5.47670557       4.39638452       0.24343210      -0.15328308      -0.23093479       0.45513102       0.36554341      -1.84331469
H        7.85547407       6.49697802       8.69176171       0.06825944      -0.32930585      -0.11299260       0.11858124       0.06800205       1.41677597
H        7.40656551       5.76855347       7.24313693       0.39952190      -0.20842040       0.03855149      -0.46486368      -0.88577222      -0.82429843
H        8.35659570       7.21021715       7.22313376      -0.01980036      -0.13382877       0.08044147       0.39369466       0.50709840      -0.49272094
H        4.86836501       5.74465020       3.29828522       0.20862349       0.00891790      -0.14472947      -0.39829602      -0.31935400      -0.18944855
H        3.63345123       4.77982977       4.61287296       0.19669084       0.05488576       0.36637968      -0.70307411      -0.55781052       0.32781253
H        5.18145874       6.00270429       5.14707475       0.07001308      -0.14069754       0.14737937       0.65714955       0.50993921       1.71439718
N        7.69939123       6.61086843       7.70714765      -1.16695389       0.90179210      -0.14411998      -0.06978145       0.31594458      -0.11021936
8
Lattice="11.989826972093258 0.0 0.0 0.0 11.989826972093258 0.0 0.0 0.0 11.989826972093258" Properties=species:S:1:pos:R:3:momenta:R:3:forces:R:3 energy=-438.21939777429 free_energy=-438.21939777429 stress="-0.00082062474666067 -0.00080768273186676 -0.00045735046875151 -0.00080768273186676 -0.00089883310532936 -0.00040640974827097 -0.00045735046875151 -0.00040640974827097 -0.0018788898096952" pbc="T T T"
B        4.51784679       5.47789658       4.40056286       0.27268847      -0.12944101      -0.31949118       0.79111281       0.57018240      -1.81792338
H        7.85467932       6.48293022       8.69333247       0.07482527      -0.32258261      -0.04166045       0.16268024       0.12887011       1.46109135
H        7.42112822       5.75923338       7.24939310       0.37610891      -0.24563625      -0.00079979      -0.39712241      -0.67814709      -0.76935294
H        8.35185515       7.20615165       7.23181631       0.00516244      -0.10322042       0.05292038       0.61618905       0.70808795      -0.60919110
H        4.87380651       5.74653712       3.29649450       0.18536773      -0.00817662      -0.14777662      -0.50225742      -0.37403947       0.03153696
H        3.63797183       4.78367532       4.63643710       0.15806693       0.02526581       0.37914401      -0.82542748      -0.63443808       0.27779572
H        5.18144319       5.99833126       5.16167971       0.09926075      -0.11665106       0.22591027       0.54736068       0.43664911       1.51744900
N        7.69107416       6.61586117       7.71200218      -1.17182195       0.90056931      -0.14827663      -0.40660534      -0.15085761      -0.09209763
8
Lattice="11.989604675262012 0.0 0.0 0.0 11.989604675262012 0.0 0.0 0.0 11.989604675262012" Properties=species:S:1:pos:R:3:momenta:R:3:forces:R:3 energy=-438.23058128768 free_energy=-438.23058128768 stress="-0.00078686259495911 -0.00074882544743584 -0.00036674655677715 -0.00074882544743584 -0.00071823577311993 -0.00030076104454008 -0.00036674655677715 -0.00030076104454008 -0.0015086942269275" pbc="T T T"
B        4.51525022       5.47911964       4.40253074       0.31754020      -0.09646391      -0.40260543       1.09375794       0.74484396      -1.63953320
H        7.85452461       6.46917833       8.69659830       0.08277884      -0.31244760       0.02616182       0.17467227       0.21224658       1.29020656
H        7.43490930       5.74825654       7.25199487       0.35700984      -0.26936213      -0.03537061      -0.29863165      -0.34146342      -0.63858839
H        8.34885907       7.20370914       7.23721285       0.03882861      -0.06530268       0.02169937       0.75210659       0.81336815      -0.64983927
H        4.87826767       5.74743127       3.29300637       0.15765223      -0.02750877      -0.14079645      -0.58807185      -0.41371617       0.21949990
H        3.64074561       4.78589554       4.65875038       0.11578256      -0.00634628       0.38894664      -0.86371194      -0.64534687       0.20690317
H        5.18298275       5.99493507       5.17804234       0.12130276      -0.09763145       0.29193795       0.36875732       0.31264726       1.22172156
N        7.68297737       6.62071158       7.71503005      -1.19121429       0.87523163      -0.14999322      -0.64892657      -0.67570191      -0.01013731
8
Lattice="11.989373631911489 0.0 0.0 0.0 11.989373631911489 0.0 0.0 0.0 11.989373631911489" Properties=species:S:1:pos:R:3:momenta:R:3:forces:R:3 energy=-438.24568748789 free_energy=-438.24568748789 stress="-0.00065440639801566 -0.00060893889316177 -0.00026655635605881 -0.00060893889316177 -0.00042375329021671 -0.00020693639938627 -0.00026655635605881 -0.00020693639938627 -0.00099384671345746" pbc="T T T"
B        4.51303853       5.48029786       4.40231719       0.37520069      -0.05650253      -0.47307458       1.32756086       0.86102756      -1.32647286
H        7.85491412       6.45580775       8.70111576       0.09050416      -0.29762047       0.08099118       0.15687522       0.31861534       0.94773645
H        7.44802319       5.73632326       7.25124988       0.34285317      -0.27470339      -0.06226299      -0.19503033       0.06213815      -0.46469181
H        8.34780175       7.20301583       7.23921898       0.07618299      -0.02519395      -0.00914117       0.77506718       0.80530600      -0.60028431
H        4.88142873       5.74712765       3.28825787       0.12634871      -0.04827127      -0.12563108      -0.65202892      -0.43668197       0.36478469
H        3.64157188       4.78635780       4.67962080       0.07394628      -0.03663496       0.39445423      -0.81474881      -0.58749459       0.11018110
H        5.18552246       5.99209944       5.19541856       0.13341030      -0.08544737       0.34136169       0.14995633       0.16168800       0.86011440
N        7.67494012       6.62521314       7.71623033      -1.21856622       0.82450646      -0.14669062      -0.74734427      -1.18053349       0.10970944
8
Lattice="11.98912848684444 0.0 0.0 0.0 11.98912848684444 0.0 0.0 0.0 11.98912848684444" Properties=species:S:1:pos:R:3:momenta:R:3:forces:R:3 energy=-438.25507656009 free_energy=-438.25507656009 stress="-0.00043990495258356 -0.00041045699197783 -0.00017859324902651 -0.00041045699197783 -5.8789357363152e-05 -0.00014593977337345 -0.00017859324902651 -0.00014593977337345 -0.00039640749467729" pbc="T T T"
B        4.51117696       5.48139427       4.40023860       0.44154114      -0.01287163      -0.52495466       1.47033528       0.90221698      -0.90776676
H        7.85571240       6.44301360       8.70628941       0.09667223      -0.27712214       0.11617480       0.11712064       0.44066730       0.50493974
H        7.46062578       5.72434542       7.24782543       0.33330013      -0.25996142      -0.08016188      -0.10581439       0.46952213      -0.27962962
H        8.34863696       7.20397948       7.23820443       0.11147320       0.01164274      -0.03522893       0.68067680       0.68862280      -0.46354220
H        4.88305550       5.74551684       3.28283907       0.09255998      -0.06958337      -0.10454689      -0.69207433      -0.44247107       0.46200647
H        3.64049152       4.78514901       4.69904979       0.03658164      -0.06235769       0.39433260      -0.68797100      -0.46789010      -0.01340812
H        5.18844485       5.98939993       5.21316427       0.13432161      -0.08079263       0.37182513      -0.07947877       0.00682898       0.46804348
N        7.66686185       6.62921628       7.71586610      -1.24627670       0.75107902      -0.13741587      -0.69122020      -1.59769437       0.23033354
8
Lattice="11.988865575757309 0.0 0.0 0.0 11.988865575757309 0.0 0.0 0.0 11.988865575757309" Properties=species:S:1:pos:R:3:momenta:R:3:forces:R:3 energy=-438.25102857609 free_energy=-438.25102857609 stress="-0.00016977524466031 -0.00018027112541779 -0.00011637118679529 -0.00018027112541779 0.00032821426916194 -0.00012572885582028 -0.00011637118679529 -0.00012572885582028 0.00021686084873325" pbc="T T T"
B        4.50965838       5.48241196       4.39681115       0.51194660       0.03063308      -0.55408714       1.51612174       0.86601516      -0.41683995
H        7.85678070       6.43107987       8.71146740       0.10046660      -0.25060200       0.12876680       0.06537581       0.56619795       0.03762345
H        7.47288994       5.71329157       7.24259041       0.32742940      -0.22639029      -0.08919198      -0.04232600       0.82995653      -0.10855929
H        8.35108600       7.20630520       7.23492462       0.13938957       0.04049734      -0.05277830       0.48750264       0.48871592      -0.25941789
H        4.88302184       5.74258832       3.27739818       0.05753233      -0.09060007      -0.08003093      -0.70763567      -0.43163997       0.50927704
H        3.63777958       4.78256038       4.71715907       0.00703535      -0.08086622       0.38750130      -0.50287672      -0.30183148      -0.16029665
H        5.19115942       5.98646130       5.23074927       0.12421502      -0.08338145       0.38280588      -0.29466762      -0.13368096       0.07720593
N        7.65871603       6.63264513       7.71437795      -1.26763046       0.66065510      -0.12296593      -0.50447203      -1.88658180       0.32144690
8
Lattice="11.988583259356659 0.0 0.0 0.0 11.988583259356659 0.0 0.0 0.0 11.988583259356659" Properties=species:S:1:pos:R:3:momenta:R:3:forces:R:3 energy=-438.23071333316 free_energy=-438.23071333316 stress="0.0001247191468969 5.4329539253899e-05 -8.4173696507597e-05 5.4329539253899e-05 0.00069193041999745 -0.00014320964050824 -8.4173696507597e-05 -0.00014320964050824 0.00078599525462509" pbc="T T T"
B        4.50850105       5.48338255       4.39265132       0.58213584       0.07043432      -0.55820434       1.47274712       0.76160280       0.11316921
H        7.85800286       6.42033483       8.71603694       0.10162269      -0.21841236       0.11932318       0.01065299       0.68227656      -0.39149284
H        7.48498322       5.70405042       7.23646202       0.32407672      -0.17739186      -0.09055141      -0.00890872       1.10997383       0.03189872
H        8.35468741       7.20954795       7.23037933       0.15607270       0.05826444      -0.05929700       0.22981079       0.24320666      -0.01810133
H        4.88130996       5.73841445       3.27254632       0.02253352      -0.11059420      -0.05458850      -0.69942046      -0.40552788       0.50750838
H        3.63389585       4.77903531       4.73411477      -0.01244324      -0.09046059       0.37328466      -0.28418754      -0.10912199      -0.32298219
H        5.19316417       5.98298808       5.24775015       0.10439908      -0.09222566       0.37532565      -0.47801778      -0.24788449      -0.28777963
N        7.65054236       6.63549370       7.71228785      -1.27799301       0.56030343      -0.10528031      -0.22809894      -2.03765770       0.36805060
8
Lattice="11.988281932279095 0.0 0.0 0.0 11.988281932279095 0.0 0.0 0.0 11.988281932279095" Properties=species:S:1:pos:R:3:momenta:R:3:forces:R:3 energy=-438.19684521736 free_energy=-438.19684521736 stress="0.00041302390156543 0.0002692532231523 -7.9314185383691e-05 0.0002692532231523 0.00099555253870081 -0.00018888446169994 -7.9314185383691e-05 -0.00018888446169994 0.0012642805978214" pbc="T T T"
B        4.50773845       5.48434736       4.38839033       0.64871036       0.10367331      -0.53674455       1.35641180       0.60484305       0.65208620
H        7.85929586       6.41109901       8.71949744       0.10030164      -0.18147733       0.09099427      -0.04058538       0.77831401      -0.73987947
H        7.49704831       5.69733224       7.23028737       0.32206450      -0.11756893      -0.08609627      -0.00524216       1.29172343       0.13245821
H        8.35887128       7.21318411       7.22566049       0.15957540       0.06378827      -0.05387059      -0.05334689      -0.00861415       0.22837712
H        4.87799327       5.73312246       3.26878450      -0.01127757      -0.12899107      -0.03057669      -0.66923052      -0.36607225       0.45996608
H        3.62941066       4.77509783       4.75007053      -0.02085895      -0.09048190       0.35148466      -0.05672568       0.09006672      -0.49166306
H        5.19407460       5.97876954       5.26383459       0.07687129      -0.10593643       0.35148733      -0.61912201      -0.32954315      -0.60994648
N        7.64242523       6.63780583       7.71011908      -1.27513398       0.45692770      -0.08666615       0.09428171      -2.06289473       0.36901241
8
Lattice="11.987963774839248 0.0 0.0 0.0 11.987963774839248 0.0 0.0 0.0 11.987963774839248" Properties=species:S:1:pos:R:3:momenta:R:3:forces:R:3 energy=-438.15627658516 free_energy=-438.15627658516 stress="0.00066943352829991 0.00044595564882085 -9.5607220353456e-05 0.00044595564882085 0.0012130188611214 -0.00025139233106755 -9.5607220353456e-05 -0.00025139233106755 0.0016198721423209" pbc="T T T"
B        4.50740712       5.48533799       4.38461349       0.70938601       0.12842554      -0.49051697       1.18621146       0.41349359       1.17358677
H        7.86060815       6.40364054       8.72150307       0.09691312      -0.14107108       0.04845380      -0.08449277       0.84715806      -0.98377721
H        7.50918867       5.69361149       7.22476826       0.32032770      -0.05194432      -0.07799448      -0.02844714       1.36858613       0.18893218
H        8.36303640       7.21668287       7.22182226       0.14977698       0.05770830      -0.03702457      -0.32718401      -0.23366060       0.45278375
H        4.87321032       5.72686352       3.26646070      -0.04295231      -0.14537901      -0.01007218      -0.61981934      -0.31568178       0.37209941
H        3.62492738       4.77128090       4.76513598      -0.01837129      -0.08119246       0.32237455       0.15828961       0.27828231      -0.65611090
H        5.19362730       5.97366845       5.27874550       0.04391386      -0.12297654       0.31401704      -0.71312471      -0.37656436      -0.87874731
N        7.63446867       6.63964889       7.70834228      -1.25898036       0.35638918      -0.06922259       0.42495876      -1.98288488       0.33172795
8
Lattice="11.987632356254055 0.0 0.0 0.0 11.987632356254055 0.0 0.0 0.0 11.987632356254055" Properties=species:S:1:pos:R:3:momenta:R:3:forces:R:3 energy=-438.11746584042 free_energy=-438.11746584042 stress="0.00087486641931725 0.00057217335918527 -0.00012635332115376 0.00057217335918527 0.0013287671521687 -0.00032045927053986 -0.00012635332115376 -0.00032045927053986 0.0018343660704128" pbc="T T T"
B        4.50753701       5.48636125       4.38182375       0.76291981       0.14366017      -0.42130622       0.98034234       0.20396785       1.65462151
H        7.86191205       6.39814574       8.72187821       0.09196727      -0.09860027      -0.00298774      -0.11904842       0.88468803      -1.11290060
H        7.52145941       5.69310359       7.22042190       0.31794738       0.01455001      -0.06849030      -0.07442053       1.34093085       0.20025788
H        8.36661387       7.21956336       7.21978878       0.12795207       0.04199956      -0.01033773      -0.56552198      -0.40831899       0.63557475
H        4.86713848       5.71978630       3.26575414      -0.07180509      -0.15950371       0.00522875      -0.55478724      -0.25715057       0.25158912
H        3.62101849       4.76806900       4.77936397      -0.00602609      -0.06353732       0.28659069       0.34487952       0.44223888      -0.80710482
H        5.19166977       5.96760389       5.29228598       0.00781277      -0.14182471       0.26587403      -0.75866389      -0.38929404      -1.08805424
N        7.62677540       6.64108982       7.70734512      -1.23098692       0.26322825      -0.05455889       0.73526946      -1.81819797       0.26638115
8
Lattice="11.987292191896328 0.0 0.0 0.0 11.987292191896328 0.0 0.0 0.0 11.987292191896328" Properties=species:S:1:pos:R:3:momenta:R:3:forces:R:3 energy=-438.08788075543 free_energy=-438.08788075543 stress="0.0010165219523286 0.00064130741857025 -0.0001660824905225 0.00064130741857025 0.0013362646632025 -0.00038804947268724 -0.0001660824905225 -0.00038804947268724 0.0019002444277479" pbc="T T T"
B        4.50814539       5.48738973       4.38042223       0.80871106       0.14902290      -0.33148871       0.75435432      -0.01008630       2.07386676
H        7.86319529       6.39470502       8.72061440       0.08597039      -0.05544790      -0.05793459      -0.14310553       0.88881123      -1.12503005
H        7.53386101       5.69576330       7.21756514       0.31408053       0.07731876      -0.05975989      -0.13841283       1.21347556       0.16737176
H        8.36911003       7.22143212       7.22029791       0.09623631       0.01945204       0.02398244      -0.75080070      -0.51795647       0.76457491
H        4.85997309       5.71201921       3.26667779      -0.09740675      -0.17121940       0.01408073      -0.47849136      -0.19359174       0.10851164
H        3.61818216       4.76586007       4.79274411       0.01455403      -0.03887682       0.24493705       0.49216946       0.57280394      -0.93710263
H        5.18814682       5.96053685       5.30430230      -0.02927646      -0.16101829       0.20995168      -0.75607485      -0.36914847      -1.23413929
N        7.61943469       6.64217760       7.70741753      -1.19323868       0.18073097      -0.04376383       1.00425428      -1.58620553       0.18212120
8
Lattice="11.986948323249047 0.0 0.0 0.0 11.986948323249047 0.0 0.0 0.0 11.986948323249047" Properties=species:S:1:pos:R:3:momenta:R:3:forces:R:3 energy=-438.07206543328 free_energy=-438.07206543328 stress="0.0010863900580242 0.00065112080938676 -0.00021105434131767 0.00065112080938676 0.0012365722883796 -0.00044819890379777 -0.00021105434131767 -0.00044819890379777 0.001818745516416" pbc="T T T"
B        4.50923303       5.48835655       4.38069492       0.84610701       0.14453494      -0.22384346       0.52098576      -0.21782544       2.40995094
H        7.86445400       6.39330700       8.71785987       0.07936764      -0.01294711      -0.11105721      -0.15572576       0.85861709      -1.02257056
H        7.54633104       5.70128940       7.21630842       0.30780929       0.13210037      -0.05382487      -0.21510822       0.99477862       0.09312326
H        8.37013194       7.22200481       7.22386613       0.05722416      -0.00670450       0.06337099      -0.87180201      -0.55468577       0.83308255
H        4.85191577       5.70366332       3.26908845      -0.11950273      -0.18038143       0.01574326      -0.39592694      -0.12836081      -0.04454288
H        3.61681638       4.76494351       4.80519254       0.04140333      -0.00878369       0.19819544       0.59323629       0.66411610      -1.04022124
H        5.18309242       5.95246473       5.31466377      -0.06529210      -0.17906089       0.14894609      -0.70619031      -0.31776971      -1.31409375
N        7.61251885       6.64293216       7.70874177      -1.14751583       0.11117610      -0.03753258       1.21521464      -1.30211292       0.08559762
8
Lattice="11.986605943689556 0.0 0.0 0.0 11.986605943689556 0.0 0.0 0.0 11.986605943689556" Properties=species:S:1:pos:R:3:momenta:R:3:forces:R:3 energy=-438.07064816742 free_energy=-438.07064816742 stress="0.0010798260961531 0.00060243682238325 -0.00025890370489112 0.00060243682238325 0.0010374279390968 -0.00049630481547279 -0.00025890370489112 -0.00049630481547279 0.0015990748552791" pbc="T T T"
B        4.51077925       5.48915254       4.38279391       0.87389736       0.13044857      -0.10187593       0.29070952      -0.41061757       2.64033486
H        7.86568751       6.39383011       8.71390944       0.07254133       0.02753237      -0.15709098      -0.15611128       0.79407945      -0.81157308
H        7.55873476       5.70912607       7.21654787       0.29811021       0.17488341      -0.05246232      -0.29853207       0.69813627      -0.01699258
H        8.36940629       7.22112134       7.23075335       0.01384159      -0.03299902       0.10496804      -0.92114724      -0.51507203       0.83778352
H        4.84316948       5.69479266       3.27269651      -0.13789325      -0.18676085       0.01004467      -0.31253934      -0.06495254      -0.19243950
H        3.61719965       4.76548460       4.81653795       0.07224177       0.02494937       0.14716915       0.64389592       0.71259306      -1.11197973
H        5.17663128       5.94342545       5.32324566      -0.09809975      -0.19429500       0.08551876      -0.60985954      -0.23672880      -1.32503068
N        7.60608289       6.64333805       7.71137775      -1.09495288       0.05613914      -0.03626926       1.35298585      -0.98210178      -0.01890246
8
Lattice="11.986270058236727 0.0 0.0 0.0 11.986270058236727 0.0 0.0 0.0 11.986270058236727" Properties=species:S:1:pos:R:3:momenta:R:3:forces:R:3 energy=-438.0803586658 free_energy=-438.0803586658 stress="0.00099486878832799 0.00049848056139407 -0.00030801271802193 0.00049848056139407 0.00075540881900682 -0.00052798275804043 -0.00030801271802193 -0.00052798275804043 0.0012599320051107" pbc="T T T"
B        4.51273796       5.48962929       4.38671392       0.89059331       0.10725108       0.02943107       0.07249453      -0.58174846       2.74287068
H        7.86689668       6.39603395       8.70918827       0.06589850       0.06440653      -0.19079337      -0.14363676       0.69668151      -0.50504601
H        7.57086898       5.71847744       7.21796137       0.28408772       0.20212211      -0.05709071      -0.38223667       0.34703706      -0.15239341
H        8.36680082       7.21876079       7.24092758      -0.03054198      -0.05572758       0.14558937      -0.89464244      -0.40010404       0.77905208
H        4.83393266       5.68545540       3.27708179      -0.15244116      -0.19012926      -0.00247124      -0.23359332      -0.00648363      -0.31944034
H        3.61946924       4.76750927       4.82652170       0.10449964       0.06027693       0.09295082       0.64146407       0.71622984      -1.14883821
H        5.16898556       5.93350544       5.32993036      -0.12535167      -0.20492205       0.02270360      -0.46810717      -0.12762686      -1.26416555
N        7.60016024       6.64334434       7.71524686      -1.03690095       0.01658945      -0.04029413       1.40436436      -0.64981295      -0.12932302
8
Lattice="11.985945100935517 0.0 0.0 0.0 11.985945100935517 0.0 0.0 0.0 11.985945100935517" Properties=species:S:1:pos:R:3:momenta:R:3:forces:R:3 energy=-438.09505860854 free_energy=-438.09505860854 stress="0.00083264159790501 0.00034372567372346 -0.00035620331471363 0.00034372567372346 0.00041220595756299 -0.00053923944327638 -0.00035620331471363 -0.00053923944327638 0.00082905733599488" pbc="T T T"
B        4.51503349       5.48960356       4.39226998       0.89551866       0.07592691       0.16324438      -0.12620774      -0.72549831       2.69766784
H        7.86808188       6.39955246       8.70422300       0.05992809       0.09598511      -0.20751651      -0.11985869       0.57007536      -0.12341796
H        7.58248154       5.72835163       7.22001539       0.26542613       0.21134811      -0.06857187      -0.45984314      -0.02876496      -0.29798575
H        8.36234316       7.21505211       7.25403919      -0.07207514      -0.07112488       0.18187299      -0.79061677      -0.21346740       0.65868284
H        4.82437977       5.67566405       3.28172210      -0.16322026      -0.19048885      -0.02042789      -0.16357962       0.04437116      -0.40963027
H        3.62360194       4.77089299       4.83481076       0.13536528       0.09487036       0.03717602       0.58482724       0.67406464      -1.14847178
H        5.16047238       5.92283672       5.33462184      -0.14462002      -0.20926468      -0.03592105      -0.28276244       0.00745979      -1.12989081
N        7.59474908       6.64286427       7.72011855      -0.97630250      -0.00740560      -0.04979464       1.36126342      -0.33494859      -0.24271907
8
Lattice="11.985634629789333 0.0 0.0 0.0 11.985634629789333 0.0 0.0 0.0 11.985634629789333" Properties=species:S:1:pos:R:3:momenta:R:3:forces:R:3 energy=-438.10765623379 free_energy=-438.10765623379 stress="0.00059854676811657 0.00014439045125315 -0.000400502054885 0.00014439045125315 3.7155462004455e-05 -0.00052614931608608 -0.000400502054885 -0.00052614931608608 0.00034499791053181" pbc="T T T"
B        4.51756469       5.48886800       4.39910173       0.88938791       0.03793888       0.29149662      -0.29908179      -0.83771376       2.49290134
H        7.86924242       6.40391042       8.69959050       0.05508873       0.12081986      -0.20415955      -0.08879968       0.42116506       0.29984780
H        7.59330361       5.73765760       7.22201245       0.24249376       0.20212959      -0.08687185      -0.52601476      -0.38878320      -0.43258987
H        8.35622642       7.21027131       7.26944110      -0.10687379      -0.07577973       0.21075050      -0.61290727       0.03536017       0.48328562
H        4.81464155       5.66538674       3.28604413      -0.17061743      -0.18816182      -0.04170950      -0.10519972       0.08622115      -0.45125893
H        3.62940821       4.77536332       4.84102992       0.16200033       0.12632189      -0.01811526       0.47390464       0.58638121      -1.10958127
H        5.15149386       5.91158968       5.33727222      -0.15366956      -0.20598616      -0.08651735      -0.05734186       0.16550659      -0.92330688
N        7.58980352       6.64177827       7.72562146      -0.91762468      -0.01744883      -0.06477996       1.22540233      -0.07545274      -0.35427581
8
Lattice="11.985340972791601 0.0 0.0 0.0 11.985340972791601 0.0 0.0 0.0 11.985340972791601" Properties=species:S:1:pos:R:3:momenta:R:3:forces:R:3 energy=-438.11232122239 free_energy=-438.11232122239 stress="0.00030396406286626 -9.1315551594733e-05 -0.00043657911596557 -9.1315551594733e-05 -0.00033725673422181 -0.00048601933375387 -0.00043657911596557 -0.00048601933375387 -0.00014499594896378" pbc="T T T"
B        4.52021231       5.48720329       4.40670128       0.87405692      -0.00494613       0.40592985      -0.44050172      -0.91505695       2.12893803
H        7.87037194       6.40855518       8.69585775       0.05160910       0.13798121      -0.17978916      -0.05829606       0.26033874       0.71879454
H        7.60307740       5.74532346       7.22317033       0.21614403       0.17633234      -0.11087921      -0.57715418      -0.68941586      -0.53222434
H        8.34880068       7.20482598       7.28624152      -0.13146548      -0.06697901       0.22974895      -0.37327353       0.33029279       0.26452819
H        4.80479315       5.65454565       3.28948323      -0.17525425      -0.18369096      -0.06373569      -0.05898708       0.11894580      -0.43830214
H        3.63654030       4.78051499       4.84479751       0.18172113       0.15234576      -0.07079769       0.31010317       0.45477630      -1.03218977
H        5.14252333       5.89996625       5.33790764      -0.15066457      -0.19415388      -0.12545560       0.20166136       0.34170951      -0.65047611
N        7.58523277       6.63993800       7.73127428      -0.86582015      -0.01706176      -0.08491401       1.01226741       0.09096813      -0.45431195
8
Lattice="11.985064984436576 0.0 0.0 0.0 11.985064984436576 0.0 0.0 0.0 11.985064984436576" Properties=species:S:1:pos:R:3:momenta:R:3:forces:R:3 energy=-438.10630241159 free_energy=-438.10630241159 stress="-3.2020580616424e-05 -0.00035179925412036 -0.00045913143989388 -0.00035179925412036 -0.00067871296147016 -0.00041857064749945 -0.00045913143989388 -0.00041857064749945 -0.00058848091331855" pbc="T T T"
B        4.52285440       5.48439495       4.41446763       0.85206140      -0.05083941       0.49909886      -0.54483003      -0.95471870       1.62252198
H        7.87145231       6.41290396       8.69351642       0.04926177       0.14724319      -0.13611134      -0.03948592       0.10064165       1.07841835
H        7.61158078       5.75042407       7.22273012       0.18743478       0.13799616      -0.13838366      -0.61167618      -0.89166620      -0.57462798
H        8.34055047       7.19922896       7.30339286      -0.14336376      -0.04309290       0.23730597      -0.09462634       0.64667615       0.02072182
H        4.79486041       5.64302881       3.29154856      -0.17782302      -0.17768055      -0.08384474      -0.02332642       0.14362612      -0.37194194
H        3.64451451       4.78583602       4.84577225       0.19210502       0.17090755      -0.11890491       0.09714233       0.28285840      -0.91803085
H        5.13409640       5.88819930       5.33665837      -0.13431610      -0.17324586      -0.14975140       0.48326785       0.52856280      -0.32498719
N        7.58091514       6.63717559       7.73653975      -0.82492303      -0.01145640      -0.10930946       0.75364731       0.13728873      -0.52839240
8
Lattice="11.984805908102329 0.0 0.0 0.0 11.984805908102329 0.0 0.0 0.0 11.984805908102329" Properties=species:S:1:pos:R:3:momenta:R:3:forces:R:3 energy=-438.09073925289 free_energy=-438.09073925289 stress="-0.00038193288109231 -0.00062052950114972 -0.00046278792488419 -0.00062052950114972 -0.00095896964809016 -0.00032687152917559 -0.00046278792488419 -0.00032687152917559 -0.00093391227562753" pbc="T T T"
B        4.52539107       5.48025627       4.42178064       0.82630430      -0.09783805       0.56523609      -0.60583000      -0.95418152       1.00921107
H        7.87244984       6.41640165       8.69292025       0.04724189       0.14910939      -0.07751875      -0.04453642      -0.04443086       1.32387347
H        7.61865217       5.75229628       7.22007460       0.15742033       0.09271578      -0.16633364      -0.62955199      -0.97049194      -0.54503772
H        8.33205844       7.19406210       7.31980861      -0.14161155      -0.00392609       0.23301872       0.18755233       0.95080732      -0.22308319
H        4.78484509       5.63071479       3.29188566      -0.17893445      -0.17067555      -0.09966818       0.00499150       0.16216268      -0.26031348
H        3.65274747       4.79074380       4.84370955       0.19108850       0.18032094      -0.16077631      -0.15759821       0.07727252      -0.77113394
H        5.12680673       5.87655741       5.33378777      -0.10403922      -0.14319652      -0.15746953       0.77065397       0.71500378       0.02977302
N        7.57672689       6.63332173       7.74089539      -0.79696513      -0.00665742      -0.13641132       0.49645038       0.05886114      -0.56087364
8
Lattice="11.98456138999087 0.0 0.0 0.0 11.98456138999087 0.0 0.0 0.0 11.98456138999087" Properties=species:S:1:pos:R:3:momenta:R:3:forces:R:3 energy=-438.07021514143 free_energy=-438.07021514143 stress="-0.00071105191052479 -0.00087524353635867 -0.00044327604666364 -0.00087524353635867 -0.0011566349452012 -0.00021739392880119 -0.00044327604666364 -0.00021739392880119 -0.0011381508510652" pbc="T T T"
B        4.52777895       5.47465760       4.42808273       0.79987349      -0.14406970       0.60097742      -0.61687913      -0.91152808       0.34321883
H        7.87331937       6.41858287       8.69423391       0.04420363       0.14469260      -0.01062985      -0.08301215      -0.16381400       1.41291168
H        7.62421930       5.75062224       7.21483303       0.12703847       0.04669620      -0.19131330      -0.63162868      -0.92116645      -0.44069374
H        8.32395396       7.18992970       7.33449545      -0.12724443       0.04899217       0.21780976       0.42723306       1.20184279      -0.43705924
H        4.77476666       5.61750809       3.29032748      -0.17901392      -0.16308879      -0.10941482       0.02996264       0.17681934      -0.11706437
H        3.66060743       4.79463169       4.83851835       0.17710143       0.17935670      -0.19515229      -0.44151364      -0.15128869      -0.59833583
H        5.12130361       5.86535223       5.32970739      -0.06014473      -0.10448868      -0.14812048       1.04061148       0.88617162       0.37992451
N        7.57258463       6.62823413       7.74390872      -0.78129551      -0.00819772      -0.16410301       0.29678267      -0.11949397      -0.54139574
8
Lattice="11.984327655539259 0.0 0.0 0.0 11.984327655539259 0.0 0.0 0.0 11.984327655539259" Properties=species:S:1:pos:R:3:momenta:R:3:forces:R:3 energy=-438.05120712929 free_energy=-438.05120712929 stress="-0.00098305592381352 -0.001089681665923 -0.00039828445728271 -0.001089681665923 -0.0012597521355984 -9.8201074165252e-05 -0.00039828445728271 -9.8201074165252e-05 -0.0011762364613702" pbc="T T T"
B        4.53007082       5.46755991       4.43295144       0.77580403      -0.18770960       0.60582488      -0.57366163      -0.82721804      -0.30728225
H        7.87402019       6.41912855       8.69740373       0.03848041       0.13544820       0.05671373      -0.15697398      -0.25222247       1.33131298
H        7.62833099       5.74546767       7.20694887       0.09706371       0.00570624      -0.21010189      -0.61826166      -0.76130934      -0.27250359
H        8.31684903       7.18740294       7.34667858      -0.10345758       0.11231034       0.19387839       0.57933776       1.36068996      -0.59431753
H        4.76471441       5.60338171       3.28692392      -0.17823490      -0.15515189      -0.11200765       0.05541050       0.18965202       0.04175644
H        3.66747862       4.79692471       4.83030417       0.14924673       0.16737153      -0.22122664      -0.73495236      -0.38636100      -0.41012654
H        5.11828470       5.85494407       5.32496174      -0.00402787      -0.05825247      -0.12297829       1.26537355       1.02402427       0.68368642
N        7.56849554       6.62183530       7.74530007      -0.77439912      -0.01977361      -0.19006492       0.20235806      -0.34696438      -0.47140786
8
Lattice="11.984099930326854 0.0 0.0 0.0 11.984099930326854 0.0 0.0 0.0 11.984099930326854" Properties=species:S:1:pos:R:3:momenta:R:3:forces:R:3 energy=-438.03990935695 free_energy=-438.03990935695 stress="-0.0011630683952638 -0.0012363067138726 -0.00032766525560255 -0.0012363067138726 -0.00126209571481 2.2459173145448e-05 -0.00032766525560255 2.2459173145448e-05 -0.0010408605192899" pbc="T T T"
B        4.53244906       5.45904687       4.43614727       0.75664274      -0.22698410       0.58220690      -0.47708927      -0.70557211      -0.86888869
H        7.87454160       6.41790544       8.70215652       0.02841212       0.12284467       0.11665472      -0.26181068      -0.30925654       1.08970132
H        7.63118447       5.73727218       7.19669777       0.06810618      -0.02571329      -0.22008369      -0.59061281      -0.52090023      -0.05961310
H        8.31126796       7.18695902       7.35589345      -0.07534331       0.18098627       0.16439336       0.60620428       1.39482397      -0.67404593
H        4.75489802       5.58842030       3.28194341      -0.17646691      -0.14687410      -0.10708151       0.08453411       0.20232984       0.19934085
H        3.67283197       4.79714091       4.81938629       0.10753929       0.14445164      -0.23863222      -1.01118978      -0.60664426      -0.21979750
H        5.11847198       5.84573884       5.32017271       0.06168175      -0.00634918      -0.08520789       1.41593336       1.10993865       0.89767230
N        7.56460309       6.61415297       7.74497797      -0.77018769      -0.04235324      -0.21221818       0.24816049      -0.56231962      -0.36325856
8
Lattice="11.983872806050616 0.0 0.0 0.0 11.983872806050616 0.0 0.0 0.0 11.983872806050616" Properties=species:S:1:pos:R:3:momenta:R:3:forces:R:3 energy=-438.04011727966 free_energy=-438.04011727966 stress="-0.0012274655229712 -0.0012927562874703 -0.00023355911193867 -0.0012927562874703 -0.0011682471820517 0.00013718008823098 -0.00023355911193867 0.00013718008823098 -0.00075258083895765" pbc="T T T"
B        4.53523539       5.44934612       4.43763070       0.74391653      -0.26022918       0.53518771      -0.33794944      -0.55751224      -1.27641885
H        7.87492727       6.41497984       8.70802874       0.01273726       0.10808475       0.16248680      -0.38414428      -0.34008363       0.72999897
H        7.63313413       5.72679697       7.18465525       0.04067306      -0.04470795      -0.21952078      -0.54983476      -0.24164203       0.17025030
H        8.30758002       7.18891959       7.36202781      -0.04907539       0.24874911       0.13293729       0.49625301       1.29200410      -0.67098375
H        4.74567735       5.57285289       3.27584406      -0.17326973      -0.13803954      -0.09489875       0.11940793       0.21607193       0.34001027
H        3.67629279       4.79495321       4.80628483       0.05325607       0.11161822      -0.24740207      -1.23768109      -0.78732581      -0.04234932
H        5.12255465       5.83816639       5.31594781       0.13303884       0.04856309      -0.03973646       1.46847212       1.12883593       0.98738171
N        7.56120844       6.60535200       7.74304208      -0.76101143      -0.07398441      -0.22902145       0.43469376      -0.70731040      -0.23661683
8
Lattice="11.983640952672495 0.0 0.0 0.0 11.983640952672495 0.0 0.0 0.0 11.983640952672495" Properties=species:S:1:pos:R:3:momenta:R:3:forces:R:3 energy=-438.05191969593 free_energy=-438.05191969593 stress="-0.0011668921842323 -0.001246617776214 -0.00011989351941448 -0.001246617776214 -0.00098862536636753 0.00024115591818849 -0.00011989351941448 0.00024115591818849 -0.0003500010286699" pbc="T T T"
B        4.53886375       5.43882522       4.43755448       0.73787944      -0.28613816       0.47212745      -0.17923571      -0.40087190      -1.48774400
H        7.87528236       6.41060152       8.71442135      -0.00911937       0.09205052       0.18941295      -0.50821688      -0.35178334       0.30634292
H        7.63466890       5.71503734       7.17162546       0.01524706      -0.05012959      -0.20771741      -0.49800089       0.03847238       0.39156992
H        8.30594201       7.19339617       7.36531553      -0.03083883       0.30885322       0.10299796       0.26592449       1.06351178      -0.59583164
H        4.73755052       5.55705611       3.26921961      -0.16801414      -0.12831474      -0.07633077       0.16081649       0.23136248       0.45173475
H        3.67769894       4.79024479       4.79167629      -0.01064211       0.07108753      -0.24803806      -1.38074280      -0.90343875       0.10768524
H        5.13109467       5.83263101       5.31277190       0.20491937       0.10306599       0.00718131       1.41150801       1.07311241       0.93727488
N        7.55875045       6.59574128       7.73976022      -0.73928536      -0.11040957      -0.23959704       0.73301194      -0.74838374      -0.10956074
8
Lattice="11.983399633102636 0.0 0.0 0.0 11.983399633102636 0.0 0.0 0.0 11.983399633102636" Properties=species:S:1:pos:R:3:momenta:R:3:forces:R:3 energy=-438.07182059974 free_energy=-438.07182059974 stress="-0.00098830223002466 -0.0010990415341867 7.5806528536302e-06 -0.0010990415341867 -0.00074125388634177 0.00033110726965727 7.5806528536302e-06 0.00033110726965727 0.00011362930561482" pbc="T T T"
B        4.54381351       5.42794708       4.43623175       0.73769478      -0.30427681       0.40212118      -0.03242832      -0.25728574      -1.49359229
H        7.87575279       6.40515142       8.72067783      -0.03689882       0.07539267       0.19516175      -0.61921817      -0.35138810      -0.12521089
H        7.63635154       5.70309277       7.15853196      -0.00767479      -0.04249160      -0.18523165      -0.43823695       0.28759061       0.58231385
H        8.30626548       7.20026086       7.36627863      -0.02562882       0.35530560       0.07746855      -0.04484217       0.74151899      -0.47110531
H        4.73108969       5.54151079       3.26272180      -0.16012795      -0.11742978      -0.05285391       0.20839878       0.24817118       0.52625144
H        3.67713415       4.78313877       4.77631349      -0.07938612       0.02637220      -0.24169091      -1.41347226      -0.93646376       0.22002478
H        5.14441799       5.82943843       5.31091228       0.27166262       0.15334593       0.04884355       1.24996865       0.94590873       0.75666523
N        7.55773716       6.58573927       7.73552208      -0.69959021      -0.14618121      -0.24377707       1.09252360      -0.67799006       0.00630865
8
Lattice="11.983145229186741 0.0 0.0 0.0 11.983145229186741 0.0 0.0 0.0 11.983145229186741" Properties=species:S:1:pos:R:3:momenta:R:3:forces:R:3 energy=-438.09428995126 free_energy=-438.09428995126 stress="-0.00071254338358393 -0.00086453237557266 0.00014174597903839 -0.00086453237557266 -0.00045001743762241 0.00040488603867043 0.00014174597903839 0.00040488603867043 0.0005803191592166" pbc="T T T"
B        4.55052070       5.41719489       4.43408461       0.74165771      -0.31544612       0.33470400       0.07107045      -0.14629613      -1.31785754
H        7.87648088       6.39906291       8.72617052      -0.06961819       0.05860577       0.18018231      -0.70648971      -0.34438676      -0.51744634
H        7.63873081       5.69201591       7.14629320      -0.02767848      -0.02375192      -0.15386025      -0.37440715       0.48325946       0.72648326
H        8.30822396       7.20915899       7.36562646      -0.03630969       0.38407326       0.05823835      -0.38614137       0.36964369      -0.32356855
H        4.72684595       5.52672470       3.25697471      -0.14927365      -0.10528826      -0.02642500       0.26085606       0.26603559       0.55956886
H        3.67492127       4.77398623       4.76093009      -0.14696338      -0.01813196      -0.23013122      -1.32359926      -0.87979204       0.29127208
H        5.16253721       5.82872880       5.31037452       0.32814011       0.19588690       0.07935270       1.00427773       0.76060834       0.47686899
N        7.55864954       6.57580626       7.73077947      -0.63995551      -0.17595568      -0.24201479       1.45775527      -0.51060702       0.10642193
8
Lattice="11.982875582655913 0.0 0.0 0.0 11.982875582655913 0.0 0.0 0.0 11.982875582655913" Properties=species:S:1:pos:R:3:momenta:R:3:forces:R:3 energy=-438.11397459108 free_energy=-438.11397459108 stress="-0.00036958081993775 -0.00056757967125507 0.00027496396924431 -0.00056757967125507 -0.0001423043024113 0.00046106355730593 0.00027496396924431 0.00046106355730593 0.00099641202417421" pbc="T T T"
B        4.55929705       5.40699596       4.43158403       0.74732850      -0.32151021       0.27814113       0.10974038      -0.07950273      -1.00784130
H        7.87755595       6.39274202       8.73037257      -0.10586028       0.04203648       0.14724484      -0.76430903      -0.33438181      -0.83634447
H        7.64225511       5.68268112       7.13571446      -0.04455916       0.00310246      -0.11629877      -0.31057373       0.61211768       0.81415018
H        8.31129897       7.21955981       7.36413789      -0.06332690       0.39361781       0.04601495      -0.71191565      -0.00807559      -0.17717884
H        4.72526169       5.51315521       3.25250301      -0.13535784      -0.09194548       0.00079494       0.31624182       0.28420984       0.55167396
H        3.67157661       4.76331577       4.74616269      -0.20718714      -0.05796783      -0.21537840      -1.11763635      -0.74102667       0.32539727
H        5.18513329       5.83044341       5.31092161       0.37065220       0.22809507       0.09466856       0.70442032       0.53714934       0.14124131
N        7.56185283       6.56637118       7.72598770      -0.56166819      -0.19546839      -0.23514015       1.78203996      -0.27304058       0.19060018
8
Lattice="11.982590127629537 0.0 0.0 0.0 11.982590127629537 0.0 0.0 0.0 11.982590127629537" Properties=species:S:1:pos:R:3:momenta:R:3:forces:R:3 energy=-438.12753067166 free_energy=-438.12753067166 stress="6.7867019237943e-06 -0.00023779650703868 0.00040008917156913 -0.00023779650703868 0.0001539063548835 0.00049887680033624 0.00040008917156913 0.00049887680033624 0.0013189750345769" pbc="T T T"
B        4.57028119       5.39766867       4.42919397       0.75184388      -0.32484056       0.23814220       0.07763515      -0.05791009      -0.61984990
H        7.87898070       6.38650900       8.73290270      -0.14406665       0.02588595       0.10066782      -0.79096742      -0.32347555      -1.06028637
H        7.64721462       5.67570001       7.12741589      -0.05836322       0.03453876      -0.07567730      -0.25049961       0.66804543       0.84035813
H        8.31484902       7.23082764       7.36255564      -0.10506899       0.38470534       0.04042517      -0.98795813      -0.35481354      -0.04937529
H        4.72661727       5.50115597       3.24968742      -0.11846280      -0.07753497       0.02674097       0.37225094       0.30178951       0.50585515
H        3.66774110       4.75176249       4.73250991      -0.25477540      -0.08941142      -0.19923046      -0.81912385      -0.53976085       0.33174892
H        5.21159547       5.83433181       5.31214084       0.39728985       0.24857767       0.09305573       0.38217182       0.29701757      -0.20655890
N        7.56754224       6.55777690       7.72156003      -0.46824704      -0.20197812      -0.22408093       2.03196322       0.00591767       0.25988608
8
Lattice="11.982289831673405 0.0 0.0 0.0 11.982289831673405 0.0 0.0 0.0 11.982289831673405" Properties=species:S:1:pos:R:3:momenta:R:3:forces:R:3 energy=-438.13434189945 free_energy=-438.13434189945 stress="0.00038352849036013 9.4755512774077e-05 0.00051121102783712 9.4755512774077e-05 0.00041282955196827 0.00051835357493659 0.00051121102783712 0.00051835357493659 0.0015185759813373" pbc="T T T"
B        4.58342820       5.38940100       4.42732606       0.75245092      -0.32768497       0.21756406      -0.01628802      -0.07347601      -0.20677161
H        7.88066323       6.38057057       8.73354692      -0.18272175       0.01024132       0.04563700      -0.78722148      -0.31290010      -1.17693298
H        7.65372048       5.67138617       7.12178998      -0.06936151       0.06686352      -0.03523863      -0.19716333       0.65005235       0.80383735
H        8.31818361       7.24229540       7.36150998      -0.15855297       0.35980477       0.04034887      -1.19338890      -0.64365310       0.04927692
H        4.73101670       5.49095465       3.24874291      -0.09877917      -0.06221716       0.04962076       0.42644733       0.31781965       0.42778956
H        3.66410623       4.73999443       4.72032302      -0.28604069      -0.10997743      -0.18296703      -0.46215285      -0.30213868       0.32179665
H        5.24109654       5.83998846       5.31352118       0.40777927       0.25707076       0.07484715       0.06505096       0.05924061      -0.53080908
N        7.57572830       6.55025390       7.71783556      -0.36441642      -0.19417085      -0.20977037       2.18418819       0.30259168       0.31406817
8
Lattice="11.981976993772392 0.0 0.0 0.0 11.981976993772392 0.0 0.0 0.0 11.981976993772392" Properties=species:S:1:pos:R:3:momenta:R:3:forces:R:3 energy=-438.13602642993 free_energy=-438.13602642993 stress="0.00073148271417747 0.00040258870572949 0.00060416937713899 0.00040258870572949 0.00061313244229584 0.00052097586834943 0.00060416937713899 0.00052097586834943 0.0015802054614878" pbc="T T T"
B        4.59852923       5.38225330       4.42630533       0.74700217      -0.33173729       0.21674352      -0.15406326      -0.11301427       0.18786005
H        7.88243110       6.37501601       8.73226291      -0.22041532      -0.00490287      -0.01228590      -0.75514477      -0.30361639      -1.17972573
H        7.66171465       5.66975609       7.11898133      -0.07796621       0.09650622       0.00188538      -0.15305008       0.56143315       0.70661187
H        8.32063108       7.25333010       7.36146930      -0.22001392       0.32248530       0.04423553      -1.31654963      -0.85547842       0.11286752
H        4.73840275       5.48265313       3.24971409      -0.07655017      -0.04616874       0.06804404       0.47658334       0.33117323       0.32618729
H        3.66134592       4.72864690       4.70981444      -0.29910529      -0.11855453      -0.16727453      -0.08291570      -0.05443195       0.30606226
H        5.27268058       5.84690151       5.31451956       0.40309539       0.25416884       0.04187332      -0.22645870      -0.16200846      -0.80723358
N        7.58625195       6.54391678       7.71505774      -0.25555978      -0.17185083      -0.19317074       2.22195817       0.59692083       0.35005739
8
Lattice="11.981654938241434 0.0 0.0 0.0 11.981654938241434 0.0 0.0 0.0 11.981654938241434" Properties=species:S:1:pos:R:3:momenta:R:3:forces:R:3 energy=-438.13523342984 free_energy=-438.13523342984 stress="0.0010280489478358 0.0006635068075728 0.00067639213990441 0.0006635068075728 0.00073972863378827 0.00050948116749209 0.00067639213990441 0.00050948116749209 0.0015010715845216" pbc="T T T"
B        4.61524500       5.37617503       4.42634549       0.73423543      -0.33798036       0.23410202      -0.31413134      -0.16294037       0.53340320
H        7.88405738       6.36982663       8.72917435      -0.25582669      -0.01963356      -0.06744307      -0.69746603      -0.29652191      -1.06737195
H        7.67099669       5.67055333       7.11888099      -0.08462915       0.12019319       0.03282020      -0.11942294       0.40971659       0.55401351
H        8.32159393       7.26338409       7.36271229      -0.28531018       0.27696413       0.05033243      -1.35354207      -0.97837855       0.13939830
H        4.74858586       5.47624009       3.25248059      -0.05203359      -0.02958428       0.08106774       0.52044053       0.34097262       0.20976723
H        3.66006101       4.71827084       4.70107131      -0.29375107      -0.11526737      -0.15232086       0.28612315       0.18086332       0.29249428
H        5.30534148       5.85449910       5.31460261       0.38504160       0.24102869      -0.00311701      -0.47926586      -0.35696708      -1.02188871
N        7.59881278       6.53877447       7.71335924      -0.14745113      -0.13569241      -0.17538136       2.14729892       0.86765110       0.36220166
8
Lattice="11.981327652618571 0.0 0.0 0.0 11.981327652618571 0.0 0.0 0.0 11.981327652618571" Properties=species:S:1:pos:R:3:momenta:R:3:forces:R:3 energy=-438.13453627707 free_energy=-438.13453627707 stress="0.0012564307683242 0.0008605547819452 0.00072716751027904 0.0008605547819452 0.00078377642369819 0.00048866196175694 0.00072716751027904 0.00048866196175694 0.0012903144196931" pbc="T T T"
B        4.63314008       5.37102093       4.42752830       0.71373293      -0.34670481       0.26670341      -0.47733169      -0.21184493       0.80839574
H        7.88528612       6.36488587       8.72456018      -0.28774985      -0.03409254      -0.11424818      -0.61779979      -0.29252792      -0.84297423
H        7.68125182       5.67327896       7.12112709      -0.08982582       0.13514275       0.05508483      -0.09720316       0.20752518       0.35543933
H        8.32059181       7.27203435       7.36530789      -0.35011712       0.22791479       0.05679246      -1.30280475      -1.00274528       0.12776026
H        4.76127244       5.47160271       3.25676747      -0.02551944      -0.01267945       0.08826086       0.55617956       0.34623799       0.08919830
H        3.66073584       4.70929330       4.69406382      -0.27108448      -0.10116296      -0.13790290       0.62026050       0.38768775       0.28594941
H        5.33808172       5.86218242       5.31326494       0.35586536       0.21912688      -0.05691972      -0.68599575      -0.52001485      -1.16888683
N        7.61299893       6.53473976       7.71274781      -0.04554657      -0.08743511      -0.15772455       1.98569179       1.08937417       0.34610329
8
Lattice="11.98099941808888 0.0 0.0 0.0 11.98099941808888 0.0 0.0 0.0 11.98099941808888" Properties=species:S:1:pos:R:3:momenta:R:3:forces:R:3 energy=-438.13569465268 free_energy=-438.13569465268 stress="0.0014055957716861 0.00098244388202016 0.00075742380551145 0.00098244388202016 0.00074367839146528 0.00046502559704073 0.00075742380551145 0.00046502559704073 0.00096825452356258" pbc="T T T"
B        4.65171581       5.36656228       4.42979077       0.68569499      -0.35764754       0.31071780      -0.62906392      -0.25189823       0.99873351
H        7.88585141       6.35998645       8.71883781      -0.31523451      -0.04843414      -0.14749273      -0.52132912      -0.29209480      -0.51777066
H        7.69207586       5.67723058       7.12511989      -0.09411183       0.13937080       0.06680437      -0.08626787      -0.02596651       0.12562450
H        8.31729136       7.27901000       7.36910505      -0.41016436       0.18034878       0.06174138      -1.16581646      -0.92144272       0.07774659
H        4.77608737       5.46853435       3.26216161       0.00256374       0.00431705       0.08969449       0.58226892       0.34605713      -0.02484256
H        3.66370806       4.70198942       4.68865061      -0.23324279      -0.07788385      -0.12360837       0.90279680       0.55604818       0.28871744
H        5.36995204       5.86934612       5.31003457       0.31792835       0.19012341      -0.11617747      -0.84298847      -0.64808294      -1.24715518
N        7.62831923       6.53163362       7.71309747       0.04608918      -0.03010556      -0.14165491       1.75606317       1.23910934       0.29964215
8
Lattice="11.980674423086635 0.0 0.0 0.0 11.980674423086635 0.0 0.0 0.0 11.980674423086635" Properties=species:S:1:pos:R:3:momenta:R:3:forces:R:3 energy=-438.13921467255 free_energy=-438.13921467255 stress="0.0014708060447431 0.0010234559482495 0.00076947360752209 0.0010234559482495 0.00062557617120839 0.00044587495911802 0.00076947360752209 0.00044587495911802 0.00056613067981012" pbc="T T T"
B        4.67043775       5.36249226       4.43292266       0.65072391      -0.37020604       0.36171075      -0.75997361      -0.27880855       1.09514169
H        7.88548618       6.35483313       8.71253726      -0.33771510      -0.06279509      -0.16280927      -0.41521674      -0.29448568      -0.11513147
H        7.70299529       5.68155120       7.13005713      -0.09811653       0.13199818       0.06695347      -0.08534686      -0.26466210      -0.11503939
H        8.31152467       7.28421162       7.37373254      -0.46140085       0.13952597       0.06331323      -0.94731343      -0.73078800      -0.00964681
H        4.79258982       5.46673590       3.26813717       0.03160731       0.02113562       0.08593269       0.59751146       0.33956735      -0.12227827
H        3.66914975       4.69646280       4.68458532      -0.18309713      -0.04742733      -0.10894985       1.12384068       0.68081822       0.30132195
H        5.40007783       5.87538813       5.30447643       0.27357321       0.15577520      -0.17753764      -0.94856986      -0.73949930      -1.25807223
N        7.64423197       6.52918413       7.71414886       0.12433260       0.03203441      -0.12859396       1.45200463       1.29016311       0.22520034
8
Lattice="11.980356365613414 0.0 0.0 0.0 11.980356365613414 0.0 0.0 0.0 11.980356365613414" Properties=species:S:1:pos:R:3:momenta:R:3:forces:R:3 energy=-438.14457646152 free_energy=-438.14457646152 stress="0.0014547835069315 0.00098407747588301 0.0007663138034883 0.00098407747588301 0.0004437040486047 0.00043738752655042 0.0007663138034883 0.00043738752655042 0.00012547746166334" pbc="T T T"
B        4.68875418       5.35842939       4.43658020       0.60978425      -0.38364570       0.41485856      -0.86506620      -0.29104714       1.09184560
H        7.88392234       6.34904633       8.70626103      -0.35500953      -0.07723350      -0.15736918      -0.30891005      -0.29665549       0.32553282
H        7.71348693       5.68529331       7.13499828      -0.10236712       0.11354336       0.05561316      -0.09228208      -0.47691487      -0.34164961
H        8.30329602       7.28772188       7.37861681      -0.50012329       0.11070032       0.05974996      -0.65772302      -0.43445576      -0.13075028
H        4.81028678       5.46581490       3.27409533       0.06095266       0.03743904       0.07798870       0.60101054       0.32598717      -0.19464109
H        3.67706034       4.69263449       4.68153324      -0.12388397      -0.01198946      -0.09344646       1.27823606       0.76010485       0.32330791
H        5.42768036       5.87971537       5.29620558       0.22522652       0.11789261      -0.23772275      -1.00166010      -0.79313364      -1.20394894
N        7.66016259       6.52702410       7.71552539       0.18586307       0.09335067      -0.11963236       1.06124583       1.21131702       0.13377890
8
Lattice="11.980048052437713 0.0 0.0 0.0 11.980048052437713 0.0 0.0 0.0 11.980048052437713" Properties=species:S:1:pos:R:3:momenta:R:3:forces:R:3 energy=-438.15143608157 free_energy=-438.15143608157 stress="0.0013670304219124 0.0008719491015751 0.00075039733903251 0.0008719491015751 0.00022016908578403 0.00044188490031701 0.00075039733903251 0.00044188490031701 -0.00030430499729465" pbc="T T T"
B        4.70611009       5.35392470       4.44032185       0.56420046      -0.39721652       0.46512800      -0.94217320      -0.28884188       0.98631687
H        7.88088732       6.34217594       8.70062617      -0.36728731      -0.09158785      -0.13069929      -0.21347521      -0.29238458       0.74820458
H        7.72300259       5.68750167       7.13896150      -0.10710958       0.08610669       0.03412313      -0.10427449      -0.62985461      -0.52807817
H        8.29277552       7.28980381       7.38302789      -0.52324965       0.09861519       0.04959987      -0.31758077      -0.04948792      -0.27694389
H        4.82864988       5.46528985       3.27942188       0.09004358       0.05283911       0.06723138       0.59212901       0.30467654      -0.23605698
H        3.68727253       4.69024424       4.67910684      -0.05890249       0.02615970      -0.07666034       1.36347474       0.79375054       0.35383375
H        5.45209979       5.88175371       5.28491941       0.17553937       0.07834516      -0.29356314      -1.00128170      -0.80795495      -1.08737069
N        7.67551506       6.52469281       7.71677218       0.22711664       0.14686672      -0.11507151       0.61422300       0.97570313       0.04435802
8
Lattice="11.979751063948694 0.0 0.0 0.0 11.979751063948694 0.0 0.0 0.0 11.979751063948694" Properties=species:S:1:pos:R:3:momenta:R:3:forces:R:3 energy=-438.16109933899 free_energy=-438.16109933899 stress="0.0012205400285275 0.00070260209504765 0.00072197697637791 0.00070260209504765 -1.5890945298754e-05 0.00045522348658647 0.00072197697637791 0.00045522348658647 -0.00067153458637194" pbc="T T T"
B        4.72197210       5.34848192       4.44366769       0.51548308      -0.41018271       0.50745495      -0.99045029      -0.27323896       0.77980312
H        7.87610596       6.33373731       8.69618933      -0.37514298      -0.10530062      -0.08534114      -0.13902765      -0.27258422       1.08670861
H        7.73100449       5.68731323       7.14104685      -0.11233699       0.05328356       0.00502664      -0.11774962      -0.69643387      -0.65209495
H        8.28027742       7.29088051       7.38616064      -0.52896508       0.10668219       0.03203610       0.03815453       0.38704836      -0.43219355
H        4.84714176       5.46460935       3.28356173       0.11838188       0.06693398       0.05524587       0.57048933       0.27522899      -0.24402782
H        3.69947364       4.68887055       4.67692363       0.00852312       0.06476377      -0.05819637       1.37817025       0.78227243       0.39202093
H        5.47282660       5.88097189       5.27045218       0.12731635       0.03907958      -0.34200661      -0.94650010      -0.78299887      -0.91124994
N        7.68969831       6.52165191       7.71741938       0.24647670       0.18487430      -0.11411397       0.18629395       0.58334059      -0.01560433
8
Lattice="11.9794655788518 0.0 0.0 0.0 11.9794655788518 0.0 0.0 0.0 11.9794655788518" Properties=species:S:1:pos:R:3:momenta:R:3:forces:R:3 energy=-438.17624167263 free_energy=-438.17624167263 stress="0.001029594631416 0.00049875532248457 0.0006776497827405 0.00049875532248457 -0.00023008300228882 0.00046560646047414 0.0006776497827405 0.00046560646047414 -0.00093129115601675" pbc="T T T"
B        4.73587694       5.34160154       4.44617585       0.46504636      -0.42181647       0.53692954      -1.00927336      -0.24536584       0.47826935
H        7.86932085       6.32327836       8.69336405      -0.37965038      -0.11732088      -0.02698996      -0.09102454      -0.22739424       1.27932947
H        7.73701762       5.68406695       7.14056655      -0.11796402       0.01969468      -0.02824949      -0.12827538      -0.66301197      -0.70075226
H        8.26622101       7.29148936       7.38725048      -0.51759608       0.13588908       0.00725279       0.36087624       0.81418512      -0.57181988
H        4.86525764       5.46319581       3.28610153       0.14532635       0.07932085       0.04365522       0.53602547       0.23758144      -0.21982557
H        3.71324457       4.68797622       4.67468048       0.07487449       0.10160052      -0.03769555       1.32137675       0.72638179       0.43709396
H        5.48954709       5.87692914       5.25284594       0.08328116       0.00210389      -0.38013270      -0.83685610      -0.71773929      -0.67945919
N        7.70218513       6.51732929       7.71706298       0.24616070       0.20059073      -0.11468749      -0.16406809       0.07617744      -0.02018555
8
Lattice="11.979190393746181 0.0 0.0 0.0 11.979190393746181 0.0 0.0 0.0 11.979190393746181" Properties=species:S:1:pos:R:3:momenta:R:3:forces:R:3 energy=-438.19873405801 free_energy=-438.19873405801 stress="0.00080841707674224 0.00028717059665847 0.00061084369371072 0.00028717059665847 -0.00038689522711929 0.00045553546069326 0.00061084369371072 0.00045553546069326 -0.0010553301362735" pbc="T T T"
B        4.74749674       5.33285543       4.44752001       0.41419222      -0.43139892       0.54902510      -0.99740730      -0.20582743       0.09337527
H        7.86034017       6.31047802       8.69234765      -0.38207850      -0.12618166       0.03615783      -0.06782637      -0.14978780       1.28741626
H        7.74069978       5.67741102       7.13715311      -0.12382012      -0.00980477      -0.06193572      -0.13180413      -0.53359868      -0.67363342
H        8.25107530       7.29220741       7.38570965      -0.49208411       0.18371547      -0.02317947       0.59740587       1.15255079      -0.66502936
H        4.88258313       5.46051876       3.28684275       0.17007990       0.08958093       0.03392420       0.48906658       0.19212457      -0.16834579
H        3.72811509       4.68698298       4.67222757       0.13642921       0.13445365      -0.01484884       1.19271497       0.62704754       0.48838334
H        5.50220392       5.86935112       5.23241946       0.04600825      -0.03057874      -0.40522751      -0.67350983      -0.61290652      -0.39798512
N        7.71258988       6.51120058       7.71544550       0.23102442       0.19023534      -0.11385054      -0.40373411      -0.46887099       0.03819872
8
Lattice="11.978923147976145 0.0 0.0 0.0 11.978923147976145 0.0 0.0 0.0 11.978923147976145" Properties=species:S:1:pos:R:3:momenta:R:3:forces:R:3 energy=-438.22717212933 free_energy=-438.22717212933 stress="0.0005685262939653 9.2733182580564e-05 0.00051495434382794 9.2733182580564e-05 -0.00045685181704625 0.00040744013848863 0.00051495434382794 0.00040744013848863 -0.001038821811037" pbc="T T T"
B        4.75670445       5.32198319       4.44754559       0.36437230      -0.43822062       0.53996292      -0.95215596      -0.15402919      -0.35669281
H        7.84910784       6.29525886       8.69308005      -0.38342887      -0.13024196       0.09485491      -0.06131219      -0.03916187       1.10906414
H        7.74191754       5.66738948       7.13081455      -0.12954537      -0.03096771      -0.09252063      -0.12596543      -0.32873373      -0.58238359
H        8.23529605       7.29355431       7.38125562      -0.45772563       0.24367444      -0.05619396       0.70594955       1.32351729      -0.68274858
H        4.89886011       5.45619141       3.28584310       0.19187920       0.09730757       0.02719884       0.43043522       0.13977311      -0.09741560
H        3.74362710       4.68536884       4.66961877       0.18946810       0.16114182       0.01059046       0.99321268       0.48602686       0.54523163
H        5.51105988       5.85822475       5.20980703       0.01796987      -0.05706069      -0.41496693      -0.46099552      -0.47175044      -0.07645449
N        7.72074118       6.50289937       7.71251106       0.20717377       0.15438760      -0.10886703      -0.51281957      -0.95550676       0.14350545
8
Lattice="11.97866075850206 0.0 0.0 0.0 11.97866075850206 0.0 0.0 0.0 11.97866075850206" Properties=species:S:1:pos:R:3:momenta:R:3:forces:R:3 energy=-438.25560409143 free_energy=-438.25560409143 stress="0.00031740868384496 -6.7769128062646e-05 0.00038813657077006 -6.7769128062646e-05 -0.00042474719545708 0.00031087675119968 0.00038813657077006 0.00031087675119968 -0.00090054639120388" pbc="T T T"
B        4.76362275       5.30898387       4.44628647       0.31741306      -0.44156387       0.50719884      -0.86846656      -0.08727947      -0.84654480
H        7.83577145       6.27787909       8.69525104      -0.38420630      -0.12805055       0.14067689      -0.06055825       0.09742243       0.77979702
H        7.74080285       5.65448448       7.12191839      -0.13464691      -0.04082862      -0.11726674      -0.11096541      -0.07975062      -0.44698852
H        8.21927116       7.29589507       7.37399357      -0.42122117       0.30609301      -0.08758987       0.67222614       1.27681985      -0.60855451
H        4.91404156       5.45006581       3.28340972       0.21012222       0.10217439       0.02419802       0.36149189       0.08193674      -0.01656549
H        3.75938960       4.68276569       4.66712076       0.23049645       0.17964362       0.03880696       0.72699750       0.30687709       0.60682921
H        5.51673872       5.84388229       5.18594221       0.00135306      -0.07570199      -0.40773658      -0.20983236      -0.30191048       0.27011270
N        7.72673313       6.49232644       7.70841443       0.18112715       0.09823857      -0.09823594      -0.48847402      -1.29628174       0.26335751
8
Lattice="11.978399981860557 0.0 0.0 0.0 11.978399981860557 0.0 0.0 0.0 11.978399981860557" Properties=species:S:1:pos:R:3:momenta:R:3:forces:R:3 energy=-438.27487898563 free_energy=-438.27487898563 stress="5.8512260824804e-05 -0.00018925853612383 0.00023586851814416 -0.00018925853612383 -0.00029566003052026 0.0001671706810603 0.00023586851814416 0.0001671706810603 -0.00067741851397416" pbc="T T T"
B        4.76863654       5.29416703       4.44393864       0.27551877      -0.44070906       0.44984937      -0.74166287      -0.00259818      -1.34456595
H        7.82071637       6.25896366       8.69835744      -0.38448363      -0.11872769       0.16768569      -0.05520315       0.24619063       0.35948450
H        7.73776472       5.63959031       7.11110861      -0.13868568      -0.03811516      -0.13456954      -0.08756837       0.17912618      -0.29024832
H        8.20329404       7.29937666       7.36442098      -0.38919831       0.36018318      -0.11290093       0.51651469       1.01147286      -0.44611317
H        4.92831098       5.44229004       3.28004254       0.22439943       0.10398931       0.02514160       0.28426220       0.02056586       0.06344509
H        3.77510594       4.67902332       4.66517761       0.25648866       0.18827731       0.06992442       0.40282034       0.09592641       0.67169301
H        5.52021195       5.82703336       5.16198045      -0.00230498      -0.08537003      -0.38295881       0.06454291      -0.11462790       0.62239084
N        7.73093587       6.47971633       7.70348233       0.15883906       0.03041800      -0.08213660      -0.35823289      -1.43961270       0.36384786
8
Lattice="11.978138010865283 0.0 0.0 0.0 11.978138010865283 0.0 0.0 0.0 11.978138010865283" Properties=species:S:1:pos:R:3:momenta:R:3:forces:R:3 energy=-438.2768012181 free_energy=-438.2768012181 stress="-0.00020014754069555 -0.00027460131454972 7.2564165538409e-05 -0.00027460131454972 -9.250969140167e-05 -9.5306785470905e-06 7.2564165538409e-05 -9.5306785470905e-06 -0.00041312370959399" pbc="T T T"
B        4.77235742       5.27813832       4.44080436       0.24121273      -0.43487090       0.36895492      -0.56516625       0.10552170      -1.81265631
H        7.80454502       6.23945491       8.70179220      -0.38409894      -0.10215514       0.17318786      -0.04032950       0.39196330      -0.08507983
H        7.73344306       5.62391231       7.09918156      -0.14141852      -0.02319775      -0.14399467      -0.06009302       0.41674151      -0.13409291
H        8.18757095       7.30392230       7.35334993      -0.36676929       0.39652857      -0.12841316       0.28391822       0.57687344      -0.21933211
H        4.94205418       5.43330004       3.27634581       0.23449394       0.10270034       0.02976170       0.20109991      -0.04219013       0.13336396
H        3.79056706       4.67421572       4.66434515       0.26522447       0.18589964       0.10400563       0.03793174      -0.13567263       0.73749321
H        5.52271675       5.80871636       5.13917767       0.00741637      -0.08576558      -0.34137090       0.33593089       0.07129486       0.95387672
N        7.73395435       6.46563121       7.69814374       0.14457476      -0.03922720      -0.06213387      -0.16808362      -1.38510530       0.42379651
8
Lattice="11.977872803093609 0.0 0.0 0.0 11.977872803093609 0.0 0.0 0.0 11.977872803093609" Properties=species:S:1:pos:R:3:momenta:R:3:forces:R:3 energy=-438.25900899572 free_energy=-438.25900899572 stress="-0.00044510970592434 -0.00032959839740687 -8.3661016852165e-05 -0.00032959839740687 0.00015098765822434 -0.00019749657556551 -8.3661016852165e-05 -0.00019749657556551 -0.00014991394571729" pbc="T T T"
B        4.77554692       5.26172123       4.43723015       0.21710842      -0.42322365       0.26748748      -0.33839455       0.23943648      -2.21050243
H        7.78800902       6.22049425       8.70493870      -0.38281498      -0.07899319       0.15767387      -0.01502683       0.52054677      -0.49644147
H        7.72862318       5.60881316       7.08696097      -0.14279671       0.00217599      -0.14613533      -0.03178077       0.60975646       0.00416173
H        8.17225320       7.30928173       7.34177553      -0.35660664       0.40910439      -0.13194691       0.02711768       0.05173281       0.03741456
H        4.95579113       5.42374682       3.27293410       0.24039209       0.09837940       0.03734470       0.11484212      -0.10393047       0.18472483
H        3.80561960       4.66859107       4.66521777       0.25565755       0.17208748       0.14101748      -0.34162293      -0.37169192       0.80005779
H        5.52561942       5.79017521       5.11875695       0.02959243      -0.07759665      -0.28505766       0.57486276       0.23488405       1.23693959
N        7.73654228       6.45088163       7.69285577       0.14008311      -0.10194441      -0.04045023       0.03073819      -1.17618565       0.43931004
8
Lattice="11.977603241014036 0.0 0.0 0.0 11.977603241014036 0.0 0.0 0.0 11.977603241014036" Properties=species:S:1:pos:R:3:momenta:R:3:forces:R:3 energy=-438.22738632653 free_energy=-438.22738632653 stress="-0.00065471569637555 -0.000356960297251 -0.00021519175594391 -0.000356960297251 0.00040008204849746 -0.00037351065749126 -0.00021519175594391 -0.00037351065749126 7.7758473528818e-05" pbc="T T T"
B        4.77902038       5.24583996       4.43355535       0.20560515      -0.40496490       0.15019136      -0.06896924       0.39692248      -2.49904370
H        7.77191262       6.20327274       8.70724953      -0.38048885      -0.05046917       0.12408740       0.01781538       0.62153995      -0.83259719
H        7.72412952       5.59564146       7.07519498      -0.14296260       0.03535408      -0.14235361      -0.00603752       0.74288016       0.11198389
H        8.15746808       7.31510952       7.33073072      -0.35899450       0.39598064      -0.12307468      -0.20987329      -0.48198906       0.28970816
H        4.97008898       5.41438466       3.27035371       0.24227251       0.09121654       0.04683632       0.02852034      -0.16227480       0.21120382
H        3.82013517       4.66249372       4.66836315       0.22830854       0.14735560       0.18075382      -0.70032108      -0.59062069       0.85293266
H        5.53024891       5.77269010       5.10178534       0.06183237      -0.06263878      -0.21736621       0.75041108       0.35447862       1.44537760
N        7.73949750       6.43640125       7.68804351       0.14491916      -0.15171876      -0.01918120       0.20280067      -0.87652971       0.41626373
8
Lattice="11.97732903873912 0.0 0.0 0.0 11.97732903873912 0.0 0.0 0.0 11.97732903873912" Properties=species:S:1:pos:R:3:momenta:R:3:forces:R:3 energy=-438.19424492903 free_energy=-438.19424492903 stress="-0.00080312364895614 -0.00035493352056489 -0.00030936942766584 -0.00035493352056489 0.00062576316470749 -0.00051856428402471 -0.00030936942766584 -0.00051856428402471 0.00024504935853004" pbc="T T T"
B        4.78355226       5.23139737       4.43007928       0.20838465      -0.37948774       0.02321183       0.22377356       0.56826369      -2.64581110
H        7.75701418       6.18888972       8.70830045      -0.37714684      -0.01810929       0.07692912       0.05344215       0.68840398      -1.06718045
H        7.72072527       5.58557970       7.06448727      -0.14222047       0.07323979      -0.13449526       0.01434169       0.80813104       0.18151280
H        8.14333148       7.32103793       7.32116513      -0.37243677       0.35885284      -0.10285979      -0.39881734      -0.95777889       0.51051815
H        4.98547566       5.40595496       3.26902859       0.24044661       0.08151990       0.05694667      -0.05478197      -0.21499822       0.20871576
H        3.83399755       4.65629111       4.67427088       0.18548880       0.11329983       0.22271048      -0.99669148      -0.76781978       0.88714516
H        5.53773469       5.75740794       5.08908113       0.10046211      -0.04353050      -0.14255562       0.83735588       0.41293384       1.55984595
N        7.74356274       6.42311378       7.68406130       0.15734832      -0.18568219       0.00001075       0.32861348      -0.53875585       0.36092899
8
Lattice="11.977050544089407 0.0 0.0 0.0 11.977050544089407 0.0 0.0 0.0 11.977050544089407" Properties=species:S:1:pos:R:3:momenta:R:3:forces:R:3 energy=-438.17325881745 free_energy=-438.17325881745 stress="-0.00086671902874933 -0.00032021374670276 -0.00036060906530467 -0.00032021374670276 0.00080585786518456 -0.00062056862618775 -0.00036060906530467 -0.00062056862618775 0.00033509833862822" pbc="T T T"
B        4.78979246       5.21917535       4.42704458       0.22585278      -0.34659092      -0.10636485       0.50966527       0.73607521      -2.62975584
H        7.74394320       6.17824495       8.70782148      -0.37290112       0.01644288       0.02148773       0.08635821       0.71745648      -1.18477749
H        7.71902854       5.57953194       7.05526090      -0.14091610       0.11260327      -0.12459081       0.02677243       0.80240950       0.20833805
H        8.12993980       7.32672327       7.31386446      -0.39435228       0.30186848      -0.07332590      -0.52606948      -1.32933689       0.68157448
H        5.00236190       5.39909098       3.26922906       0.23524426       0.06965798       0.06625764      -0.13209919      -0.26013838       0.17553751
H        3.84711074       4.65032727       4.68330962       0.13126893       0.07256365       0.26591647      -1.19022114      -0.87965991       0.89176655
H        5.54887137       5.74520865       5.08115955       0.14094636      -0.02341520      -0.06527874       0.82238315       0.40204641       1.57197877
N        7.74934333       6.41182489       7.68117201       0.17499755      -0.20318035       0.01579015       0.39747903      -0.19563946       0.27969307
8
Lattice="11.976768561324727 0.0 0.0 0.0 11.976768561324727 0.0 0.0 0.0 11.976768561324727" Properties=species:S:1:pos:R:3:momenta:R:3:forces:R:3 energy=-438.17390703964 free_energy=-438.17390703964 stress="-0.00083087854557425 -0.00025029640180812 -0.00037039342765065 -0.00025029640180812 0.00092842137709823 -0.00067476862580436 -0.00037039342765065 -0.00067476862580436 0.00034289627093355" pbc="T T T"
B        4.79819377       5.20976663       4.42463090       0.25671436      -0.30664545      -0.23087451       0.75383058       0.87900687      -2.44512445
H        7.73314067       6.17196527       8.70571327      -0.36774263       0.05146613      -0.03662635       0.11224350       0.70822849      -1.18289324
H        7.71945078       5.57804974       7.04774617      -0.13933778       0.15019339      -0.11459814       0.03242560       0.73121956       0.19376406
H        8.11735065       7.33186415       7.30940609      -0.42146566       0.23042817      -0.03699608      -0.58990617      -1.57228961       0.79460297
H        5.02097159       5.39425094       3.27105529       0.22690014       0.05597237       0.07328990      -0.20075795      -0.29625539       0.11236439
H        3.85941791       4.64490441       4.69568179       0.07119319       0.02860027       0.30868371      -1.25121539      -0.90907702       0.85636920
H        5.56401980       5.73662161       5.07821142       0.17844158      -0.00551628       0.00990258       0.70799766       0.32466087       1.48575220
N        7.75724003       6.40315072       7.67953739       0.19509934      -0.20466633       0.02707622       0.40987745       0.12903377       0.17902125
8
Lattice="11.976484075595199 0.0 0.0 0.0 11.976484075595199 0.0 0.0 0.0 11.976484075595199" Properties=species:S:1:pos:R:3:momenta:R:3:forces:R:3 energy=-438.19791366792 free_energy=-438.19791366792 stress="-0.00069561123923282 -0.00015067675394722 -0.00034522832733192 -0.00015067675394722 0.00097867783212582 -0.00068116011239044 -0.00034522832733192 -0.00068116011239044 0.00026505050501544" pbc="T T T"
B        4.80895336       5.20352580       4.42295102       0.29788549      -0.26079152      -0.34234535       0.92650733       0.97719071      -2.10299216
H        7.72481575       6.17035016       8.70205702      -0.36151824       0.08507422      -0.09157533       0.12546600       0.66079913      -1.05911308
H        7.72215106       5.58128199       7.04197831      -0.13760599       0.18274678      -0.10631529       0.02914734       0.59919602       0.13933488
H        8.10556127       7.33620714       7.30812928      -0.45006520       0.15076218       0.00325582      -0.59233586      -1.66771154       0.84264266
H        5.04128778       5.39167220       3.27442706       0.21555100       0.04078053       0.07656650      -0.25865678      -0.32229187       0.02265775
H        3.87092281       4.64027693       4.71137160       0.01178570      -0.01460690       0.34849774      -1.16905283      -0.85067086       0.77293851
H        5.58305173       5.73178432       5.08009909       0.20836356       0.00727476       0.07876650       0.51124957       0.19418105       1.31677792
N        7.76739850       6.39746961       7.67921138       0.21492989      -0.19136309       0.03299894       0.39506917       0.40765928       0.06346021
8
Lattice="11.976198357772628 0.0 0.0 0.0 11.976198357772628 0.0 0.0 0.0 11.976198357772628" Properties=species:S:1:pos:R:3:momenta:R:3:forces:R:3 energy=-438.23884952282 free_energy=-438.23884952282 stress="-0.00047693478524446 -3.147218180235e-05 -0.00029422557138836 -3.147218180235e-05 0.00094833622712042 -0.00064315636682179 -0.00029422557138836 -0.00064315636682179 0.00011031768501327" pbc="T T T"
B        4.82198958       5.20052513       4.42204249       0.34495765      -0.21112171      -0.43317825       1.01213073       1.01899776      -1.63102718
H        7.71891516       6.17332582       8.69711706      -0.35437211       0.11530542      -0.13749671       0.12231675       0.57818165      -0.82299654
H        7.72701893       5.58894454       7.03779334      -0.13591632       0.20730785      -0.10133203       0.01834683       0.41972724       0.05274805
H        8.09448920       7.33956308       7.31010556      -0.47659287       0.07002259       0.04418860      -0.54004777      -1.60756226       0.82396669
H        5.06304086       5.39133763       3.27908130       0.20138716       0.02448930       0.07480465      -0.30456787      -0.33805808      -0.08735778
H        3.88170915       4.63663528       4.73010800      -0.04029053      -0.05296098       0.38238647      -0.95713358      -0.71308058       0.63994921
H        5.60536423       5.73043127       5.08636723       0.22699293       0.01280646       0.13767301       0.25984685       0.03067679       1.08798060
N        7.77969625       6.39487917       7.68013227       0.23304162      -0.16588290       0.03285062       0.37581204       0.61045913      -0.06592442
8
Lattice="11.975912785995243 0.0 0.0 0.0 11.975912785995243 0.0 0.0 0.0 11.975912785995243" Properties=species:S:1:pos:R:3:momenta:R:3:forces:R:3 energy=-438.28451665571 free_energy=-438.28451665571 stress="-0.00020272534739116 9.3071887513908e-05 -0.00022675743680661 9.3071887513908e-05 0.0008322605795819 -0.00056552364679838 -0.00022675743680661 -0.00056552364679838 -0.00010401587774104" pbc="T T T"
B        4.83697013       5.20053416       4.42185990       0.39319945      -0.16045311      -0.49742539       1.01284334       1.00359591      -1.06933876
H        7.71512127       6.18043610       8.69132307      -0.34709131       0.14039167      -0.16910074       0.10044624       0.46558784      -0.49299430
H        7.73369446       5.60033985       7.03483835      -0.13464029       0.22177122      -0.10089898       0.00174531       0.21026203      -0.05448436
H        8.08396724       7.34183572       7.31512409      -0.49829918      -0.00383916       0.08235542      -0.44158199      -1.38831839       0.73853904
H        5.08575091       5.39296663       3.28458972       0.18479269       0.00762843       0.06717992      -0.33840195      -0.34422727      -0.20882044
H        3.89194555       4.63407707       4.75136924      -0.07941617      -0.08291208       0.40769709      -0.64884673      -0.51665711       0.46312688
H        5.62997884       5.73192705       5.09628919       0.23208561       0.00997550       0.18402860      -0.01507523      -0.14401051       0.82484294
N        7.79377896       6.39517439       7.68212170       0.24910020      -0.13257820       0.02609710       0.34892684       0.71202741      -0.20362788
8
Lattice="11.975628759316402 0.0 0.0 0.0 11.975628759316402 0.0 0.0 0.0 11.975628759316402" Properties=species:S:1:pos:R:3:momenta:R:3:forces:R:3 energy=-438.32109349175 free_energy=-438.32109349175 stress="9.5444931071613e-05 0.00020934019631378 -0.00015148561781937 0.00020934019631378 0.00063277226654104 -0.00045412006742636 -0.00015148561781937 -0.00045412006742636 -0.00035041584625472" pbc="T T T"
B        4.85337677       5.20303693       4.42227619       0.43862181      -0.11165442      -0.53173973       0.94514605       0.93958370      -0.46433612
H        7.71289260       6.19087954       8.68523040      -0.34086499       0.15901713      -0.18248204       0.05985854       0.33112396      -0.10037738
H        7.74162955       5.61442922       7.03260820      -0.13417213       0.22523209      -0.10566841      -0.01812886      -0.00784027      -0.16701825
H        8.07376356       7.34305436       7.32270563      -0.51337856      -0.06277944       0.11441926      -0.30789218      -1.01442092       0.58955327
H        5.10880176       5.39603478       3.29039836       0.16634904      -0.00927233       0.05347529      -0.36131939      -0.34233701      -0.33082725
H        3.90186520       4.63257439       4.77442858      -0.10193069      -0.10210889       0.42261010      -0.28787826      -0.28765757       0.25445177
H        5.65569290       5.73534051       5.10894839       0.22314284      -0.00124470       0.21660657      -0.28513334      -0.31070506       0.55087650
N        7.80912564       6.39786054       7.68489815       0.26278093      -0.09723414       0.01270491       0.28667914       0.68792413      -0.33767828
8
Lattice="11.975347475462515 0.0 0.0 0.0 11.975347475462515 0.0 0.0 0.0 11.975347475462515" Properties=species:S:1:pos:R:3:momenta:R:3:forces:R:3 energy=-438.33762719172 free_energy=-438.33762719172 stress="0.00038997739884361 0.00030840755615593 -7.6682308740807e-05 0.00030840755615593 0.00036336992948046 -0.00031692715033855 -7.6682308740807e-05 -0.00031692715033855 -0.00059182224558225" pbc="T T T"
B        4.87058067       5.20727923       4.42309837       0.47864631      -0.06703074      -0.53553048       0.83271668       0.84088440       0.13766528
H        7.71153423       6.20358047       8.67946257      -0.33678085       0.17046599      -0.17584006       0.00372760       0.18577266       0.30943037
H        7.75016856       5.62993794       7.03051016      -0.13466787       0.21805576      -0.11549042      -0.03847301      -0.21128986      -0.26710608
H        8.06361808       7.34339843       7.33214514      -0.52079704      -0.09953284       0.13747542      -0.15331738      -0.50465157       0.38582765
H        5.13151884       5.39981416       3.29588491       0.14677562      -0.02580051       0.03409711      -0.37565009      -0.33458051      -0.44134226
H        3.91172940       4.63194904       4.79842517      -0.10634382      -0.10962883       0.42626353       0.08254562      -0.05194787       0.02926157
H        5.68123396       5.73953799       5.12333418       0.20124445      -0.02002084       0.23545493      -0.52845406      -0.45527489       0.28501813
N        7.82511658       6.40219422       7.68810734       0.27267470      -0.06661688      -0.00657376       0.17457842       0.52531219      -0.44575993
8
Lattice="11.97506962399324 0.0 0.0 0.0 11.97506962399324 0.0 0.0 0.0 11.97506962399324" Properties=species:S:1:pos:R:3:momenta:R:3:forces:R:3 energy=-438.33031995514 free_energy=-438.33031995514 stress="0.00065900552433758 0.00038786350653144 -1.1266593367819e-05 0.00038786350653144 5.1359084827821e-05 -0.00016570016871188 -1.1266593367819e-05 -0.00016570016871188 -0.00078511545997739" pbc="T T T"
B        4.88791591       5.21233490       4.42409965       0.51223596      -0.02806007      -0.51061883       0.69945874       0.72236201       0.69538361
H        7.71028057       6.21728189       8.67463924      -0.33549671       0.17468883      -0.15001825      -0.06097890       0.04241867       0.67974601
H        7.75863017       5.64547627       7.02794908      -0.13596961       0.20177630      -0.12936552      -0.05634049      -0.37819152      -0.33721774
H        8.05327674       7.34320193       7.34258255      -0.52027807      -0.10859991       0.14939614       0.00298464       0.09916836       0.14487262
H        5.15323781       5.40342804       3.30043038       0.12681602      -0.04171328       0.01002467      -0.38450431      -0.32345035      -0.52836634
H        3.92179288       4.63186770       4.82245025      -0.09304775      -0.10581614       0.41867214       0.42714541       0.16935531      -0.19696851
H        5.70538972       5.74327903       5.13843777       0.16859023      -0.04497142       0.24156689      -0.73057913      -0.56895352       0.04099058
N        7.84109698       6.40724396       7.69136924       0.27701637      -0.04744266      -0.02983462       0.07312867       0.23379169      -0.50195187
8
Lattice="11.97479511808663 0.0 0.0 0.0 11.97479511808663 0.0 0.0 0.0 11.97479511808663" Properties=species:S:1:pos:R:3:momenta:R:3:forces:R:3 energy=-438.30443859381 free_energy=-438.30443859381 stress="0.00088493337694659 0.00045105485905737 3.5120904454747e-05 0.00045105485905737 -0.00026159991264889 -1.686163834253e-05 3.5120904454747e-05 -1.686163834253e-05 -0.00088774615336141" pbc="T T T"
B        4.90475583       5.21719045       4.42506572       0.53943353       0.00457001      -0.46070457       0.56460651       0.59653556       1.17567101
H        7.70837948       6.23065790       8.67129545      -0.33731269       0.17228228      -0.10871787      -0.12288545      -0.08638781       0.95183249
H        7.76638045       5.65967081       7.02442231      -0.13788206       0.17884271      -0.14557289      -0.06898223      -0.49196651      -0.36356681
H        8.04251093       7.34292510       7.35310344      -0.51268632      -0.08745925       0.14924242       0.13828419       0.72498781      -0.10494030
H        5.17336049       5.40592271       3.30349967       0.10690148      -0.05694921      -0.01728676      -0.39115437      -0.31130214      -0.58132539
H        3.93228419       4.63187002       4.84563959      -0.06402292      -0.09193723       0.40055197       0.72162812       0.36164219      -0.41093903
H        5.72710568       5.74531481       5.15334214       0.12777759      -0.07446039       0.23652950      -0.88321062      -0.64733190      -0.17196888
N        7.85645186       6.41197308       7.69433778       0.27705023      -0.04497010      -0.05412905       0.02696164      -0.14778341      -0.49620958
8
Lattice="11.974522958312525 0.0 0.0 0.0 11.974522958312525 0.0 0.0 0.0 11.974522958312525" Properties=species:S:1:pos:R:3:momenta:R:3:forces:R:3 energy=-438.27173930461 free_energy=-438.27173930461 stress="0.0010564012674764 0.00050363013999616 5.3371589603554e-05 0.00050363013999616 -0.0005230292431791 0.00010981126267095 5.3371589603554e-05 0.00010981126267095 -0.00086682228132871" pbc="T T T"
B        4.92058225       5.22085035       4.42584403       0.56081737       0.03079926      -0.39070231       0.44082628       0.47220386       1.55481053
H        7.70517259       6.24244533       8.66980354      -0.34217802       0.16437552      -0.05811176      -0.16849649      -0.19117942       1.07850816
H        7.77289194       5.67130258       7.01960722      -0.14038164       0.15224713      -0.16190175      -0.07464735      -0.54388987      -0.33876100
H        8.03111902       7.34308479       7.36286365      -0.50018053      -0.03780275       0.13770755       0.23184645       1.27257735      -0.32617970
H        5.19139625       5.40636237       3.30471942       0.08697028      -0.07157967      -0.04600198      -0.39839709      -0.29993535      -0.59252239
H        3.94340393       4.63143817       4.86725799      -0.02238569      -0.06977669       0.37312590       0.95207390       0.51642103      -0.60260584
H        5.74555109       5.74449709       5.16729894       0.08129789      -0.10678079       0.22227912      -0.98227712      -0.68893140      -0.34786580
N        7.87068043       6.41534924       7.69675907       0.27573262      -0.06152024      -0.07643410       0.01486249      -0.53834139      -0.42669374
8
Lattice="11.974251226686295 0.0 0.0 0.0 11.974251226686295 0.0 0.0 0.0 11.974251226686295" Properties=species:S:1:pos:R:3:momenta:R:3:forces:R:3 energy=-438.24556642835 free_energy=-438.24556642835 stress="0.0011677994151824 0.00054838069698308 3.736625355784e-05 0.00054838069698308 -0.00068033286913591 0.00019550504035966 3.736625355784e-05 0.00019550504035966 -0.00070830473246239" pbc="T T T"
B        4.93502143       5.22246164       4.42638350       0.57730564       0.05096843      -0.30609046       0.33475314       0.35443433       1.81854208
H        7.70016423       6.25158551       8.67031397      -0.34935100       0.15236958      -0.00586880      -0.18664117      -0.26752624       1.03734088
H        7.77778217       5.67944446       7.01342283      -0.14337295       0.12507180      -0.17595224      -0.07365292      -0.53422544      -0.26324629
H        8.01891915       7.34414676       7.37121878      -0.48553981       0.03373061       0.11728131       0.27196270       1.63272509      -0.48048633
H        5.20698503       5.40394728       3.30393725       0.06676462      -0.08573919      -0.07405935      -0.40789698      -0.29014736      -0.55859361
H        3.95533207       4.63010447       4.88675814       0.02838504      -0.04131152       0.33785932       1.11188700       0.62953107      -0.76502101
H        5.76015384       5.73990170       5.17978086       0.03160484      -0.14024370       0.20088963      -1.02616885      -0.69385745      -0.48277522
N        7.88343080       6.41648035       7.69851432       0.27464410      -0.09487506      -0.09409717       0.00418160      -0.83261983      -0.30740794
8
Lattice="11.973977307661848 0.0 0.0 0.0 11.973977307661848 0.0 0.0 0.0 11.973977307661848" Properties=species:S:1:pos:R:3:momenta:R:3:forces:R:3 energy=-438.23537387112 free_energy=-438.23537387112 stress="0.0012175783423323 0.00058270691000711 -1.4049824777326e-05 0.00058270691000711 -0.00069541069353675 0.00022761635472517 -1.4049824777326e-05 0.00022761635472517 -0.00042033507403374" pbc="T T T"
B        4.94784535       5.22144247       4.42675268       0.58985655       0.06558554      -0.21245381       0.24856142       0.24618018       1.95948066
H        7.69306915       6.25735532       8.67272754      -0.35727057       0.13759066       0.04018344      -0.17052702      -0.31697123       0.83655211
H        7.78082900       5.68358104       7.00605228      -0.14650880       0.10001257      -0.18548151      -0.06596280      -0.47144584      -0.14494294
H        8.00574851       7.34640244       7.37782804      -0.47120150       0.11600059       0.09188914       0.26166350       1.72057244      -0.54041835
H        5.21989925       5.39814075       3.30124977       0.04608550      -0.09955272      -0.09932875      -0.42062406      -0.28240262      -0.47926480
H        3.96822880       4.62757487       4.90380115       0.08493192      -0.00853699       0.29618285       1.19991334       0.69994219      -0.89377683
H        5.77060783       5.73095650       5.19050038      -0.01874301      -0.17317389       0.17438984      -1.01493391      -0.66357559      -0.57401687
N        7.89449511       6.41476000       7.69963707       0.27354767      -0.13797322      -0.10542797      -0.02116483      -0.93552374      -0.16526022
8
Lattice="11.973698307658404 0.0 0.0 0.0 11.973698307658404 0.0 0.0 0.0 11.973698307658404" Properties=species:S:1:pos:R:3:momenta:R:3:forces:R:3 energy=-438.24270979676 free_energy=-438.24270979676 stress="0.001203308093718 0.00059573231568672 -9.5144390040313e-05 0.00059573231568672 -0.0005613221615698 0.0002056080445768 -9.5144390040313e-05 0.0002056080445768 -3.7056157127651e-05" pbc="T T T"
B        4.95895556       5.21758355       4.42712830       0.59910270       0.07515041      -0.11531165       0.18214158       0.14810279       1.97837036
H        7.68383029       6.25945908       8.67670580      -0.36388020       0.12107152       0.07331265      -0.12218085      -0.34505899       0.51461314
H        7.78196182       5.68368503       6.99791934      -0.14933592       0.07914207      -0.18861048      -0.05556097      -0.37004902       0.00234958
H        7.99147995       7.34987062       7.38270101      -0.45861169       0.19519039       0.06610262       0.21786884       1.51227513      -0.50214532
H        5.23003259       5.38877501       3.29699250       0.02483790      -0.11303134      -0.11976664      -0.43537640      -0.27541332      -0.36085340
H        3.98221836       4.62382768       4.91824366       0.14392011       0.02652903       0.24945349       1.21539961       0.72695795      -0.98542155
H        5.77686523       5.71754723       5.19939679      -0.06706031      -0.20381645       0.14475092      -0.94891910      -0.59932893      -0.61944313
N        7.90378998       6.40998506       7.70029794       0.27139119      -0.18032075      -0.10997695      -0.05768973      -0.80193597      -0.02866309
8
Lattice="11.97341179399179 0.0 0.0 0.0 11.97341179399179 0.0 0.0 0.0 11.97341179399179" Properties=species:S:1:pos:R:3:momenta:R:3:forces:R:3 energy=-438.2610695643 free_energy=-438.2610695643 stress="0.0011245718455142 0.00057445713148771 -0.00019560342622888 0.00057445713148771 -0.00030473202885567 0.00014023597484909 -0.00019560342622888 0.00014023597484909 0.0003927348132206" pbc="T T T"
B        4.96836500       5.21108601       4.42775675       0.60540655       0.08012912      -0.02027233       0.13427371       0.06094533       1.88013778
H        7.67260372       6.25805242       8.68171568      -0.36724290       0.10350365       0.08890527      -0.04883476      -0.35950329       0.12627316
H        7.78124122       5.68022316       6.98962249      -0.15147239       0.06379835      -0.18412540      -0.04466974      -0.24718886       0.16212058
H        7.97604867       7.35426459       7.38617278      -0.44814759       0.25779911       0.04414799       0.16486878       1.05450144      -0.38545432
H        5.23738497       5.37609375       3.29169611       0.00299841      -0.12607689      -0.13356066      -0.45046124      -0.26793244      -0.21211062
H        3.99736313       4.61914721       4.93010915       0.20184503       0.06178861       0.19919467       1.15933890       0.71082268      -1.03752113
H        5.77912346       5.70005789       5.20660436      -0.11059633      -0.23037799       0.11404589      -0.82959848      -0.50335810      -0.61762956
N        7.91133762       6.40240201       7.70076281       0.26703514      -0.21067300      -0.10836836      -0.10662836      -0.45197070       0.08371920
8
Lattice="11.973116361196613 0.0 0.0 0.0 11.973116361196613 0.0 0.0 0.0 11.973116361196613" Properties=species:S:1:pos:R:3:momenta:R:3:forces:R:3 energy=-438.28001771629 free_energy=-438.28001771629 stress="0.00098272269538187 0.00050790682371992 -0.00030262546857478 0.00050790682371992 2.1553357680304e-05 4.9948876433391e-05 -0.00030262546857478 4.9948876433391e-05 0.00081400424647813" pbc="T T T"
B        4.97618272       5.20251010       4.42890052       0.60928335       0.08102599       0.06709014       0.10405001      -0.01437839       1.67434533
H        7.65971126       6.25367771       8.68710638      -0.36616565       0.08532288       0.08508485       0.03814722      -0.36745948      -0.27060123
H        7.77882860       5.67406809       6.98183746      -0.15283784       0.05457012      -0.17172291      -0.03552576      -0.11989159       0.31777588
H        7.95947628       7.35904859       7.38880784      -0.43943512       0.29380030       0.02899370       0.12408647       0.44556192      -0.22541721
H        5.24205061       5.36070279       3.28600999      -0.01935693      -0.13854153      -0.13943357      -0.46331261      -0.25827849      -0.04491965
H        4.01364008       4.61406777       4.93955416       0.25505753       0.09505418       0.14731234       1.03265432       0.65177692      -1.04808080
H        5.77780653       5.67931280       5.21241050      -0.14668879      -0.25121839       0.08455347      -0.65956137      -0.37851224      -0.56821570
N        7.91725044       6.39265197       7.70133636       0.25956119      -0.22009762      -0.10189134      -0.17078942       0.04006720       0.16540209
8
Lattice="11.972812036315702 0.0 0.0 0.0 11.972812036315702 0.0 0.0 0.0 11.972812036315702" Properties=species:S:1:pos:R:3:momenta:R:3:forces:R:3 energy=-438.29067477739 free_energy=-438.29067477739 stress="0.00078190237034911 0.00039144553650673 -0.00040356433989109 0.00039144553650673 0.00035606748226771 -4.5487435889179e-05 -0.00040356433989109 -4.5487435889179e-05 0.0011765424164767" pbc="T T T"
B        4.98259742       5.19265301       4.43078507       0.61162097       0.07847072       0.14166374       0.09181456      -0.07604310       1.37422971
H        7.64557884       6.24712897       8.69219785      -0.36036979       0.06675270       0.06270087       0.12660325      -0.37424264      -0.62681623
H        7.77495436       5.66633739       6.97521518      -0.15360930       0.05131466      -0.15202004      -0.02953341      -0.00279228       0.45488549
H        7.94188495       7.36356000       7.39126328      -0.43167589       0.29851638       0.02189154       0.10762050      -0.20297589      -0.05841312
H        5.24420487       5.34344739       3.28061418      -0.04204840      -0.15027993      -0.13682264      -0.47113382      -0.24484318       0.12761151
H        4.03092709       4.60925204       4.94682836       0.30000715       0.12416578       0.09600436       0.83673325       0.55033852      -1.01567476
H        5.77353548       5.65643936       5.21720750      -0.17295978      -0.26502356       0.05863857      -0.44333743      -0.22874375      -0.47272628
N        7.92171390       6.38163472       7.70230596       0.24827762      -0.20393885      -0.09205080      -0.24972666       0.58061748       0.21775383
8
Lattice="11.97250032826643 0.0 0.0 0.0 11.97250032826643 0.0 0.0 0.0 11.97250032826643" Properties=species:S:1:pos:R:3:momenta:R:3:forces:R:3 energy=-438.28900474017 free_energy=-438.28900474017 stress="0.00052925230307479 0.00022785429134749 -0.00048732360686243 0.00022785429134749 0.00064462932548573 -0.00012969937871124 -0.00048732360686243 -0.00012969937871124 0.0014418683376947" pbc="T T T"
B        4.98712791       5.18240720       4.43355950       0.61363103       0.07326031       0.19921656       0.09969584      -0.12111816       0.99683113
H        7.62994773       6.23929841       8.69635939      -0.35031939       0.04783816       0.02475361       0.20584239      -0.38310721      -0.90713098
H        7.76915998       5.65821676       6.97030034      -0.15408780       0.05326700      -0.12634088      -0.02713486       0.09297371       0.56237707
H        7.92276587       7.36714606       7.39415786      -0.42391920       0.27254271       0.02249872       0.11762175      -0.79802930       0.08775034
H        5.24335838       5.32527069       3.27614094      -0.06479757      -0.16114047      -0.12589104      -0.47131113      -0.22633226       0.29248720
H        4.04826364       4.60535427       4.95223613       0.33341366       0.14709739       0.04753694       0.57429945       0.40784486      -0.93984371
H        5.76636042       5.63270959       5.22144602      -0.18745475      -0.27085025       0.03852196      -0.18838072      -0.05957841      -0.33564385
N        7.92423669       6.37034987       7.70389881       0.23278782      -0.16198244      -0.08027656      -0.33891122       1.08961796       0.24445541
8
Lattice="11.972183979682436 0.0 0.0 0.0 11.972183979682436 0.0 0.0 0.0 11.972183979682436" Properties=species:S:1:pos:R:3:momenta:R:3:forces:R:3 energy=-438.27606561739 free_energy=-438.27606561739 stress="0.00023451470600201 2.6292936316426e-05 -0.00054475912917727 2.6292936316426e-05 0.0008489290903958 -0.00019144667017409 -0.00054475912917727 -0.00019144667017409 0.0015860305063865" pbc="T T T"
B        4.98095746       5.17264363       4.43727554       0.61677278       0.06636957       0.23665611       0.13136430      -0.14595241       0.56408199
H        7.60418117       6.23105053       8.69906702      -0.33696656       0.02849026      -0.02439204       0.26779440      -0.39572639      -1.09016199
H        7.75263012       5.65081622       6.96747988      -0.15457789       0.05921410      -0.09645222      -0.02785895       0.15994852       0.63281864
H        7.89331618       7.36927350       7.39797904      -0.41530452       0.22036404       0.02937183       0.14939327      -1.27786354       0.19666929
H        5.23069545       5.30709763       3.27311696      -0.08723637      -0.17095268      -0.10743558      -0.46169916      -0.20191751       0.43778305
H        4.05619879       4.60291048       4.95610779       0.35236583       0.16202479       0.00406784       0.25100988       0.22746205      -0.82193734
H        5.74807274       5.60940630       5.22559638      -0.18875271      -0.26814100       0.02605146       0.09385117       0.12134508      -0.16562540
N        7.91598518       6.35976542       7.70625694       0.21303102      -0.09731582      -0.06783726      -0.43205699       1.51541968       0.24868299
8
Lattice="11.971866550027798 0.0 0.0 0.0 11.971866550027798 0.0 0.0 0.0 11.971866550027798" Properties=species:S:1:pos:R:3:momenta:R:3:forces:R:3 energy=-438.25540302841 free_energy=-438.25540302841 stress="-8.6609592351548e-05 -0.0001992306208902 -0.0005688103950955 -0.0001992306208902 0.0009478401427504 -0.00022425587832491 -0.0005688103950955 -0.00022425587832491 0.0015997247179026" pbc="T T T"
B        4.97457110       5.16413605       4.44188336       0.62271096       0.05892560       0.25223489       0.19067856      -0.14728829       0.10451627
H        7.57888441       6.22313966       8.69993968      -0.32153159       0.00852309      -0.07970509       0.30635762      -0.41270619      -1.16601393
H        7.73583175       5.64507641       6.96695855      -0.15530940       0.06767208      -0.06433955      -0.03085253       0.19414779       0.66222723
H        7.86406678       7.36959479       7.40303457      -0.40522172       0.14869641       0.04050086       0.19540761      -1.60938545       0.26131389
H        5.21671492       5.28975957       3.27192687      -0.10891917      -0.17953588      -0.08276713      -0.44077493      -0.17127887       0.55317907
H        4.06444567       4.60227176       4.95878159       0.35445091       0.16740349      -0.03249268      -0.12231401       0.01559713      -0.66637061
H        5.72981461       5.58772832       5.23011594      -0.17609958      -0.25677285       0.02247744       0.38714184       0.30401998       0.02350162
N        7.90742088       6.35073262       7.70942808       0.18922095      -0.01484837      -0.05585324      -0.50275027       1.82844346       0.23113863
8
Lattice="11.971551893840465 0.0 0.0 0.0 11.971551893840465 0.0 0.0 0.0 11.971551893840465" Properties=species:S:1:pos:R:3:momenta:R:3:forces:R:3 energy=-438.23201064364 free_energy=-438.23201064364 stress="-0.00041507364628954 -0.00043124070711715 -0.00055478509925973 -0.00043124070711715 0.00093439260327567 -0.00022519855183283 -0.00055478509925973 -0.00022519855183283 0.001486963873213" pbc="T T T"
B        4.96842843       5.15751926       4.44723959       0.63315978       0.05213331       0.24579551       0.27914238      -0.12413355      -0.34532743
H        7.55456553       6.21616416       8.69875826      -0.30542934      -0.01230620      -0.13600535       0.31784655      -0.43415165      -1.13311639
H        7.71918851       5.64171751       6.96875480      -0.15646563       0.07705304      -0.03203035      -0.03477745       0.19453555       0.64960764
H        7.83553836       7.36797501       7.40943859      -0.39340708       0.06520770       0.05369894       0.24728591      -1.77854957       0.28027252
H        5.20190355       5.27395293       3.27279363      -0.12939393      -0.18670135      -0.05359033      -0.40766031      -0.13454681       0.63017228
H        4.07257690       4.60357688       4.96059134       0.33791765       0.16211367      -0.06063430      -0.52717031      -0.21653193      -0.48208655
H        5.71271409       5.56872697       5.23541728      -0.14961930      -0.23710734       0.02823146       0.67061897       0.47638218       0.21256780
N        7.89897499       6.34393938       7.71336753       0.16278697       0.07964502      -0.04538051      -0.54468151       2.01664896       0.19249680
8
Lattice="11.971243711765874 0.0 0.0 0.0 11.971243711765874 0.0 0.0 0.0 11.971243711765874" Properties=species:S:1:pos:R:3:momenta:R:3:forces:R:3 energy=-438.21083230539 free_energy=-438.21083230539 stress="-0.00072811617265981 -0.00064981216819318 -0.00050115893844269 -0.00064981216819318 0.00081207995712314 -0.00019400810742556 -0.00050115893844269 -0.00019400810742556 0.0012633880497294" pbc="T T T"
B        4.96302963       5.15326576       4.45312320       0.64961630       0.04711297       0.21904366       0.39247940      -0.08000601      -0.74113517
H        7.53169569       6.21054108       8.69547323      -0.29014677      -0.03426620      -0.18828198       0.30055657      -0.45981167      -0.99668135
H        7.70314982       5.64121376       6.97271010      -0.15817361       0.08578472      -0.00147076      -0.03814682       0.16266592       0.59661230
H        7.80829124       7.36449129       7.41711787      -0.37993251      -0.02220425       0.06679828       0.29677618      -1.78134455       0.25471846
H        5.18680260       5.26021696       3.27577048      -0.14821786      -0.19224434      -0.02189932      -0.36208919      -0.09223042       0.66216643
H        4.08012656       4.60675242       4.96185254       0.30197833       0.14566202      -0.07943853      -0.93550548      -0.45172561      -0.28368430
H        5.69790544       5.55325907       5.24183205      -0.11045832      -0.21001575       0.04273433       0.92023199       0.62527901       0.37834340
N        7.89111715       6.33988524       7.71794656       0.13530972       0.18016588      -0.03737291      -0.55720781       2.07565688       0.13470802
8
Lattice="11.970945154611677 0.0 0.0 0.0 11.970945154611677 0.0 0.0 0.0 11.970945154611677" Properties=species:S:1:pos:R:3:momenta:R:3:forces:R:3 energy=-438.19595297924 free_energy=-438.19595297924 stress="-0.0010006875287871 -0.00083380549686653 -0.00041056793122918 -0.00083380549686653 0.00059192490406847 -0.00013276645911252 -0.00041056793122918 -0.00013276645911252 0.00095428262256793" pbc="T T T"
B        4.95888467       5.15166551       4.45925642       0.67299764       0.04462737       0.17577651       0.51777390      -0.02462859      -1.03412011
H        7.51068321       6.20648649       8.69020513      -0.27703925      -0.05762220      -0.23192874       0.25500341      -0.48893632      -0.76865382
H        7.68816900       5.64377621       6.97850598      -0.16038355       0.09240601       0.02556994      -0.03945984       0.10247279       0.50734964
H        7.78288575       7.35941676       7.42582622      -0.36507715      -0.10569063       0.07771191       0.33581274      -1.61857584       0.18678683
H        5.17198306       5.24891617       3.28074003      -0.16487591      -0.19592894       0.01010099      -0.30441004      -0.04517140       0.64462963
H        4.08661877       4.61152840       4.96284190       0.24726297       0.11842676      -0.08879383      -1.30994039      -0.66694088      -0.09130370
H        5.68645091       5.54194243       5.24956939      -0.06077077      -0.17686759       0.06428180       1.11184986       0.73822674       0.49662965
N        7.88432639       6.33886140       7.72296462       0.10827183       0.28061782      -0.03259387      -0.54002105       2.00206389       0.06319435
8
Lattice="11.970658508424707 0.0 0.0 0.0 11.970658508424707 0.0 0.0 0.0 11.970658508424707" Properties=species:S:1:pos:R:3:momenta:R:3:forces:R:3 energy=-438.1897688467 free_energy=-438.1897688467 stress="-0.0012079405258418 -0.00096276615987531 -0.00029052332485919 -0.00096276615987531 0.00029086834712659 -4.6058117938077e-05 -0.00029052332485919 -4.6058117938077e-05 0.00059207495976953" pbc="T T T"
B        4.95646873       5.15279850       4.46533106       0.70312441       0.04480931       0.12193773       0.63298093       0.02621976      -1.17819374
H        7.49184238       6.20399273       8.68323876      -0.26720158      -0.08256044      -0.26300569       0.18451899      -0.51987770      -0.46862490
H        7.67467282       5.64933476       6.98568936      -0.16287247       0.09567515       0.04758523      -0.03740381       0.01997004       0.38803577
H        7.75983296       7.35319572       7.43516396      -0.34930018      -0.17752563       0.08444250       0.35618493      -1.29509610       0.07937857
H        5.15801050       5.24021791       3.28741975      -0.17875352      -0.19747486       0.04004209      -0.23568647       0.00544236       0.57565950
H        4.09160821       4.61746279       4.96376997       0.17619931       0.08187638      -0.08955576      -1.60741193      -0.83562460       0.07154195
H        5.67924877       5.53510625       5.25867483      -0.00366325      -0.13946408       0.09008734       1.22551896       0.80563385       0.54675507
N        7.87905030       6.34092461       7.72816642       0.08309799       0.37463501      -0.03142164      -0.48954549       1.79272337      -0.01126676
8
Lattice="11.97038496775968 0.0 0.0 0.0 11.97038496775968 0.0 0.0 0.0 11.97038496775968" Properties=species:S:1:pos:R:3:momenta:R:3:forces:R:3 energy=-438.19212999878 free_energy=-438.19212999878 stress="-0.0013288599235105 -0.0010198923587809 -0.00015337369823012 -0.0010198923587809 -6.7112866056326e-05 5.8916465205277e-05 -0.00015337369823012 5.8916465205277e-05 0.00021413559256333" pbc="T T T"
B        4.95616502       5.15650034       4.47104071       0.73834724       0.04693059       0.06539028       0.71052605       0.05367636      -1.14058310
H        7.47535420       6.20280502       8.67500866      -0.26138180      -0.10909512      -0.27850178       0.09677730      -0.54939805      -0.12620677
H        7.66301590       5.65751881       6.99370577      -0.16526906       0.09460251       0.06331169      -0.03065923      -0.07610660       0.24779416
H        7.73953055       7.34641249       7.44460334      -0.33331247      -0.23016174       0.08511595       0.35035686      -0.82508910      -0.06233471
H        5.14539760       5.23406287       3.29537631      -0.18918965      -0.19658014       0.06548329      -0.15776178       0.05810632       0.45660391
H        4.09473080       4.62397248       4.96475057       0.09324726       0.03872207      -0.08362628      -1.78724140      -0.93288249       0.18284966
H        5.67693305       5.53273831       5.26900028       0.05696245      -0.09993394       0.11650308       1.24996252       0.82296029       0.51667368
N        7.87565416       6.34586455       7.73326562       0.06129951       0.45551005      -0.03359452      -0.40337726       1.44954627      -0.07294142
8
Lattice="11.970124468869653 0.0 0.0 0.0 11.970124468869653 0.0 0.0 0.0 11.970124468869653" Properties=species:S:1:pos:R:3:momenta:R:3:forces:R:3 energy=-438.20011601903 free_energy=-438.20011601903 stress="-0.0013502353247279 -0.00099549704822088 -1.4632385099659e-05 -0.00099549704822088 -0.00045075376761078 0.00017204867003851 -1.4632385099659e-05 0.00017204867003851 -0.00014184223289893" pbc="T T T"
B        4.95820561       5.16233724       4.47612198       0.77561735       0.04940137       0.01515933       0.72481805       0.04120249      -0.91231492
H        7.46123040       6.20241031       8.66606721      -0.25987228      -0.13696452      -0.27699664       0.00395485      -0.57215944       0.22057401
H        7.65343273       5.66765594       7.00195024      -0.16714038       0.08867466       0.07192979      -0.01820842      -0.17559996       0.09721061
H        7.72218959       7.33974786       7.45353313      -0.31819219      -0.25694313       0.07818988       0.31301817      -0.23872439      -0.22901645
H        5.13454841       5.23014112       3.30405726      -0.19559975      -0.19301239       0.08405660      -0.07332997       0.11102154       0.29320733
H        4.09575601       4.63037661       4.96578231       0.00471155      -0.00721550      -0.07378810      -1.82140003      -0.94199322       0.22811635
H        5.67978635       5.53444845       5.28020513       0.11677593      -0.06057347       0.13951537       1.18538975       0.79179176       0.40628006
N        7.87436846       6.35318246       7.73798081       0.04439661       0.51666339      -0.03801969      -0.28571419       0.98697444      -0.10355942
8
Lattice="11.969875649302992 0.0 0.0 0.0 11.969875649302992 0.0 0.0 0.0 11.969875649302992" Properties=species:S:1:pos:R:3:momenta:R:3:forces:R:3 energy=-438.20917742083 free_energy=-438.20917742083 stress="-0.0012692168047437 -0.00089000836982277 0.00010991237431348 -0.00089000836982277 -0.0008195653247407 0.00028064145832368 0.00010991237431348 0.00028064145832368 -0.00044084657474607" pbc="T T T"
B        4.96262765       5.16961464       4.48039892       0.81106420       0.05002251      -0.01984378       0.66102420      -0.01970629      -0.51411039
H        7.44929717       6.20206417       8.65703071      -0.26240053      -0.16556660      -0.25915260      -0.07765432      -0.58053506       0.52810252
H        7.64599675       5.67881114       7.00983436      -0.16808997       0.07794766       0.07315894       0.00071429      -0.26702123      -0.05171560
H        7.70777372       7.33392048       7.46132385      -0.30534206      -0.25327904       0.06277478       0.24399327       0.40861123      -0.40460544
H        5.12570963       5.22789642       3.31284494      -0.19762535      -0.18670828       0.09377293       0.01415405       0.16223707       0.09642389
H        4.09462612       4.63595516       4.96675236      -0.08202484      -0.05149591      -0.06329781      -1.70319839      -0.85976033       0.20514703
H        5.68769408       5.53947835       5.29179626       0.17158698      -0.02359340       0.15537633       1.04344522       0.71939676       0.22769263
N        7.87524953       6.36210591       7.74208026       0.03353222       0.55274370      -0.04277568      -0.15207796       0.44065039      -0.08770045
8
Lattice="11.969635882920064 0.0 0.0 0.0 11.969635882920064 0.0 0.0 0.0 11.969635882920064" Properties=species:S:1:pos:R:3:momenta:R:3:forces:R:3 energy=-438.21552800716 free_energy=-438.21552800716 stress="-0.0010940923308332 -0.00071533358352356 0.00020751213896556 -0.00071533358352356 -0.0011249385403047 0.00037008839529386 0.00020751213896556 0.00037008839529386 -0.00065455549037838" pbc="T T T"
B        4.96926261       5.17743986       4.48382121       0.84079316       0.04647795      -0.03226144       0.52012492      -0.12657458       0.00723515
H        7.43921827       6.20087182       8.64850894      -0.26800037      -0.19391479      -0.22790337      -0.13021027      -0.56548667       0.75496317
H        7.64060825       5.68988190       7.01685933      -0.16779852       0.06311458       0.06735957       0.02662585      -0.33897471      -0.18692873
H        7.69598005       7.32961182       7.46741165      -0.29616908      -0.21814282       0.03902245       0.15143570       1.03339863      -0.56541719
H        5.11894717       5.22658131       3.32112694      -0.19521654      -0.17779554       0.09335650       0.10073493       0.20984057      -0.11733040
H        4.09146744       4.64002406       4.96747076      -0.15974720      -0.08982458      -0.05525632      -1.44961743      -0.69781895       0.12482470
H        5.70016209       5.54678039       5.30320195       0.21795395       0.00918477       0.16120902       0.84412659       0.61684531       0.00214335
N        7.87816844       6.37165996       7.74542670       0.02900264       0.56095572      -0.04557135      -0.03178381      -0.12614920      -0.02318037
8
Lattice="11.969401442724397 0.0 0.0 0.0 11.969401442724397 0.0 0.0 0.0 11.969401442724397" Properties=species:S:1:pos:R:3:momenta:R:3:forces:R:3 energy=-438.21791932138 free_energy=-438.21791932138 stress="-0.00083963483478398 -0.0004932448063781 0.00027155079481917 -0.0004932448063781 -0.0013167544906778 0.0004259283104428 0.00027155079481917 0.0004259283104428 -0.00076428233900282" pbc="T T T"
B        4.97776146       5.18484209       4.48648466       0.86161188       0.03680466      -0.01780152       0.31773456      -0.26753070       0.58142872
H        7.43055889       6.19792582       8.64103175      -0.27496485      -0.22065833      -0.18805315      -0.13917068      -0.51840143       0.87118528
H        7.63701766       5.69974626       7.02267895      -0.16596941       0.04542310       0.05549744       0.05955160      -0.38121683      -0.29759775
H        7.68627974       7.32737697       7.47138875      -0.29149684      -0.15524136       0.00840989       0.05327789       1.53284582      -0.68248159
H        5.11415825       5.22536812       3.32836969      -0.18855942      -0.16656315       0.08249387       0.18251164       0.25228030      -0.32713930
H        4.08657190       4.64202447       4.96772733      -0.22255702      -0.11879612      -0.05201302      -1.09600312      -0.47887997       0.00747258
H        5.71639341       5.55516326       5.31385784       0.25361303       0.03651236       0.15535484       0.61096624       0.49653662      -0.24510183
N        7.88282954       6.38079874       7.74801024       0.02908545       0.54265614      -0.04398567       0.03555182      -0.62853878       0.08565220
8
Lattice="11.969167768879242 0.0 0.0 0.0 11.969167768879242 0.0 0.0 0.0 11.969167768879242" Properties=species:S:1:pos:R:3:momenta:R:3:forces:R:3 energy=-438.21787182269 free_energy=-438.21787182269 stress="-0.00052708412991269 -0.00025134536466855 0.00030242999000166 -0.00025134536466855 -0.001354154483086 0.0004368331265676 0.00030242999000166 0.0004368331265676 -0.00076352452374204" pbc="T T T"
B        4.98764595       5.19092700       4.48862615       0.87141250       0.01976538       0.02447525       0.07856789      -0.42521183       1.13895508
H        7.42286897       6.19247690       8.63498790      -0.28103364      -0.24415143      -0.14537257      -0.09752392      -0.43403159       0.86686759
H        7.63487393       5.70743871       7.02713617      -0.16229143       0.02651182       0.03898589       0.09905298      -0.38706258      -0.37603181
H        7.67800961       7.32755001       7.47308244      -0.29108548      -0.07318685      -0.02621512      -0.02629512       1.81105306      -0.72868934
H        5.11110999       5.22349710       3.33417987      -0.17801100      -0.15336988       0.06199585       0.25603129       0.28848070      -0.50950670
H        4.08035632       4.64161776       4.96735112      -0.26656714      -0.13629726      -0.05483839      -0.68618319      -0.23067110      -0.12343211
H        5.73539673       5.56347560       5.32327934       0.27753469       0.05776617       0.13739626       0.36683246       0.37001557      -0.48959730
N        7.88881145       6.38857209       7.74995719       0.03062918       0.50313608      -0.03660021       0.01864346      -0.98620787       0.21183365
8
Lattice="11.968929932322403 0.0 0.0 0.0 11.968929932322403 0.0 0.0 0.0 11.968929932322403" Properties=species:S:1:pos:R:3:momenta:R:3:forces:R:3 energy=-438.21695298249 free_energy=-438.21695298249 stress="-0.00017916572348628 -1.6572588888192e-05 0.00030658782003451 -1.6572588888192e-05 -0.0012188406605937 0.0003985097309421 0.00030658782003451 0.0003985097309421 -0.00065744550765952" pbc="T T T"
B        4.99836988       5.19502678       4.49059062       0.86923710      -0.00501623       0.09218147      -0.17183027      -0.58251289       1.61567278
H        7.41575756       6.18409402       8.63058762      -0.28380945      -0.26259068      -0.10554748      -0.00803492      -0.31255472       0.75320462
H        7.63378085       5.71231194       7.03026320      -0.15645763       0.00826732       0.01953221       0.14444282      -0.35355420      -0.41777436
H        7.67048884       7.33016459       7.47260168      -0.29348792       0.01573027      -0.06096759      -0.06436842       1.81103972      -0.68797230
H        5.10948903       5.22042259       3.33834232      -0.16403506      -0.13855461       0.03378474       0.31892102       0.31804488      -0.64151805
H        4.07331189       4.63876535       4.96625002      -0.29004568      -0.14153658      -0.06388884      -0.26252458       0.02060857      -0.24686352
H        5.75609764       5.57078195       5.33110185       0.28972926       0.07288591       0.10800205       0.13072777       0.24666104      -0.71117502
N        7.89561804       6.39428540       7.75150837       0.02907491       0.45095644      -0.02334450      -0.09890193      -1.14405752       0.32606982
8
Lattice="11.968683175614801 0.0 0.0 0.0 11.968683175614801 0.0 0.0 0.0 11.968683175614801" Properties=species:S:1:pos:R:3:momenta:R:3:forces:R:3 energy=-438.21436957243 free_energy=-438.21436957243 stress="0.00018065769097535 0.00019045914990337 0.00029384943770478 0.00019045914990337 -0.00092415870139713 0.00031587516261959 0.00029384943770478 0.00031587516261959 -0.00046270648960726" pbc="T T T"
B        5.00937664       5.19680265       4.49277612       0.85516367      -0.03717218       0.18016368      -0.41240016      -0.72583207       1.96327049
H        7.40894122       6.17276348       8.62784969      -0.28120813      -0.27431713      -0.07326428       0.11732165      -0.16039670       0.55898340
H        7.63334967       5.71414253       7.03225098      -0.14816842      -0.00740625      -0.00106124       0.19471855      -0.28263591      -0.42269507
H        7.66312848       7.33491793       7.47033427      -0.29634828       0.09799995      -0.09163955      -0.04888304       1.53887230      -0.56252545
H        5.10894958       5.21591209       3.34083349      -0.14714970      -0.12243549       0.00077939       0.37017838       0.34119595      -0.70502667
H        4.06595586       4.63376525       4.96442036      -0.29313373      -0.13486662      -0.07843338       0.14043364       0.25414015      -0.34741196
H        5.77743564       5.57648420       5.33708682       0.29100218       0.08221330       0.06865798      -0.08312711       0.13334550      -0.89511537
N        7.90272732       6.39760752       7.75297357       0.01954225       0.39605436      -0.00546402      -0.30594764      -1.09717191       0.40207647
8
Lattice="11.968423537312951 0.0 0.0 0.0 11.968423537312951 0.0 0.0 0.0 11.968423537312951" Properties=species:S:1:pos:R:3:momenta:R:3:forces:R:3 energy=-438.20692505546 free_energy=-438.20692505546 stress="0.00052935292997332 0.00035837268327022 0.00027437839372177 0.00035837268327022 -0.00051223626139435 0.00020212201114164 0.00027437839372177 0.00020212201114164 -0.00020436609441611" pbc="T T T"
B        5.02014654       5.19626592       4.49556786       0.83015111      -0.07580413       0.28141302      -0.62862523      -0.84616111       2.15357894
H        7.40225488       6.15889027       8.62661501      -0.27193356      -0.27813950      -0.05158229       0.26123084       0.01107562       0.32176507
H        7.63323680       5.71314370       7.03339370      -0.13723314      -0.01882749      -0.02109692       0.24866288      -0.18074386      -0.39458719
H        7.65550006       7.34120419       7.46688531      -0.29715469       0.16189195      -0.11459181       0.01706408       1.06020506      -0.37233117
H        5.10915128       5.21006408       3.34180853      -0.12793547      -0.10532501      -0.03343470       0.41015319       0.35856400      -0.69016221
H        4.05878817       4.62721934       4.96192761      -0.27748181      -0.11751789      -0.09715575       0.49842351       0.45585357      -0.41602712
H        5.79843968       5.58035602       5.34110104       0.28272568       0.08636833       0.02142954      -0.26504294       0.03462797      -1.03210586
N        7.90963537       6.39858960       7.75467199      -0.00181917       0.34737454       0.01480812      -0.57532851      -0.89269659       0.42388015
8
Lattice="11.96814837059692 0.0 0.0 0.0 11.96814837059692 0.0 0.0 0.0 11.96814837059692" Properties=species:S:1:pos:R:3:momenta:R:3:forces:R:3 energy=-438.19150558034 free_energy=-438.19150558034 stress="0.00084569705132284 0.00048414051364922 0.00025644544632427 0.00048414051364922 -4.1469926797405e-05 7.4785364190057e-05 0.00025644544632427 7.4785364190057e-05 8.79616174536e-05" pbc="T T T"
B        5.03023036       5.19371766       4.49927636       0.79586790      -0.11972692       0.38815684      -0.81291119      -0.93894592       2.17844003
H        7.39563426       6.14320469       8.62658052      -0.25567780      -0.27356871      -0.04172542       0.40554744       0.18810804       0.07879531
H        7.63316657       5.70988690       7.03402334      -0.12360637      -0.02473552      -0.03914739       0.30485619      -0.05776451      -0.34033572
H        7.64735157       7.34821243       7.46297175      -0.29397331       0.19974856      -0.12744818       0.11828458       0.47293203      -0.14749647
H        5.10978604       5.20324600       3.34156786      -0.10700578      -0.08753323      -0.06505599       0.44019766       0.37087929      -0.59731453
H        4.05225741       4.61993594       4.95887057      -0.24581267      -0.09129571      -0.11845470       0.79668300       0.61774624      -0.44897593
H        5.81828212       5.58249235       5.34308244       0.26667807       0.08616482      -0.03128051      -0.40911077      -0.04673444      -1.11732748
N        7.91589096       6.39759537       7.75687373      -0.03728025       0.31095351       0.03480536      -0.87371054      -0.60555461       0.38999310
8
Lattice="11.967856635601485 0.0 0.0 0.0 11.967856635601485 0.0 0.0 0.0 11.967856635601485" Properties=species:S:1:pos:R:3:momenta:R:3:forces:R:3 energy=-438.16785363431 free_energy=-438.16785363431 stress="0.0011116269024694 0.00056973793734568 0.00024546787491472 0.00056973793734568 0.0004286976078134 -4.9049285582835e-05 0.00024546787491472 -4.9049285582835e-05 0.00038398100356317" pbc="T T T"
B        5.03926776       5.18963939       4.50409399       0.75443187      -0.16770332       0.49290489      -0.96263224      -1.00272959       2.04657013
H        7.38908488       6.12661572       8.62734558      -0.23302861      -0.26086155      -0.04324971       0.53475991       0.35723281      -0.13931724
H        7.63294216       5.70516768       7.03444927      -0.10735010      -0.02441334      -0.05419289       0.36169278       0.07450325      -0.26871414
H        7.63858216       7.35505554       7.45930560      -0.28583156       0.20878985      -0.12935734       0.23491999      -0.12606406       0.08162110
H        5.11059612       5.19598574       3.34051105      -0.08491618      -0.06934425      -0.09059264       0.46210485       0.37868697      -0.43676693
H        4.04673917       4.61280110       4.95534476      -0.20144275      -0.05828094      -0.14068950       1.02754410       0.73625213      -0.44611656
H        5.83631115       5.58320740       5.34300547       0.24491032       0.08254706      -0.08698178      -0.51222143      -0.10923459      -1.14926254
N        7.92111746       6.39517864       7.75975690      -0.08750422       0.28927550       0.05205274      -1.16856171      -0.30779357       0.30884384
8
Lattice="11.967548926293846 0.0 0.0 0.0 11.967548926293846 0.0 0.0 0.0 11.967548926293846" Properties=species:S:1:pos:R:3:momenta:R:3:forces:R:3 energy=-438.13949117484 free_energy=-438.13949117484 stress="0.0013129475002285 0.00061865723532492 0.00024414343568169 0.00061865723532492 0.00084864873715537 -0.00015609561471727 0.00024414343568169 -0.00015609561471727 0.00065572996352301" pbc="T T T"
B        5.04699243       5.18457878       4.51007635       0.70811060      -0.21860834       0.58921579      -1.07750240      -1.03752771       1.77829905
H        7.38265058       6.11006442       8.62846172      -0.20519936      -0.24089580      -0.05446059       0.63762350       0.50703777      -0.31103298
H        7.63244769       5.69986407       7.03491342      -0.08857103      -0.01771950      -0.06569548       0.41744533       0.20396876      -0.18911062
H        7.62919792       7.36088902       7.45649879      -0.27269738       0.19045136      -0.12080603       0.34915018      -0.66261424       0.29123704
H        5.11138515       5.18886051       3.33908721      -0.06208497      -0.05099415      -0.10729986       0.47755920       0.38218446      -0.22620167
H        4.04252656       4.60665990       4.95141686      -0.14786345      -0.02058836      -0.16233761       1.18764344       0.81045804      -0.40923441
H        5.85206324       5.58292466       5.34085562       0.21959843       0.07652250      -0.14330702      -0.57299570      -0.15214381      -1.12859413
N        7.92502236       6.39195711       7.76338701      -0.15184674       0.28184842       0.06461354      -1.43343912      -0.05021013       0.19238417
8
Lattice="11.967227288982821 0.0 0.0 0.0 11.967227288982821 0.0 0.0 0.0 11.967227288982821" Properties=species:S:1:pos:R:3:momenta:R:3:forces:R:3 energy=-438.11252174278 free_energy=-438.11252174278 stress="0.0014391813803311 0.00063380662233255 0.00025310372972874 0.00063380662233255 0.0011826261125329 -0.00023792955974181 0.00025310372972874 -0.00023792955974181 0.00087940751069855" pbc="T T T"
B        5.05322800       5.17906239       4.51714486       0.65901383      -0.27147005       0.67199404      -1.15759030      -1.04371642       1.39987635
H        7.37639002       6.09441485       8.62947780      -0.17371191      -0.21494207      -0.07288269       0.70715293       0.62881061      -0.42332085
H        7.63164537       5.69482333       7.03556409      -0.06736500      -0.00503335      -0.07358348       0.47035972       0.31955729      -0.11045624
H        7.61927076       7.36499342       7.45500675      -0.25518693       0.14894966      -0.10316731       0.44829394      -1.09064893       0.46612541
H        5.11202355       5.18241347       3.33774949      -0.03876060      -0.03266014      -0.11340088       0.48777141       0.38121564       0.01284158
H        4.03982961       4.60223387       4.94711503      -0.08846143       0.01977965      -0.18203250       1.27551951       0.84063042      -0.34081665
H        5.86525956       5.58209069       5.33661732       0.19289090       0.06909493      -0.19811352      -0.59107778      -0.17518712      -1.05744037
N        7.92739767       6.38851699       7.76771615      -0.22879721       0.28630634       0.07113521      -1.64956173       0.14081955       0.05210522
8
Lattice="11.966894932307921 0.0 0.0 0.0 11.966894932307921 0.0 0.0 0.0 11.966894932307921" Properties=species:S:1:pos:R:3:momenta:R:3:forces:R:3 energy=-438.09340631657 free_energy=-438.09340631657 stress="0.0014830603906148 0.00061705374206474 0.00027177592951211 0.00061705374206474 0.0014076329593039 -0.00029024479130699 0.00027177592951211 -0.00029024479130699 0.0010363253797472" pbc="T T T"
B        5.05787953       5.17354578       4.52509960       0.60876180      -0.32532007       0.73719401      -1.20179560      -1.02132178       0.93918730
H        7.37036491       6.08039494       8.62997691      -0.14011859      -0.18440089      -0.09561502       0.73972029       0.71637130      -0.46969743
H        7.63057161       5.69078948       7.03644498      -0.04377886       0.01284357      -0.07815213       0.51872088       0.41196163      -0.04054717
H        7.60891384       7.36681764       7.45510835      -0.23417045       0.08985966      -0.07822308       0.52458627      -1.38663295       0.59811353
H        5.11245061       5.17710696       3.33691803      -0.01503750      -0.01446412      -0.10806463       0.49334720       0.37537959       0.25826905
H        4.03877863       4.60007729       4.94243460      -0.02642335       0.06095129      -0.19846284       1.28995639       0.82725940      -0.24338740
H        5.87579241       5.58112266       5.33027618       0.16676450       0.06120638      -0.24940930      -0.56691331      -0.17840674      -0.93905227
N        7.92811631       6.38535843       7.77259286      -0.31626198       0.29935782       0.07071498      -1.80481685       0.25714034      -0.10237945
8
Lattice="11.966555908871559 0.0 0.0 0.0 11.966555908871559 0.0 0.0 0.0 11.966555908871559" Properties=species:S:1:pos:R:3:momenta:R:3:forces:R:3 energy=-438.08676530581 free_energy=-438.08676530581 stress="0.0014399738933199 0.00056979043484882 0.00029882089115173 0.00056979043484882 0.0015102927190692 -0.00031152430606747 0.00029882089115173 -0.00031152430606747 0.0011129948766308" pbc="T T T"
B        5.06092722       5.16839496       4.53363126       0.55825675      -0.37881305       0.78105391      -1.20702840      -0.96976264       0.42355726
H        7.36463994       6.06857618       8.62960574      -0.10585730      -0.15062527      -0.11948060       0.73405063       0.76553046      -0.44829334
H        7.62933545       5.68836303       7.03749301      -0.01783236       0.03474931      -0.07992095       0.56084647       0.47389320       0.01423999
H        7.59827774       7.36599967       7.45690574      -0.21046158       0.01926311      -0.04786569       0.57335176      -1.54061712       0.68333106
H        5.11267579       5.17330294       3.33695017       0.00906200       0.00348402      -0.09124697       0.49434361       0.36419191       0.48966002
H        4.03942395       4.60055624       4.93735589       0.03510618       0.10103524      -0.21016458       1.22928801       0.77071795      -0.11940638
H        5.88371093       5.58038384       5.32183703       0.14293623       0.05370063      -0.29508335      -0.50199844      -0.16226733      -0.77806748
N        7.92713196       6.38287271       7.77777377      -0.41144457       0.31724689       0.06273210      -1.89165053       0.30027437      -0.26276827
8
Lattice="11.966214815631535 0.0 0.0 0.0 11.966214815631535 0.0 0.0 0.0 11.966214815631535" Properties=species:S:1:pos:R:3:momenta:R:3:forces:R:3 energy=-438.09383511693 free_energy=-438.09383511693 stress="0.0013085066718331 0.0004941958122243 0.00033258742770649 0.0004941958122243 0.0014844140579745 -0.00030180562995419 0.00033258742770649 -0.00030180562995419 0.0011015843989996" pbc="T T T"
B        5.06243033       5.16388156       4.54233174       0.50799102      -0.42986980       0.79968044      -1.16802652      -0.88796930      -0.12026579
H        7.35928792       6.05936194       8.62810222      -0.07234467      -0.11500517      -0.14104186       0.69070191       0.77371126      -0.36086644
H        7.62811935       5.68797167       7.03854107       0.01034677       0.05912946      -0.07955032       0.59506073       0.50017329       0.04906016
H        7.58755734       7.36238723       7.46032729      -0.18483082      -0.05631006      -0.01411236       0.59113521      -1.54907174       0.71990387
H        5.11278131       5.17125079       3.33811259       0.03343385       0.02099295      -0.06363492       0.49044372       0.34726669       0.68947024
H        4.04172569       4.60382758       4.93186837       0.09264748       0.13788204      -0.21541516       1.09189025       0.67160708       0.02837044
H        5.88921934       5.58017233       5.31135396       0.12291650       0.04733657      -0.33268829      -0.39965078      -0.12804306      -0.58122838
N        7.92448912       6.38133280       7.78293556      -0.51045100       0.33589124       0.04682938      -1.90522466       0.27452542      -0.42076235
8
Lattice="11.96587649205049 0.0 0.0 0.0 11.96587649205049 0.0 0.0 0.0 11.96587649205049" Properties=species:S:1:pos:R:3:momenta:R:3:forces:R:3 energy=-438.11178977486 free_energy=-438.11178977486 stress="0.0010917446675181 0.00039459537620139 0.0003712617071036 0.00039459537620139 0.001330179646841 -0.00026208969531542 0.0003712617071036 -0.00026208969531542 0.0010003913547128" pbc="T T T"
B        5.06254174       5.16017442       4.55071724       0.45902668      -0.47588195       0.78997124      -1.07818802      -0.77484216      -0.66539956
H        7.35439111       6.05295932       8.62532241      -0.04115774      -0.07922802      -0.15681983       0.61202152       0.74004724      -0.21275967
H        7.62717826       5.68983769       7.03932661       0.04037569       0.08406042      -0.07785951       0.61969984       0.48783187       0.06070486
H        7.57698868       7.35606315       7.46513138      -0.15835500      -0.12969087       0.02073025       0.57446265      -1.41121406       0.70672065
H        5.11292489       5.17106910       3.34055409       0.05777803       0.03772639      -0.02678402       0.48120151       0.32444649       0.84369125
H        4.04553774       4.60981335       4.92599080       0.14218346       0.16906794      -0.21249861       0.87781617       0.53169113       0.19634016
H        5.89268913       5.58070972       5.29895395       0.10814483       0.04282854      -0.35975914      -0.26606171      -0.07842951      -0.35805700
N        7.92033875       6.38088246       7.78769594      -0.60841883       0.35117266       0.02311989      -1.84186728       0.18308156      -0.56674456
8
Lattice="11.965545695366922 0.0 0.0 0.0 11.965545695366922 0.0 0.0 0.0 11.965545695366922" Properties=species:S:1:pos:R:3:momenta:R:3:forces:R:3 energy=-438.1342091302 free_energy=-438.1342091302 stress="0.00079924222634546 0.00027837394577524 0.00041276465271389 0.00027837394577524 0.0010553996497942 -0.00019450655873534 0.00041276465271389 -0.00019450655873534 0.00081462270575507" pbc="T T T"
B        5.06151933       5.15732390       4.55827074       0.41369243      -0.51442559       0.75120646      -0.93139598      -0.63019951      -1.18441574
H        7.35003661       6.04934216       8.62125846      -0.01402952      -0.04539252      -0.16370656       0.50303464       0.66618781      -0.01403843
H        7.62683214       5.69395106       7.03950996       0.07159954       0.10742084      -0.07591455       0.63354136       0.43678402       0.04817701
H        7.56682506       7.34735840       7.47092169      -0.13271037      -0.19317245       0.05403392       0.51999397      -1.12955190       0.64370487
H        5.11333827       5.17272632       3.34428724       0.08165416       0.05326289       0.01680522       0.46622760       0.29592191       0.94211379
H        4.05060128       4.61818730       4.91978137       0.17955165       0.19225275      -0.20017486       0.59116003       0.35511355       0.37954364
H        5.89466249       5.58212462       5.28483530       0.09993740       0.04081470      -0.37458081      -0.11103607      -0.01793250      -0.12087274
N        7.91494441       6.38152266       7.79164771      -0.70029451       0.35930768      -0.00754996      -1.69990436       0.02703812      -0.68939863
8
Lattice="11.965226726828725 0.0 0.0 0.0 11.965226726828725 0.0 0.0 0.0 11.965226726828725" Properties=species:S:1:pos:R:3:momenta:R:3:forces:R:3 energy=-438.15280226778 free_energy=-438.15280226778 stress="0.00044831536706015 0.00015587404719066 0.00045463246752791 0.00015587404719066 0.00067617228620987 -0.00010288767306627 0.00045463246752791 -0.00010288767306627 0.00055555738124119" pbc="T T T"
B        5.05972353       5.15525324       4.56449092       0.37531754      -0.54376458       0.68546281      -0.72491158      -0.45584910      -1.64935689
H        7.34631589       6.04824011       8.61603741       0.00752247      -0.01562185      -0.15948877       0.37151550       0.55660034       0.22043526
H        7.62745419       5.70006740       7.03870290       0.10328765       0.12723686      -0.07487941       0.63546987       0.34938759       0.01223220
H        7.55730682       7.33683700       7.47718072      -0.11001978      -0.23939380       0.08316548       0.42545294      -0.71201168       0.53262078
H        5.11431989       5.17603657       3.34918932       0.10462520       0.06722366       0.06399994       0.44533551       0.26223116       0.97807083
H        4.05655411       4.62838973       4.91334309       0.20109473       0.20560917      -0.17788162       0.24280514       0.14958017       0.57121067
H        5.89582890       5.58443924       5.26924744       0.09918584       0.04172836      -0.37664657       0.05199245       0.04701547       0.11598165
N        7.90867261       6.38310766       7.79439734      -0.78176732       0.35707273      -0.04360411      -1.48026420      -0.19245822      -0.77603594
8
Lattice="11.964923072815289 0.0 0.0 0.0 11.964923072815289 0.0 0.0 0.0 11.964923072815289" Properties=species:S:1:pos:R:3:momenta:R:3:forces:R:3 energy=-438.16008181944 free_energy=-438.16008181944 stress="6.5185850916229e-05 3.9522660773068e-05 0.00049374680747242 3.9522660773068e-05 0.0002196085873194 6.1611644341875e-06 0.00049374680747242 6.1611644341875e-06 0.0002404670028659" pbc="T T T"
B        5.05760041       5.15375661       4.56893188       0.34743909      -0.56288487       0.59702885      -0.46315683      -0.25700753      -2.03217554
H        7.34332560       6.04915056       8.60990596       0.02246609       0.00827121      -0.14301291       0.22874280       0.41939919       0.46993102
H        7.62945257       5.70771916       7.03649479       0.13473078       0.14181574      -0.07593425       0.62497324       0.23109939      -0.04390271
H        7.54863218       7.32526327       7.48330799      -0.09253078      -0.26197444       0.10576876       0.29209596      -0.17856340       0.37935264
H        5.11622026       5.18066561       3.35501711       0.12634524       0.07933931       0.11143359       0.41864650       0.22420320       0.94779371
H        4.06295197       4.63965980       4.90682577       0.20421030       0.20806905      -0.14567963      -0.14682749      -0.07249053       0.76231138
H        5.89697391       5.58755501       5.25246389       0.10604830       0.04564945      -0.36662886       0.20685824       0.10836861       0.33753294
N        7.90197111       6.38534762       7.79559684      -0.84949990       0.34183599      -0.08283389      -1.19122753      -0.46930334      -0.81453372
8
Lattice="11.964637034087279 0.0 0.0 0.0 11.964637034087279 0.0 0.0 0.0 11.964637034087279" Properties=species:S:1:pos:R:3:momenta:R:3:forces:R:3 energy=-438.15241074586 free_energy=-438.15241074586 stress="-0.00031531825334184 -5.8331812088975e-05 0.000526311147821 -5.8331812088975e-05 -0.00027456964261257 0.00012225153534469 0.000526311147821 0.00012225153534469 -0.00010831016006694" pbc="T T T"
B        5.05565226       5.15250938       4.57123844       0.33302903      -0.57147553       0.49170056      -0.16120519      -0.04354702      -2.30610653
H        7.34117115       6.05137722       8.60320341       0.03049968       0.02509171      -0.11439427       0.08921156       0.26631273       0.70836392
H        7.63324706       5.71624859       7.03248821       0.16533221       0.14995177      -0.08004783       0.60214584       0.09034804      -0.11461700
H        7.54093412       7.31355032       7.48866969      -0.08221841      -0.25633768       0.12009079       0.12813164       0.43120132       0.19649027
H        5.11941888       5.18614975       3.36143362       0.14657767       0.08946947       0.15576205       0.38660609       0.18292151       0.84995551
H        4.06929984       4.65108671       4.90043070       0.18778847       0.19947238      -0.10417857      -0.54609556      -0.29358862       0.94132465
H        5.89891035       5.59124635       5.23476467       0.11982591       0.05224733      -0.34611361       0.33652016       0.15739182       0.53005161
N        7.89533719       6.38782310       7.79497368      -0.90145592       0.31172976      -0.12264012      -0.85366216      -0.78489925      -0.79678015
8
Lattice="11.964369398336824 0.0 0.0 0.0 11.964369398336824 0.0 0.0 0.0 11.964369398336824" Properties=species:S:1:pos:R:3:momenta:R:3:forces:R:3 energy=-438.13233821194 free_energy=-438.13233821194 stress="-0.00065203496763168 -0.00012821599843643 0.00054809331297834 -0.00012821599843643 -0.00075414711013189 0.00023107487547368 0.00054809331297834 0.00023107487547368 -0.00046456282904581" pbc="T T T"
B        5.05439683       5.15109401       4.57117818       0.33388042      -0.56996035       0.37622808       0.15354678       0.16970900      -2.44782363
H        7.33996765       6.05409258       8.59632784       0.03214337       0.03440569      -0.07508325      -0.03061725       0.11185032       0.90626271
H        7.63923834       5.72486057       7.02633920       0.19463847       0.15100570      -0.08786152       0.56780107      -0.06157354      -0.19180702
H        7.53426610       7.30268665       7.49266126      -0.08034482      -0.22063020       0.12531496      -0.04805559       1.05205957       0.00516523
H        5.12429258       5.19193020       3.36804156       0.16519865       0.09759524       0.19382810       0.34996329       0.13966677       0.68561167
H        4.07509328       4.66168275       4.89441514       0.15257691       0.18067162      -0.05450811      -0.91295526      -0.49206534       1.09453114
H        5.90240059       5.59516913       5.21643002       0.13901897       0.06079184      -0.31729732       0.42556335       0.18596132       0.68293637
N        7.88927612       6.39001684       7.79235889      -0.93734421       0.26626823      -0.16038443      -0.50678643      -1.10055699      -0.72402032
8
Lattice="11.96411920038018 0.0 0.0 0.0 11.96411920038018 0.0 0.0 0.0 11.96411920038018" Properties=species:S:1:pos:R:3:momenta:R:3:forces:R:3 energy=-438.1087998998 free_energy=-438.1087998998 stress="-0.00090239930752868 -0.00016601415069214 0.00055494341293197 -0.00016601415069214 -0.0011586517822319 0.00031601495144553 0.00055494341293197 0.00031601495144553 -0.0008000848671146" pbc="T T T"
B        5.05431668       5.14904796       4.56867088       0.35011941      -0.55949183       0.25783642       0.44372614       0.36454435      -2.44039842
H        7.33983633       6.05642621       8.58969968       0.02873880       0.03656985      -0.02780737      -0.11488129      -0.02865305       1.03471298
H        7.64777078       5.73270047       7.01780277       0.22235843       0.14495042      -0.09956835       0.52347814      -0.21103830      -0.26502522
H        7.52860411       7.29363711       7.49478579      -0.08695829      -0.15666320       0.12187245      -0.20736678       1.59482247      -0.16602165
H        5.13117628       5.19740842       3.37441952       0.18219235       0.10379234       0.22274108       0.30969528       0.09582926       0.45872465
H        4.07986892       4.67048209       4.88909615       0.10140446       0.15353509       0.00170810      -1.19982114      -0.64500391       1.20717253
H        5.90807787       5.59889331       5.19774927       0.16152450       0.07022836      -0.28263130       0.46276848       0.18796718       0.79006286
N        7.88425028       6.39137056       7.78771296      -0.95917428       0.20718813      -0.19388677      -0.20581371      -1.35497973      -0.60843555
8
Lattice="11.963883645716766 0.0 0.0 0.0 11.963883645716766 0.0 0.0 0.0 11.963883645716766" Properties=species:S:1:pos:R:3:momenta:R:3:forces:R:3 energy=-438.09398624823 free_energy=-438.09398624823 stress="-0.0010296086437853 -0.00017378271875024 0.00054332617938908 -0.00017378271875024 -0.0014289125001522 0.00036182033675056 0.00054332617938908 0.00036182033675056 -0.0010872092431579" pbc="T T T"
B        5.05580271       5.14593667       4.56381532       0.37986231      -0.54166717       0.14372179       0.66922863       0.52295058      -2.27710558
H        7.34089535       6.05757498       8.58372912       0.02231833       0.03261498       0.02365325      -0.15168929      -0.14176689       1.07073221
H        7.65908822       5.73895499       7.00678521       0.24828504       0.13231953      -0.11477572       0.47125048      -0.34312951      -0.32207634
H        7.52387203       7.28722394       7.49474330      -0.10046703      -0.07044864       0.11154125      -0.31491061       1.96131159      -0.28672807
H        5.14031692       5.20202179       3.38015452       0.19757571       0.10814975       0.23985010       0.26687464       0.05279290       0.17737102
H        4.08325900       4.67665970       4.88485245       0.03911085       0.12075009       0.06238276      -1.36254930      -0.73280097       1.26555969
H        5.91637301       5.60196252       5.17904892       0.18486051       0.07926251      -0.24439814       0.44298516       0.16041805       0.85021524
N        7.88062465       6.39136896       7.78114967      -0.97106193       0.13909133      -0.22173597      -0.00290229      -1.47708581      -0.46952755
8
Lattice="11.963658269196937 0.0 0.0 0.0 11.963658269196937 0.0 0.0 0.0 11.963658269196937" Properties=species:S:1:pos:R:3:momenta:R:3:forces:R:3 energy=-438.09741444908 free_energy=-438.09741444908 stress="-0.0010107967002963 -0.0001581570729293 0.00051059970217429 -0.0001581570729293 -0.0015208205755589 0.0003595092662119 0.00051059970217429 0.0003595092662119 -0.0013015770506858" pbc="T T T"
B        5.05909695       5.14144572       4.55691544       0.41901023      -0.51793961       0.04068012       0.79774229       0.63180109      -1.96589345
H        7.34324083       6.05692244       8.57879088       0.01530777       0.02401865       0.07473786      -0.13617153      -0.21865737       1.00276234
H        7.67327713       5.74296657       6.99340631       0.27200495       0.11410061      -0.13234008       0.41356932      -0.44324561      -0.35018933
H        7.51998544       7.28400151       7.49251890      -0.11755016       0.02801179       0.09717257      -0.34084000       2.07256648      -0.33458207
H        5.15181720       5.20533018       3.38486739       0.21116137       0.11063915       0.24263315       0.22248871       0.01177755      -0.14431471
H        4.08504178       4.67965676       4.88211954      -0.02783557       0.08548092       0.12488205      -1.37158846      -0.74426801       1.25989689
H        5.92744524       5.60397299       5.16073884       0.20624778       0.08642013      -0.20436359       0.36794815       0.10402404       0.86672234
N        7.87861649       6.38964283       7.77296023      -0.97775231       0.06932575      -0.24322810       0.06692093      -1.41123944      -0.33024098
8
Lattice="11.963437369889608 0.0 0.0 0.0 11.963437369889608 0.0 0.0 0.0 11.963437369889608" Properties=species:S:1:pos:R:3:momenta:R:3:forces:R:3 energy=-438.12023450554 free_energy=-438.12023450554 stress="-0.00084417499862545 -0.00012706807060381 0.00045515819565189 -0.00012706807060381 -0.0014190873251528 0.00031038495769525 0.00045515819565189 0.00031038495769525 -0.0014248084205507" pbc="T T T"
B        5.06424169       5.13547064       4.54849657       0.46160864      -0.48944030      -0.04498258       0.81489857       0.68688458      -1.53324855
H        7.34691842       6.05414716       8.57519876       0.01016079       0.01250155       0.12039313      -0.07216447      -0.25693320       0.83463325
H        7.69020747       5.74434997       6.97805805       0.29272464       0.09178000      -0.15027542       0.35307028      -0.49936320      -0.33801998
H        7.51689332       7.28414240       7.48844679      -0.13364368       0.12576340       0.08216552      -0.27302345       1.89982017      -0.30459429
H        5.16557899       5.20709866       3.38823861       0.22242010       0.11109027       0.22896082       0.17717232      -0.02642285      -0.48419366
H        4.08518315       4.67929497       4.88136421      -0.09187877       0.05111160       0.18588013      -1.22157947      -0.68038628       1.18720363
H        5.94112615       5.60465592       5.14334615       0.22274457       0.09017878      -0.16384319       0.24600878       0.02318204       0.84654824
N        7.87825422       6.38606835       7.76362750      -0.98352209       0.00707665      -0.25822345      -0.00477612      -1.14307941      -0.20956910
8
Lattice="11.963214713817738 0.0 0.0 0.0 11.963214713817738 0.0 0.0 0.0 11.963214713817738" Properties=species:S:1:pos:R:3:momenta:R:3:forces:R:3 energy=-438.15388181593 free_energy=-438.15388181593 stress="-0.0005512121203828 -8.6717759184936e-05 0.00037667595273631 -8.6717759184936e-05 -0.0011433937589034 0.00022635875610097 0.00037667595273631 0.00022635875610097 -0.001446340599732" pbc="T T T"
B        5.07105877       5.12816187       4.53927827       0.50138522      -0.45764129      -0.10797483       0.72915109       0.69439790      -1.02421843
H        7.35189991       6.04928093       8.57317289       0.00898430      -0.00018111       0.15580766       0.02865511      -0.26079537       0.58564904
H        7.70951872       5.74307788       6.96141080       0.30969572       0.06747196      -0.16609603       0.29236799      -0.50453076      -0.27808279
H        7.51459486       7.28737766       7.48320580      -0.14409640       0.20925892       0.06982986      -0.12340991       1.47875486      -0.21179350
H        5.18128695       5.20734872       3.39004183       0.23081103       0.10938056       0.19809596       0.13084992      -0.06185143      -0.81208459
H        4.08385667       4.67583705       4.88303247      -0.14537532       0.02097774       0.24169480      -0.93436141      -0.55456537       1.05296553
H        5.95691837       5.60393480       5.12748862       0.23184846       0.08927990      -0.12414107       0.09062690      -0.07485037       0.79888993
N        7.87935805       6.38081950       7.75379835      -0.99264524      -0.03846034      -0.26725753      -0.19607922      -0.71095710      -0.11703639
8
Lattice="11.962984376323616 0.0 0.0 0.0 11.962984376323616 0.0 0.0 0.0 11.962984376323616" Properties=species:S:1:pos:R:3:momenta:R:3:forces:R:3 energy=-438.18471386903 free_energy=-438.18471386903 stress="-0.00017145309994153 -4.0608637573278e-05 0.00027654433287977 -4.0608637573278e-05 -0.00074251119300551 0.00012562293457582 0.00027654433287977 0.00012562293457582 -0.0013645894035589" pbc="T T T"
B        5.07917979       5.11989413       4.53009091       0.53356764      -0.42460680      -0.14536822       0.56830547       0.66840494      -0.49635336
H        7.35808217       6.04267687       8.57281341       0.01323081      -0.01249193       0.17739146       0.14937724      -0.23956771       0.28677193
H        7.73067452       5.73948671       6.94434947       0.32274594       0.04382519      -0.17723742       0.23318188      -0.45905952      -0.16977138
H        7.51312693       7.29304491       7.47772014      -0.14549575       0.26770456       0.06264429       0.07689196       0.89554153      -0.08447440
H        5.19845152       5.20634197       3.39017097       0.23612918       0.10558309       0.15149988       0.08241985      -0.09558531      -1.09288899
H        4.08142116       4.66993947       4.88749182      -0.18216446      -0.00219843       0.28916724      -0.55236256      -0.38851464       0.87015645
H        5.97407102       5.60192478       5.11379845       0.23214140       0.08304195      -0.08659352      -0.08243803      -0.18135204       0.73338869
N        7.88156321       6.37433514       7.74420635      -1.00956441      -0.06072593      -0.27163463      -0.46136354      -0.19237600      -0.05375176
8
Lattice="11.962741516490569 0.0 0.0 0.0 11.962741516490569 0.0 0.0 0.0 11.962741516490569" Properties=species:S:1:pos:R:3:momenta:R:3:forces:R:3 energy=-438.20136761306 free_energy=-438.20136761306 stress="0.00024825419999999 9.4514620449506e-06 0.00015793822821735 9.4514620449506e-06 -0.00027801670527848 2.6184676562954e-05 0.00015793822821735 2.6184676562954e-05 -0.001185530894197" pbc="T T T"
B        5.08811228       5.11117795       4.52176429       0.55567982      -0.39222405      -0.15750991       0.36939191       0.62598039      -0.00953381
H        7.36530115       6.03489718       8.57409556       0.02344800      -0.02341695       0.18354840       0.27270514      -0.20447001      -0.02731363
H        7.75304478       5.73418993       6.92786354       0.33220494       0.02334588      -0.18159922       0.17651432      -0.36982867      -0.01937958
H        7.51253402       7.30023125       7.47299643      -0.13636548       0.29546383       0.06167920       0.29113316       0.25240761       0.04768986
H        5.21647906       5.20449634       3.38864596       0.23841898       0.09985571       0.09271886       0.02987757      -0.12962472      -1.29232254
H        4.07836077       4.66251027       4.89498404      -0.19868037      -0.01683786       0.32625493      -0.12593829      -0.20595698       0.65603109
H        5.99169200       5.59887205       5.10284155       0.22333165       0.07136454      -0.05223124      -0.25781736      -0.28767364       0.65876781
N        7.88438074       6.36721603       7.73557364      -1.03750530      -0.05737695      -0.27300913      -0.74788446       0.32618138      -0.01907962
8
Lattice="11.962482842792674 0.0 0.0 0.0 11.962482842792674 0.0 0.0 0.0 11.962482842792674" Properties=species:S:1:pos:R:3:momenta:R:3:forces:R:3 energy=-438.19974244075 free_energy=-438.19974244075 stress="0.000663520614046 6.197020049633e-05 2.5751655513805e-05 6.197020049633e-05 0.00019032097282598 -5.8771158177327e-05 2.5751655513805e-05 -5.8771158177327e-05 -0.00092273719449791" pbc="T T T"
B        5.09731367       5.10256287       4.51502638       0.56737167      -0.36159394      -0.14783124       0.16800330       0.58250014       0.38510404
H        7.37335516       6.02658482       8.57687511       0.03940713      -0.03250651       0.17450294       0.38372441      -0.16630527      -0.32390501
H        7.77598125       5.72795839       6.91294009       0.33861714       0.00802807      -0.17765997       0.12283344      -0.24901953       0.16035592
H        7.51284016       7.30793721       7.46996539      -0.11698030       0.29200403       0.06669992       0.48815609      -0.36138197       0.16195901
H        5.23473719       5.20228290       3.38560774       0.23774185       0.09229229       0.02678108      -0.02914073      -0.16629746      -1.38377549
H        4.07521343       4.65454563       4.90559551      -0.19404047      -0.02257292       0.35209322       0.29852448      -0.02741056       0.42836990
H        6.00885634       5.59507651       5.09505764       0.20597938       0.05459251      -0.02158451      -0.42236336      -0.38633702       0.58209247
N        7.88726942       6.36010888       7.72852458      -1.07768382      -0.03008190      -0.27310508      -1.00855043       0.77795083      -0.01303234
8
Lattice="11.962206788228533 0.0 0.0 0.0 11.962206788228533 0.0 0.0 0.0 11.962206788228533" Properties=species:S:1:pos:R:3:momenta:R:3:forces:R:3 energy=-438.18342066435 free_energy=-438.18342066435 stress="0.0010385942743357 0.00011507456773723 -0.00011383079185384 0.00011507456773723 0.00061380601924544 -0.00012223262322193 -0.00011383079185384 -0.00012223262322193 -0.00059675626018045" pbc="T T T"
B        5.10625389       5.09455607       4.51042356       0.56989976      -0.33300486      -0.12193380      -0.00877718       0.54866645       0.65400576
H        7.38202408       6.01834984       8.58090267       0.06025433      -0.03983645       0.15202182       0.47161329      -0.13388697      -0.57630042
H        7.79887375       5.72160122       6.90046472       0.34256716      -0.00089284      -0.16464429       0.07264687      -0.11153353       0.35264753
H        7.51402899       7.31521527       7.46935816      -0.08887996       0.26073436       0.07656159       0.64757589      -0.88345313       0.24525903
H        5.25260319       5.20013385       3.38130411       0.23405012       0.08286959      -0.04051820      -0.09644808      -0.20737616      -1.35429692
H        4.07250863       4.64699151       4.91923977      -0.16948794      -0.01997655       0.36679299       0.68551802       0.13239296       0.20264107
H        6.02469046       5.59082274       5.09071717       0.18118583       0.03337138       0.00527923      -0.56585144      -0.47152115       0.50858570
N        7.88969816       6.35360887       7.72351820      -1.12932455       0.01681947      -0.27360910      -1.21095518       1.12628557      -0.03375867
8
Lattice="11.961913445647799 0.0 0.0 0.0 11.961913445647799 0.0 0.0 0.0 11.961913445647799" Properties=species:S:1:pos:R:3:momenta:R:3:forces:R:3 energy=-438.16079727485 free_energy=-438.16079727485 stress="0.0013482275104303 0.00016670163577487 -0.00025386947974867 0.00016670163577487 0.00095714618282179 -0.00016215801604101 -0.00025386947974867 -0.00016215801604101 -0.00023413523709917" pbc="T T T"
B        5.11445881       5.08757150       4.50827369       0.56546653      -0.30616642      -0.08643604      -0.14488908       0.52958590       0.78528263
H        7.39108322       6.01069288       8.58584417       0.08474350      -0.04588529       0.11894101       0.52977379      -0.11357216      -0.76511323
H        7.82118579       5.71587312       6.89114471       0.34459914      -0.00298533      -0.14257370       0.02667922       0.02747673       0.53928606
H        7.51603734       7.32125990       7.47163587      -0.05427232       0.20739763       0.08968425       0.75898717      -1.27736493       0.29248572
H        5.26949411       5.19838150       3.37606928       0.22717177       0.07145549      -0.10339018      -0.17232885      -0.25328705      -1.20747857
H        4.07072353       4.64065354       4.93565496      -0.12763755      -0.01021390       0.37114426       1.01199084       0.26465196      -0.00933402
H        6.03842839       5.58633593       5.08989979       0.15035505       0.00851126       0.02863038      -0.68096084      -0.53908252       0.44181524
N        7.89118992       6.34819940       7.72080872      -1.19029045       0.07787301      -0.27601088      -1.33779164       1.35783155      -0.07731296
8
Lattice="11.961604373171305 0.0 0.0 0.0 11.961604373171305 0.0 0.0 0.0 11.961604373171305" Properties=species:S:1:pos:R:3:momenta:R:3:forces:R:3 energy=-438.14136148757 free_energy=-438.14136148757 stress="0.0015766865108586 0.00021521106901892 -0.00038703198586944 0.00021521106901892 0.0011963107483078 -0.00017941328175615 -0.00038703198586944 -0.00017941328175615 0.00013419985924222" pbc="T T T"
B        5.12153340       5.08190476       4.50865264       0.55654939      -0.28045498      -0.04787145      -0.23427713       0.52553998       0.78718540
H        7.40030973       6.00396218       8.59130826       0.11142843      -0.05139235       0.07871657       0.55492813      -0.10957156      -0.87751621
H        7.84246972       5.71140993       6.88546000       0.34515440       0.00145723      -0.11220826      -0.01394124       0.15406969       0.70250644
H        7.51875705       7.32545409       7.47696605      -0.01557884       0.13878329       0.10436903       0.81842268      -1.52430288       0.30324997
H        5.28488058       5.19722634       3.37029611       0.21684528       0.05786233      -0.15675657      -0.25504111      -0.30280427      -0.96204378
H        4.07025786       4.63615029       4.95441334      -0.07180021       0.00525720       0.36628067       1.26545568       0.36524613      -0.19939358
H        6.04944152       5.58176003       5.09249419       0.11502130      -0.01910215       0.04894175      -0.76292974      -0.58638852       0.38403262
N        7.89134651       6.34422312       7.72043491      -1.25756265       0.14749557      -0.28145997      -1.38216385       1.47220258      -0.13827870
8
Lattice="11.961282357923706 0.0 0.0 0.0 11.961282357923706 0.0 0.0 0.0 11.961282357923706" Properties=species:S:1:pos:R:3:momenta:R:3:forces:R:3 energy=-438.13271803725 free_energy=-438.13271803725 stress="0.0017152106600484 0.00025940853816023 -0.0005060880467322 0.00025940853816023 0.0013160234399185 -0.00017581159067238 -0.0005060880467322 -0.00017581159067238 0.0004763596816315" pbc="T T T"
B        5.12716938       5.07772349       4.51140724       0.54530877      -0.25508772      -0.01189537      -0.27795687       0.53341332       0.68239323
H        7.40948223       5.99833447       8.59687878       0.13874758      -0.05723046       0.03510440       0.54672118      -0.12413524      -0.90716073
H        7.86236532       5.70868607       6.88363961       0.34448055       0.01156285      -0.07494011      -0.04756445       0.25724128       0.82751715
H        7.52203893       7.32738773       7.48523076       0.02475493       0.06207125       0.11891596       0.82520977      -1.61523283       0.27938419
H        5.29829019       5.19672558       3.36440357       0.20274850       0.04192144      -0.19667330      -0.34093356      -0.35314615      -0.64755371
H        4.07142172       4.63389463       4.97493663      -0.00551347       0.02489720       0.35336498       1.44014490       0.43282632      -0.36203191
H        6.05725027       5.57715091       5.09821343       0.07673226      -0.04853612       0.06676442      -0.80859492      -0.61174902       0.33669297
N        7.88986063       6.34187163       7.72223211      -1.32720349       0.22025401      -0.29062259      -1.34363666       1.47336971      -0.21010644
8
Lattice="11.96095115425592 0.0 0.0 0.0 11.96095115425592 0.0 0.0 0.0 11.96095115425592" Properties=species:S:1:pos:R:3:momenta:R:3:forces:R:3 energy=-438.13876230348 free_energy=-438.13876230348 stress="0.0017608485126055 0.00029927034791513 -0.00060421108449943 0.00029927034791513 0.0013066889670356 -0.00015359290079837 -0.00060421108449943 -0.00015359290079837 0.00076214001954457" pbc="T T T"
B        5.13114648       5.07505966       4.51618256       0.53327567      -0.22926224       0.01710683      -0.28080927       0.54870597       0.50026048
H        7.41837732       5.99380398       8.60215041       0.16503492      -0.06430097      -0.00797007       0.50643232      -0.15808553      -0.85237657
H        7.88059239       5.70798173       6.88565379       0.34261329       0.02598803      -0.03273667      -0.07221104       0.32791729       0.90153845
H        7.52569297       7.32686870       7.49604768       0.06423804      -0.01525512       0.13161638       0.77940677      -1.54423313       0.22319739
H        5.30931030       5.19678969       3.35880075       0.18457177       0.02357745      -0.22050357      -0.42534960      -0.40080677      -0.29742027
H        4.07442766       4.63408245       4.99651460       0.06753435       0.04713174       0.33344022       1.53501153       0.46791988      -0.49383220
H        6.06153146       5.57247432       5.10661697       0.03708139      -0.07875584       0.08262891      -0.81668943      -0.61468782       0.30052894
N        7.88652350       6.34117732       7.72585634      -1.39419421       0.29069995      -0.30357491      -1.22438223       1.36533117      -0.28396526
8
Lattice="11.960615217647725 0.0 0.0 0.0 11.960615217647725 0.0 0.0 0.0 11.960615217647725" Properties=species:S:1:pos:R:3:momenta:R:3:forces:R:3 energy=-438.1587171603 free_energy=-438.1587171603 stress="0.001715147582011 0.0003348767857082 -0.00067555803435095 0.0003348767857082 0.0011646534320705 -0.00011522119148727 -0.00067555803435095 -0.00011522119148727 0.00096691473731497" pbc="T T T"
B        5.12547587       5.07379719       4.52245599       0.52149241      -0.20235612       0.03606386      -0.24858909       0.56698811       0.27033310
H        7.41890951       5.99017067       8.60676770       0.18855910      -0.07346193      -0.04650103       0.43724742      -0.21047686      -0.71741339
H        7.88909241       5.70934705       6.89120593       0.33950583       0.04296136       0.01178090      -0.08589889       0.35982448       0.91535289
H        7.52162623       7.32393649       7.50879851       0.10023824      -0.08525739       0.14077808       0.68164904      -1.30810436       0.13742837
H        5.30974167       5.19718064       3.35384752       0.16217687       0.00297924      -0.22696421      -0.50332166      -0.44213836       0.05583610
H        4.07152281       4.63667873       5.01833487       0.14343010       0.07035311       0.30755825       1.55052092       0.47146770      -0.59224133
H        6.05427097       5.56760141       5.11713584      -0.00222357      -0.10860171       0.09699467      -0.78694456      -0.59535676       0.27594280
N        7.87337305       6.34200133       7.73081452      -1.45282017       0.35320431      -0.31973107      -1.01648507       1.15184465      -0.34737052
8
Lattice="11.960279385250377 0.0 0.0 0.0 11.960279385250377 0.0 0.0 0.0 11.960279385250377" Properties=species:S:1:pos:R:3:momenta:R:3:forces:R:3 energy=-438.187731384 free_energy=-438.187731384 stress="0.0015833060083151 0.00036603048202782 -0.0007157943156944 0.00036603048202782 0.00089438774124504 -6.4087588440102e-05 -0.0007157943156944 -6.4087588440102e-05 0.0010750198846077" pbc="T T T"
B        5.11503386       5.07365962       4.52958346       0.51092045      -0.17411895       0.04314597      -0.18607293       0.58507690       0.01771558
H        7.41576873       5.98703238       8.61046299       0.20771461      -0.08545864      -0.07670110       0.34505533      -0.27806620      -0.51319742
H        7.89267124       5.71257377       6.89974148       0.33528522       0.06041512       0.05545207      -0.08676552       0.34952127       0.86374699
H        7.51446989       7.31887431       7.52267496       0.13002655      -0.13968662       0.14486098       0.53507366      -0.90969726       0.02609797
H        5.30424938       5.19751420       3.34981640       0.13575567      -0.01947834      -0.21625308      -0.57040838      -0.47409760       0.38495320
H        4.06760814       4.64140507       5.03953867       0.21797283       0.09291769       0.27708212       1.48813248       0.44464073      -0.65511395
H        6.04040518       5.56230244       5.12911174      -0.03935799      -0.13684741       0.11029126      -0.72040891      -0.55477576       0.26288033
N        7.85532747       6.34402288       7.73650631      -1.49753352       0.40214527      -0.33790573      -0.78398326       0.83513039      -0.38824394
8
Lattice="11.959948492069934 0.0 0.0 0.0 11.959948492069934 0.0 0.0 0.0 11.959948492069934" Properties=species:S:1:pos:R:3:momenta:R:3:forces:R:3 energy=-438.21909760808 free_energy=-438.21909760808 stress="0.0013718655458584 0.00039088438244272 -0.00072250129280351 0.00039088438244272 0.00051230306799434 -5.5238246442042e-06 -0.00072250129280351 -5.5238246442042e-06 0.0010817077176695" pbc="T T T"
B        5.10290300       5.07420897       4.53685641       0.50293667      -0.14465377       0.03763252      -0.09587542       0.60160781      -0.23875032
H        7.41178586       5.98379198       8.61308239       0.22150697      -0.10082956      -0.09548260       0.23880368      -0.35451466      -0.25851021
H        7.89436409       5.71718653       6.91048084       0.33058922       0.07616848       0.09485464      -0.07412381       0.29649990       0.74577794
H        7.50693321       7.31220566       7.53674453       0.15130104      -0.17071630       0.14269570       0.34762388      -0.36589739      -0.10393872
H        5.29573029       5.19727086       3.34686610       0.10604784      -0.04321133      -0.18998817      -0.62326969      -0.49460345       0.66967641
H        4.06558440       4.64774283       5.05929355       0.28710751       0.11323298       0.24381201       1.34980155       0.38865502      -0.68051018
H        6.02316965       5.55624416       5.14185026      -0.07234452      -0.16235587       0.12297331      -0.61970494      -0.49487207       0.26065558
N        7.83551538       6.34674101       7.74227671      -1.52690082       0.43232650      -0.35652075      -0.54248989       0.42230307      -0.39565214
8
Lattice="11.95962697177663 0.0 0.0 0.0 11.95962697177663 0.0 0.0 0.0 11.95962697177663" Properties=species:S:1:pos:R:3:momenta:R:3:forces:R:3 energy=-438.24529631723 free_energy=-438.24529631723 stress="0.0010940494132892 0.0004048180820417 -0.00069530259297382 0.0004048180820417 5.1262505447863e-05 5.267679590942e-05 -0.00069530259297382 5.267679590942e-05 0.00099429469911455" pbc="T T T"
B        5.08927412       5.07486570       4.54356095       0.49931236      -0.11419565       0.01970000       0.02169724       0.61703999      -0.48571751
H        7.40686876       5.97969260       8.61459066       0.22973372      -0.11972939      -0.10097118       0.12879619      -0.42997830       0.01941277
H        7.89435595       5.72246553       6.92247413       0.32643336       0.08816745       0.12670255      -0.04784043       0.20403091       0.56600559
H        7.49873568       7.30466613       7.55002779       0.16260026      -0.17213314       0.13369493       0.13432813       0.28136968      -0.24140294
H        5.28423414       5.19582279       3.34503632       0.07418623      -0.06753456      -0.15084981      -0.65981440      -0.50258748       0.89647933
H        4.06527102       4.65496084       5.07686310       0.34717418       0.12985260       0.20985206       1.13818938       0.30487535      -0.66691894
H        6.00299854       5.54900240       5.15467753      -0.09927159      -0.18418173       0.13551937      -0.48933802      -0.41855123       0.26767364
N        7.81416594       6.34949799       7.74747176      -1.54082369       0.43973986      -0.37369744      -0.24676542      -0.05708161      -0.35886346
8
Lattice="11.959318332542402 0.0 0.0 0.0 11.959318332542402 0.0 0.0 0.0 11.959318332542402" Properties=species:S:1:pos:R:3:momenta:R:3:forces:R:3 energy=-438.26082125144 free_energy=-438.26082125144 stress="0.00077117365823494 0.00039985866910113 -0.00063568266699319 0.00039985866910113 -0.00043638048618686 0.0001006149984084 -0.00063568266699319 0.0001006149984084 0.0008310617372385" pbc="T T T"
B        5.07441431       5.07496083       4.54903441       0.50164564      -0.08293738      -0.00982002       0.16704231       0.63288251      -0.71283370
H        7.40098789       5.97389188       8.61505392       0.23254770      -0.14177589      -0.09290730       0.02608159      -0.49145663       0.28668833
H        7.89294041       5.72750955       6.93467125       0.32361601       0.09470079       0.14822472      -0.00775459       0.08039946       0.33617776
H        7.48960426       7.29714356       7.56158261       0.16327185      -0.14086787       0.11804454      -0.08026672       0.95575546      -0.36959104
H        5.26992345       5.19248672       3.34426441       0.04109527      -0.09176564      -0.10214105      -0.67894835      -0.49781869       1.05700397
H        4.06637792       4.66217477       5.09166586       0.39461863       0.14149587       0.17739977       0.85792312       0.19530915      -0.61378365
H        5.98046386       5.54010247       5.16699261      -0.11887926      -0.20163900       0.14836615      -0.33556878      -0.32959314       0.28132662
N        7.79157842       6.35153709       7.75149288      -1.53817894       0.42277292      -0.38727175       0.07418875      -0.54665542      -0.26813790
8
Lattice="11.959024622142127 0.0 0.0 0.0 11.959024622142127 0.0 0.0 0.0 11.959024622142127" Properties=species:S:1:pos:R:3:momenta:R:3:forces:R:3 energy=-438.26682807862 free_energy=-438.26682807862 stress="0.00042350961317561 0.00036600123340874 -0.00054668659549772 0.00036600123340874 -0.00088114676871607 0.00012769605592769 -0.00054668659549772 0.00012769605592769 0.00061796920063413" pbc="T T T"
B        5.05866714       5.07382744       4.55271920       0.51127475      -0.05095585      -0.04959943       0.33911012       0.65063972      -0.90995987
H        7.39419555       5.96558239       8.61460628       0.23046124      -0.16594180      -0.07282909      -0.05701778      -0.52426485       0.50780882
H        7.89050902       5.73134855       6.94600573       0.32267821       0.09464237       0.15751207       0.04390961      -0.06061126       0.07574456
H        7.47932583       7.29057918       7.57059575       0.15391095      -0.07856277       0.09685503      -0.26254714       1.54806189      -0.46743943
H        5.25306367       5.18661268       3.34441834       0.00745774      -0.11528255      -0.04746876      -0.68024519      -0.48066430       1.14622849
H        4.06851560       4.66844544       5.10332436       0.42616333       0.14706570       0.14855295       0.51746786       0.06336097      -0.52248936
H        5.95624656       5.52909758       5.17831348      -0.13056257      -0.21431785       0.16181037      -0.16609834      -0.23249338       0.29797384
N        7.76812208       6.35210364       7.75384942      -1.52070273       0.38333396      -0.39489937       0.27691363      -0.96443681      -0.12803264
8
Lattice="11.958746157626578 0.0 0.0 0.0 11.958746157626578 0.0 0.0 0.0 11.958746157626578" Properties=species:S:1:pos:R:3:momenta:R:3:forces:R:3 energy=-438.2704261311 free_energy=-438.2704261311 stress="6.8438321857499e-05 0.0002947435430275 -0.00043340591303729 0.0002947435430275 -0.0012077868651608 0.0001255189080469 -0.00043340591303729 0.0001255189080469 0.00038428881789476" pbc="T T T"
B        5.04242624       5.07092749       4.55421160       0.52970421      -0.01821894      -0.09780310       0.53324609       0.67063143      -1.06447670
H        7.38664434       5.95415176       8.61341042       0.22489891      -0.19053248      -0.04390709      -0.11080103      -0.51478911       0.65182981
H        7.88753567       5.73310305       6.95548935       0.32431841       0.08768458       0.15382425       0.10121334      -0.20016482      -0.18896373
H        7.46781797       7.28583274       7.57647693       0.13714989       0.00749742       0.07220164      -0.37906176       1.93695878      -0.51430232
H        5.23401282       5.17770738       3.34533574      -0.02570500      -0.13753155       0.00944922      -0.66377837      -0.45191951       1.16104797
H        4.07121049       4.67291342       5.11170272       0.43954626       0.14569259       0.12514337       0.13083927      -0.08540882      -0.39763701
H        5.93110814       5.51568333       5.18831413      -0.13377142      -0.22206284       0.17592086       0.00971108      -0.13242500       0.31278601
N        7.74419230       6.35058504       7.75420503      -1.49612340       0.32747239      -0.39482676       0.35185592      -1.22278389       0.03973548
8
Lattice="11.958481521503087 0.0 0.0 0.0 11.958481521503087 0.0 0.0 0.0 11.958481521503087" Properties=species:S:1:pos:R:3:momenta:R:3:forces:R:3 energy=-438.27742758555 free_energy=-438.27742758555 stress="-0.00027023027842733 0.00018363503396582 -0.00030369800527232 0.00018363503396582 -0.0013546286649911 9.1955078291853e-05 -0.00030369800527232 9.1955078291853e-05 0.00015828698335574" pbc="T T T"
B        5.02612002       5.06598843       4.55330018       0.55808761       0.01532416      -0.15187220       0.73960824       0.69120734      -1.15902868
H        7.37860076       5.93935247       8.61162354       0.21772192      -0.21327980      -0.01046803      -0.13276759      -0.45412765       0.69873906
H        7.88455251       5.73216495       6.96231136       0.32895152       0.07452592       0.13784898       0.15726458      -0.31498053      -0.42564242
H        7.45520008       7.28353438       7.57894195       0.11705865       0.10486258       0.04694007      -0.41039066       2.02820167      -0.49759930
H        5.21321366       5.16556907       3.34685798      -0.05724887      -0.15799717       0.06489076      -0.62999177      -0.41273907       1.09948690
H        4.07392901       4.67494714       5.11692787       0.43347001       0.13681835       0.10859280      -0.28072453      -0.24255439      -0.24849686
H        5.90586403       5.49982444       5.19684786      -0.12824420      -0.22492871       0.19048828       0.18097769      -0.03500008       0.31985599
N        7.72018720       6.34666169       7.75241022      -1.47045735       0.26468498      -0.38644485       0.37681314      -1.26243579       0.20916227
8
Lattice="11.958227687921116 0.0 0.0 0.0 11.958227687921116 0.0 0.0 0.0 11.958227687921116" Properties=species:S:1:pos:R:3:momenta:R:3:forces:R:3 energy=-438.28902350565 free_energy=-438.28902350565 stress="-0.00056869233672086 3.9696554674908e-05 -0.00016838996148609 3.9696554674908e-05 -0.0012930252587121 3.3088415398121e-05 -0.00016838996148609 3.3088415398121e-05 -3.6876858337177e-05" pbc="T T T"
B        5.01021955       5.05910398       4.54999326       0.59624115       0.04958865      -0.20823970       0.94032003       0.70740331      -1.17159365
H        7.37043862       5.92142697       8.60937652       0.21020712      -0.23159414       0.02262311      -0.12587832      -0.34103809       0.64504738
H        7.88211607       5.72835310       6.96593729       0.33601517       0.05701074       0.11185995       0.20376875      -0.38069363      -0.60054464
H        7.44182745       7.28396505       7.57806524       0.09758368       0.19817469       0.02418114      -0.35852125       1.79481017      -0.41866401
H        5.19118195       5.15038831       3.34885117      -0.08654536      -0.17617948       0.11510944      -0.57966182      -0.36463947       0.96072181
H        4.07611162       4.67426264       5.11938918       0.40727259       0.12034957       0.09968734      -0.68769852      -0.39625553      -0.09019514
H        5.88134916       5.48184628       5.20395499      -0.11470057      -0.22315740       0.20496975       0.33676946       0.05438041       0.31293382
N        7.69653175       6.34041778       7.74852154      -1.44578443       0.20574880      -0.37029085       0.29879112      -1.07724271       0.35984326
8
Lattice="11.95798051263179 0.0 0.0 0.0 11.95798051263179 0.0 0.0 0.0 11.95798051263179" Properties=species:S:1:pos:R:3:momenta:R:3:forces:R:3 energy=-438.3027009871 free_energy=-438.3027009871 stress="-0.00081308724569979 -0.00012099970246194 -4.0501739590907e-05 -0.00012099970246194 -0.0010359543888592 -3.9029227362355e-05 -4.0501739590907e-05 -3.9029227362355e-05 -0.00018617335414085" pbc="T T T"
B        4.99521029       5.05075146       4.54453132       0.64287804       0.08413746      -0.26219483       1.11051353       0.71108370      -1.07735603
H        7.36260682       5.90113015       8.60677108       0.20335068      -0.24303812       0.05074068      -0.09606789      -0.18251875       0.50438986
H        7.88076164       5.72198942       6.96619528       0.34449203       0.03802790       0.07956702       0.22901503      -0.37848956      -0.68713920
H        7.42826162       7.28701055       7.57428261       0.08203772       0.27275664       0.00658668      -0.24493224       1.28990668      -0.29245569
H        5.16848136       5.13276336       3.35120944      -0.11300413      -0.19165096       0.15633182      -0.51425198      -0.30954544       0.74618575
H        4.07721888       4.67096997       5.11970790       0.36189416       0.09684033       0.09829356      -1.05405975      -0.53194135       0.05663302
H        5.85836791       5.46244101       5.20985305      -0.09436563      -0.21722595       0.21847865       0.46733378       0.13121990       0.28630113
N        7.67365662       6.33236021       7.74280508      -1.42672142       0.16008939      -0.34784254       0.09111086      -0.73191895       0.46259355
8
Lattice="11.957735548134465 0.0 0.0 0.0 11.957735548134465 0.0 0.0 0.0 11.957735548134465" Properties=species:S:1:pos:R:3:momenta:R:3:forces:R:3 energy=-438.31233654559 free_energy=-438.31233654559 stress="-0.00099070696882846 -0.00027844730956284 6.6495306565949e-05 -0.00027844730956284 -0.00063265910285181 -0.00011042818847264 6.6495306565949e-05 -0.00011042818847264 -0.00028437408048362" pbc="T T T"
B        4.98153140       5.04170681       4.53737397       0.69603346       0.11808750      -0.30795356       1.22365996       0.69288920      -0.85471246
H        7.35558045       5.87962514       8.60389487       0.19830037      -0.24577254       0.07025458      -0.05378150       0.00714357       0.30352978
H        7.88094716       5.71386019       6.96332158       0.35336743       0.02111006       0.04564964       0.22366986      -0.30108990      -0.67349558
H        7.41518285       7.29220969       7.56833603       0.07289979       0.31799251      -0.00412278      -0.10306740       0.62316707      -0.14193481
H        5.14568570       5.11361029       3.35384068      -0.13564953      -0.20414123       0.18497129      -0.43624694      -0.24988510       0.46152892
H        4.07678838       4.66552586       5.11867003       0.30064346       0.06758236       0.10322653      -1.34291758      -0.63448025       0.16888720
H        5.83763561       5.44257071       5.21490616      -0.06842931      -0.20786355       0.22991359       0.56479060       0.19230930       0.23559151
N        7.65193451       6.32332487       7.73571411      -1.41767875       0.13294376      -0.32197621      -0.10825207      -0.33603820       0.49388736
8
Lattice="11.957488719219716 0.0 0.0 0.0 11.957488719219716 0.0 0.0 0.0 11.957488719219716" Properties=species:S:1:pos:R:3:momenta:R:3:forces:R:3 energy=-438.31127558799 free_energy=-438.31127558799 stress="-0.0010878415555186 -0.00041448617269892 0.0001411528087793 -0.00041448617269892 -0.00014929436420928 -0.00017002550048525 0.0001411528087793 -0.00017002550048525 -0.00033215694675953" pbc="T T T"
B        4.96954122       5.03288662       4.52915916       0.75254857       0.15017797      -0.33899199       1.25758887       0.64449433      -0.49306682
H        7.34980393       5.85829035       8.60084745       0.19557482      -0.23880347       0.07911755      -0.01053875       0.20992767       0.07434675
H        7.88299840       5.70507764       6.95794580       0.36122666       0.00981157       0.01498183       0.18416851      -0.15393819      -0.56374641
H        7.40327643       7.29887271       7.56117543       0.07091723       0.32919635      -0.00731293       0.03524158      -0.08357943       0.01005426
H        5.12333357       5.09399947       3.35664127      -0.15387863      -0.21354000       0.19801487      -0.34921930      -0.18862033       0.11893133
H        4.07449032       4.65861601       5.11712881       0.22840699       0.03460397       0.11227848      -1.52386797      -0.69110938       0.22584728
H        5.81972123       5.42330228       5.21957482      -0.03859478      -0.19594146       0.23812556       0.62448884       0.23611379       0.15883204
N        7.63166354       6.31430207       7.72783958      -1.41681607       0.12431142      -0.29641024      -0.19624526       0.02409464       0.46484108
8
Lattice="11.957236668395312 0.0 0.0 0.0 11.957236668395312 0.0 0.0 0.0 11.957236668395312" Properties=species:S:1:pos:R:3:momenta:R:3:forces:R:3 energy=-438.29753899002 free_energy=-438.29753899002 stress="-0.001099913973171 -0.00051603183042083 0.00017703856147926 -0.00051603183042083 0.0003471946112214 -0.00021240868185868 0.00017703856147926 -0.00021240868185868 -0.0003345235035832" pbc="T T T"
B        4.95950133       5.02518492       4.52065175       0.80819062       0.17887383      -0.34896174       1.20034758       0.56118508      -0.00144391
H        7.34563263       5.83851098       8.59776215       0.19472276      -0.22212123       0.07679361       0.02552010       0.40719205      -0.15093342
H        7.88707016       5.69690320       6.95102415       0.36624348       0.00707607      -0.00823805       0.11219779       0.04443020      -0.37882203
H        7.39312321       7.30621485       7.55384896       0.07501561       0.30721333      -0.00338655       0.14939009      -0.72928046       0.14658739
H        5.10188480       5.07498314       3.35947452      -0.16780818      -0.21996881       0.19331418      -0.25794330      -0.12904282      -0.26040829
H        4.07016651       4.65102182       5.11590326       0.15075017       0.00038831       0.12243285      -1.57964081      -0.69432408       0.21436693
H        5.80500524       5.40563957       5.22436016      -0.00712611      -0.18241402       0.24198733       0.64600246       0.26305544       0.05725622
N        7.61307607       6.30625863       7.71985748      -1.41916798       0.13091172      -0.27397178      -0.26248283       0.27902222       0.37542816
8
Lattice="11.956977033026286 0.0 0.0 0.0 11.956977033026286 0.0 0.0 0.0 11.956977033026286" Properties=species:S:1:pos:R:3:momenta:R:3:forces:R:3 energy=-438.27553162714 free_energy=-438.27553162714 stress="-0.0010352198003218 -0.00057677566947939 0.00017322189762888 -0.00057677566947939 0.00079852255777925 -0.000237571882993 0.00017322189762888 -0.000237571882993 -0.00029905426184392" pbc="T T T"
B        4.95154000       5.01934487       4.51267796       0.85898567       0.20257972      -0.33271975       1.05476658       0.44367035       0.58583928
H        7.34329091       5.82150496       8.59481873       0.19528970      -0.19661551       0.06420265       0.04921212       0.58266141      -0.34520025
H        7.89313311       5.69057279       6.94372101       0.36716774       0.01467203      -0.02121196       0.01450902       0.26707573      -0.15061372
H        7.38512775       7.31347041       7.54739730       0.08370006       0.25701220       0.00655702       0.22943351      -1.24754753       0.25784311
H        5.08168499       5.05745700       3.36215830      -0.17756490      -0.22377035       0.17001382      -0.16820975      -0.07418584      -0.64487066
H        4.06384392       4.64350662       5.11568364       0.07382180      -0.03248443       0.13031128      -1.51068242      -0.64390240       0.13306212
H        5.79365899       5.39039558       5.22974386       0.02412542      -0.16820059       0.24050519       0.63269362       0.27527784      -0.06473453
N        7.59629969       6.30000044       7.71246818      -1.42491788       0.14684351      -0.25762525      -0.30541344       0.39825213       0.22862215
8
Lattice="11.956708634581029 0.0 0.0 0.0 11.956708634581029 0.0 0.0 0.0 11.956708634581029" Properties=species:S:1:pos:R:3:momenta:R:3:forces:R:3 energy=-438.25135730707 free_energy=-438.25135730707 stress="-0.00090690116371987 -0.00059581137639987 0.00013503266560706 -0.00059581137639987 0.0011605925739934 -0.00024771278588829 0.00013503266560706 -0.00024771278588829 -0.00023121896109233" pbc="T T T"
B        4.94563162       5.01588207       4.50604596       0.90194214       0.21997033      -0.28727536       0.83842851       0.29817815       1.21029974
H        7.34285674       5.80821302       8.59223883       0.19703955      -0.16375925       0.04347189       0.05742916       0.72354890      -0.48852959
H        7.90098666       5.68715906       6.93726388       0.36357942       0.03308091      -0.02271197      -0.09811488       0.48569401       0.08668469
H        7.37949325       7.31997005       7.54276369       0.09561248       0.18597195       0.02118962       0.27267519      -1.60291325       0.33945880
H        5.06294845       5.04207914       3.36446981      -0.18314988      -0.22534136       0.12906566      -0.08591448      -0.02618805      -0.99365182
H        4.05572197       4.63673858       5.11696152       0.00356874      -0.06160994       0.13288790      -1.33464048      -0.54696885      -0.00702029
H        5.78565283       5.37812531       5.23612999       0.05401773      -0.15398834       0.23303404       0.59047538       0.27589856      -0.20039702
N        7.58132506       6.29608985       7.70632458      -1.43300181       0.16570251      -0.24966849      -0.27185553       0.39549509       0.05481447
8
Lattice="11.956431353052894 0.0 0.0 0.0 11.956431353052894 0.0 0.0 0.0 11.956431353052894" Properties=species:S:1:pos:R:3:momenta:R:3:forces:R:3 energy=-438.23133538563 free_energy=-438.23133538563 stress="-0.00073162908983477 -0.00057602408219661 7.2454010812733e-05 -0.00057602408219661 0.0014025396884401 -0.00024490629721154 7.2454010812733e-05 -0.00024490629721154 -0.00013418323316086" pbc="T T T"
B        4.94162631       5.01505982       4.50146791       0.93470708       0.23004883      -0.21272030       0.57750118       0.13404271       1.79833823
H        7.34426663       5.79924677       8.59026263       0.19931925      -0.12546400       0.01742904       0.04919514       0.82089350      -0.56814222
H        7.91029352       5.68747870       6.93279506       0.35524767       0.06149517      -0.01311548      -0.21259096       0.67548948       0.30259203
H        7.37622979       7.32518650       7.54071800       0.10910031       0.10244849       0.03905347       0.28046487      -1.78025562       0.39043128
H        5.04576009       5.02924084       3.36616873      -0.18506125      -0.22510854       0.07335140      -0.01569538       0.01436222      -1.26166505
H        4.04613783       4.63124485       5.11998768      -0.05562367      -0.08512174       0.12784114      -1.08065919      -0.41581664      -0.18584322
H        5.78078586       5.36910926       5.24379002       0.08149427      -0.14025895       0.21918558       0.52700279       0.26848357      -0.34138766
N        7.56804083       6.29482133       7.70197077      -1.44000864       0.18204958      -0.25094245      -0.15018126       0.28860413      -0.12739669
8
Lattice="11.956145946570565 0.0 0.0 0.0 11.956145946570565 0.0 0.0 0.0 11.956145946570565" Properties=species:S:1:pos:R:3:momenta:R:3:forces:R:3 energy=-438.22072330236 free_energy=-438.22072330236 stress="-0.00052857751049699 -0.0005224067855404 -1.9346746965743e-06 -0.0005224067855404 0.0015045839542144 -0.00022990404063695 -1.9346746965743e-06 -0.00022990404063695 -1.0968153022105e-05" pbc="T T T"
B        4.93928861       5.01689221       4.49948179       0.95559349       0.23214544      -0.11251402       0.29892823      -0.03928483       2.27631781
H        7.34733370       5.79487375       8.58911243       0.20113907      -0.08390175      -0.01071966       0.02530717       0.86921869      -0.57754187
H        7.92062561       5.69203557       6.93123709       0.34216561       0.09805813       0.00589747      -0.31574875       0.81765212       0.47346261
H        7.37518091       7.32876168       7.54179101       0.12234327       0.01505787       0.05866952       0.25598350      -1.77509972       0.41142770
H        5.03009274       5.01907098       3.36703352      -0.18411524      -0.22339084       0.00767661       0.04029227       0.04883982      -1.40813507
H        4.03552033       4.62738426       5.12475202      -0.10115313      -0.10179398       0.11381870      -0.78195152      -0.26485746      -0.37974701
H        5.77872726       5.36336622       5.25281223       0.10563098      -0.12726609       0.19883943       0.45073065       0.25659279      -0.47870573
N        7.55627512       6.29622661       7.69978318      -1.44194781       0.19125146      -0.26145736       0.02870302       0.09342788      -0.30798818
8
Lattice="11.955853890195417 0.0 0.0 0.0 11.955853890195417 0.0 0.0 0.0 11.955853890195417" Properties=species:S:1:pos:R:3:momenta:R:3:forces:R:3 energy=-438.22195771726 free_energy=-438.22195771726 stress="-0.00031773519061293 -0.00044073323767029 -7.4606617877207e-05 -0.00044073323767029 0.0014567848142982 -0.00020223263446668 -7.4606617877207e-05 -0.00020223263446668 0.0001324548577121" pbc="T T T"
B        4.93832674       5.02115522       4.50037940       0.96355708       0.22587525       0.00685574       0.02464301      -0.21420721       2.58708053
H        7.35176945       5.79501744       8.58895190       0.20147820      -0.04134033      -0.03759610      -0.01208153       0.86606264      -0.51533406
H        7.93151148       5.70098581       6.93318350       0.32473096       0.14017256       0.03176210      -0.39583275       0.89945503       0.58263997
H        7.37605276       7.33052591       7.54621980       0.13363462      -0.06756150       0.07862897       0.20323826      -1.58822092       0.40393906
H        5.01583298       5.01145596       3.36690199      -0.18104727      -0.22025624      -0.06152048       0.08302586       0.08034940      -1.40689889
H        4.02434241       4.62532798       5.13098085      -0.13186710      -0.11098651       0.09053656      -0.46964862      -0.10792417      -0.56639787
H        5.77905846       5.36067513       5.26306224       0.12583450      -0.11502402       0.17221367       0.36985818       0.24333029      -0.60378871
N        7.54582109       6.30008676       7.69991668      -1.43597479       0.18926540      -0.28068198       0.22096858      -0.17414590      -0.47390765
8
Lattice="11.955557229315108 0.0 0.0 0.0 11.955557229315108 0.0 0.0 0.0 11.955557229315108" Properties=species:S:1:pos:R:3:momenta:R:3:forces:R:3 energy=-438.23310164288 free_energy=-438.23310164288 stress="-0.00011727732076092 -0.00033710474734961 -0.00013271774371677 -0.00033710474734961 0.0012608480662389 -0.00016175306373555 -0.00013271774371677 -0.00016175306373555 0.00028566002290414" pbc="T T T"
B        4.93840908       5.02739716       4.50415339       0.95827370       0.21109573       0.13668056      -0.23079063      -0.38524856       2.70206035
H        7.35720691       5.79925715       8.58985623       0.19955189      -0.00018973      -0.05972329      -0.05954858       0.81251005      -0.38578735
H        7.94248214       5.71411109       6.93881808       0.30399210       0.18462762       0.06120603      -0.44343600       0.91413381       0.62019172
H        7.37844183       7.33051745       7.55390976       0.14158507      -0.13666535       0.09757764       0.12727531      -1.22722765       0.37066877
H        5.00280713       5.00605999       3.36570100      -0.17625466      -0.21552734      -0.12692333       0.11621325       0.11267288      -1.25436861
H        4.01307508       4.62503978       5.13815090      -0.14767496      -0.11259157       0.05870190      -0.16917005       0.04331442      -0.72796383
H        5.78130861       5.36059254       5.27416372       0.14196346      -0.10339169       0.13991394       0.29148832       0.23108124      -0.70942096
N        7.53644343       6.30594339       7.70226674      -1.42072999       0.17273575      -0.30730473       0.39968047      -0.49893485      -0.61040830
8
Lattice="11.955258371759559 0.0 0.0 0.0 11.955258371759559 0.0 0.0 0.0 11.955258371759559" Properties=species:S:1:pos:R:3:momenta:R:3:forces:R:3 energy=-438.2480267411 free_energy=-438.2480267411 stress="5.8043910463472e-05 -0.00021779348630334 -0.00016535112846824 -0.00021779348630334 0.00093167179866836 -0.00011031249191255 -0.00016535112846824 -0.00011031249191255 0.0004332946660712" pbc="T T T"
B        4.93917972       5.03496198       4.51048798       0.94024252       0.18795019       0.26731899      -0.45942744      -0.54843127       2.62460205
H        7.36322717       5.80684895       8.59179781       0.19493401       0.03723707      -0.07400449      -0.11296967       0.71305008      -0.19821539
H        7.95311343       5.73082313       6.94788917       0.28157339       0.22797169       0.09060495      -0.45095994       0.85963600       0.58158579
H        7.38186342       7.32898888       7.56443803       0.14523477      -0.18411665       0.11431133       0.03457158      -0.71105686       0.31613770
H        4.99080334       5.00235260       3.36346056      -0.16986028      -0.20892052      -0.18149845       0.14491971       0.14893135      -0.97093097
H        4.00214495       4.62626949       5.14553332      -0.14941148      -0.10701901       0.01981475       0.10098816       0.18018106      -0.85239193
H        5.78498610       5.36247677       5.28551840       0.15424768      -0.09219938       0.10293400       0.22107509       0.22140122      -0.79039681
N        7.52788283       6.31312322       7.70647047      -1.39626455       0.13913906      -0.33940270       0.54817276      -0.86355180      -0.70725369
8
Lattice="11.954959846779431 0.0 0.0 0.0 11.954959846779431 0.0 0.0 0.0 11.954959846779431" Properties=species:S:1:pos:R:3:momenta:R:3:forces:R:3 energy=-438.25879567198 free_energy=-438.25879567198 stress="0.00019755810643691 -8.994095853074e-05 -0.00016513973034423 -8.994095853074e-05 0.00050147518045174 -5.3131644474099e-05 -0.00016513973034423 -5.3131644474099e-05 0.00055887764318868" pbc="T T T"
B        4.94027207       5.04302364       4.51879307       0.91083843       0.15692400       0.38975957      -0.65759279      -0.70008058       2.38379202
H        7.36938338       5.81676330       8.59466035       0.18749636       0.06880853      -0.07793519      -0.16749694       0.57646419       0.03169216
H        7.96306478       5.75019024       6.95972864       0.25965557       0.26676091       0.11616272      -0.41333223       0.73889170       0.46804364
H        7.38577885       7.32639884       7.57709799       0.14401143      -0.20315171       0.12791528      -0.06597839      -0.07980195       0.24794563
H        4.97958770       4.99964202       3.36029950      -0.16187225      -0.20019030      -0.21964148       0.17381334       0.19049455      -0.59512791
H        3.99189507       4.62856101       5.15226081      -0.13875153      -0.09510957      -0.02408084       0.32879735       0.29680283      -0.93306151
H        5.78960391       5.36552034       5.29635888       0.16321321      -0.08130616       0.06260048       0.16231039       0.21510147      -0.84371080
N        7.51985912       6.32077446       7.71194208      -1.36416188       0.08726208      -0.37472947       0.65248588      -1.23923189      -0.75776310
8
Lattice="11.954663975391258 0.0 0.0 0.0 11.954663975391258 0.0 0.0 0.0 11.954663975391258" Properties=species:S:1:pos:R:3:momenta:R:3:forces:R:3 energy=-438.25948772498 free_energy=-438.25948772498 stress="0.00029448679484692 3.8095535974866e-05 -0.00012910742835034 3.8095535974866e-05 2.1689062762032e-05 1.2348875921154e-06 -0.00012910742835034 1.2348875921154e-06 0.00064976006059538" pbc="T T T"
B        4.94132097       5.05064916       4.52828216       0.87208328       0.11880690       0.49694674      -0.82321531      -0.83621750       2.02246953
H        7.37522534       5.82776997       8.59826722       0.17746097       0.09299374      -0.07001995      -0.21777698       0.41601264       0.28166260
H        7.97210586       5.77101359       6.97332919       0.24069893       0.29797204       0.13437848      -0.32878416       0.56015623       0.28713315
H        7.38962849       7.32336758       7.59099179       0.13792908      -0.18989167       0.13801164      -0.16290698       0.59717564       0.17719047
H        4.96891791       4.99713419       3.35639676      -0.15223049      -0.18919035      -0.23798221       0.20589950       0.23672505      -0.17324887
H        3.98255811       4.63129640       5.15741504      -0.11797773      -0.07801221      -0.07069850       0.50722168       0.38965423      -0.96755576
H        5.79470046       5.36881103       5.30582942       0.16958511      -0.07059679       0.02039572       0.11718083       0.21235490      -0.86847273
N        7.51207482       6.32793379       7.71794398      -1.32750077       0.01787929      -0.41099737       0.69929723      -1.57803822      -0.75841801
8
Lattice="11.954372503538877 0.0 0.0 0.0 11.954372503538877 0.0 0.0 0.0 11.954372503538877" Properties=species:S:1:pos:R:3:momenta:R:3:forces:R:3 energy=-438.24952973737 free_energy=-438.24952973737 stress="0.00034560809887288 0.00015681186706626 -5.9117508489794e-05 0.00015681186706626 -0.00043969988995313 4.2711539453896e-05 -5.9117508489794e-05 4.2711539453896e-05 0.00070156928238414" pbc="T T T"
B        4.94197184       5.05689036       4.53807003       0.82631225       0.07460501       0.58430416      -0.95403448      -0.95247369       1.58529303
H        7.38032094       5.83856452       8.60241266       0.16532979       0.10908604      -0.05004765      -0.25834660       0.24884617       0.52351938
H        7.98012871       5.79194494       6.98745326       0.22713470       0.31928847       0.14239917      -0.20048208       0.33790737       0.05409755
H        7.39286798       7.32059513       7.60514655       0.12761062      -0.14473032       0.14488995      -0.24345259       1.22093562       0.11728757
H        4.95855490       4.99401969       3.35195984      -0.14085054      -0.17589466      -0.23551694       0.24215058       0.28544079       0.25078507
H        3.97424380       4.63377738       5.16011577      -0.08971003      -0.05702736      -0.11776697       0.63252925       0.45683086      -0.95619410
H        5.79985357       5.37142275       5.31307285       0.17418133      -0.05996791      -0.02223310       0.08619691       0.21286303      -0.86555756
N        7.50421926       6.33362532       7.72367328      -1.29033164      -0.06542417      -0.44601221       0.67807702      -1.81282064      -0.70963891
8
Lattice="11.95408626456006 0.0 0.0 0.0 11.95408626456006 0.0 0.0 0.0 11.95408626456006" Properties=species:S:1:pos:R:3:momenta:R:3:forces:R:3 energy=-438.23440028171 free_energy=-438.23440028171 stress="0.0003511150584577 0.00025634608722239 3.8089487363917e-05 0.00025634608722239 -0.00080825884592079 6.3090649691079e-05 3.8089487363917e-05 6.3090649691079e-05 0.00072010997487081" pbc="T T T"
B        4.94189008       5.06090331       4.54727029       0.77589226       0.02546080       0.64953908      -1.04680850      -1.04439930       1.11116481
H        7.38427606       5.84793050       8.60688174       0.15180929       0.11732263      -0.01925696      -0.28427184       0.09425750       0.72556157
H        7.98714598       5.81164339       7.00075811       0.22099939       0.32934399       0.13839041      -0.03858799       0.09340555      -0.20662506
H        7.39500589       7.31874484       7.61863411       0.11421917      -0.07323704       0.14949487      -0.29652291       1.67825436       0.08049866
H        4.94827383       4.98958824       3.34720453      -0.12765215      -0.16038202      -0.21322088       0.28188946       0.33371840       0.64173233
H        3.96694028       4.63534142       5.15960179      -0.05668724      -0.03348628      -0.16316672       0.70285821       0.49742466      -0.90081529
H        5.80469029       5.37253462       5.31731080       0.17779995      -0.04931838      -0.06400190       0.06864537       0.21598872      -0.83719700
N        7.49597611       6.33699043       7.72834776      -1.25697185      -0.15578369      -0.47779207       0.58681067      -1.87145866      -0.61639623
8
Lattice="11.953804973989577 0.0 0.0 0.0 11.953804973989577 0.0 0.0 0.0 11.953804973989577" Properties=species:S:1:pos:R:3:momenta:R:3:forces:R:3 energy=-438.22277996184 free_energy=-438.22277996184 stress="0.00031480184550287 0.00032776290242215 0.00015133711186208 0.00032776290242215 -0.0010203998224256 5.9764956280109e-05 0.00015133711186208 5.9764956280109e-05 0.00071989874400574" pbc="T T T"
B        4.94077523       5.06207886       4.55507891       0.72299830      -0.02738408       0.69199584      -1.09731278      -1.10785449       0.63062474
H        7.38675651       5.85491477       8.61145334       0.13772618       0.11885829       0.01965230      -0.29196553      -0.02936062       0.85702444
H        7.99327666       5.82895272       7.01192707       0.22350270       0.32789123       0.12191348       0.13810287      -0.14598568      -0.46113381
H        7.39564086       7.31831208       7.63067359       0.09925597       0.01407303       0.15319289      -0.31638322       1.87355046       0.07312565
H        4.93787986       4.98335601       3.34235164      -0.11256709      -0.14279076      -0.17341986       0.32347377       0.37860672       0.97490753
H        3.96052831       4.63549290       5.15529932      -0.02164300      -0.00868743      -0.20493548       0.71732465       0.51112052      -0.80405095
H        5.80889682       5.37156143       5.31791008       0.18110371      -0.03854473      -0.10382934       0.06280891       0.22084968      -0.78662995
N        7.48703982       6.33742972       7.73128044      -1.23105627      -0.24351456      -0.50463150       0.43848202      -1.70516236      -0.48814272
8
Lattice="11.953527254061832 0.0 0.0 0.0 11.953527254061832 0.0 0.0 0.0 11.953527254061832" Properties=species:S:1:pos:R:3:momenta:R:3:forces:R:3 energy=-438.22161515023 free_energy=-438.22161515023 stress="0.00024428191441569 0.00036432416424458 0.00026622028482321 0.00036432416424458 -0.0010420439597033 3.7788716396861e-05 0.00026622028482321 3.7788716396861e-05 0.00071971256424878" pbc="T T T"
B        4.93838548       5.06015348       4.56083920       0.66948092      -0.08255412       0.71188773      -1.10087291      -1.13937702       0.16662412
H        7.38751707       5.85897791       8.61588935       0.12389003       0.11554042       0.06269934      -0.27997450      -0.10827206       0.89408451
H        7.99871983       5.84306603       7.01980539       0.23459284       0.31587226       0.09422509       0.30252817      -0.34970179      -0.66886162
H        7.39449685       7.31951274       7.64070219       0.08419298       0.10346981       0.15733103      -0.30491312       1.76473662       0.09219883
H        4.92723372       4.97517443       3.33763790      -0.09554590      -0.12327518      -0.11922150       0.36490613       0.41754233       1.23490208
H        3.95480742       4.63401452       5.14687990       0.01270670       0.01611574      -0.24116967       0.67577117       0.49810606      -0.66913429
H        5.81223384       5.36826365       5.31443618       0.18452248      -0.02755112      -0.14078754       0.06614906       0.22636264      -0.71784315
N        7.47714640       6.33472172       7.73193910      -1.21436853      -0.31776537      -0.52508219       0.26304985      -1.31698299      -0.33839706
8
Lattice="11.953250922435295 0.0 0.0 0.0 11.953250922435295 0.0 0.0 0.0 11.953250922435295" Properties=species:S:1:pos:R:3:momenta:R:3:forces:R:3 energy=-438.23231280028 free_energy=-438.23231280028 stress="0.00015065661532242 0.00036248203388326 0.00036746477190968 0.00036248203388326 -0.00087975842708829 8.6536619373031e-06 0.00036746477190968 8.6536619373031e-06 0.00073599075984813" pbc="T T T"
B        4.93457407       5.05526338       4.56409073       0.61701083      -0.13843906       0.70990018      -1.05339650      -1.13654113      -0.26320342
H        7.38643738       5.86007575       8.61992118       0.11104736       0.10960920       0.10501776      -0.24941880      -0.13692799       0.82626614
H        8.00372044       5.85364120       7.02353936       0.25264339       0.29544114       0.05847326       0.42335253      -0.49011733      -0.79008079
H        7.39145199       7.32223102       7.64840922       0.07019818       0.18084065       0.16280603      -0.27066512       1.38182914       0.12633657
H        4.91628598       4.96528066       3.33332974      -0.07659724      -0.10202848      -0.05423691       0.40423233       0.44848779       1.41303619
H        3.94953048       4.63101990       5.13430819       0.04362477       0.03967210      -0.26996034       0.57923380       0.45921863      -0.50016323
H        5.81456131       5.36279853       5.30669566       0.18820840      -0.01628281      -0.17404609       0.07546545       0.23130425      -0.63536850
N        7.46611846       6.32907632       7.72999160      -1.20624690      -0.36904026      -0.53810849       0.10182071      -0.76730469      -0.18290976
8
Lattice="11.952973495150061 0.0 0.0 0.0 11.952973495150061 0.0 0.0 0.0 11.952973495150061" Properties=species:S:1:pos:R:3:momenta:R:3:forces:R:3 energy=-438.25046091962 free_energy=-438.25046091962 stress="4.7158113749979e-05 0.00032259213896459 0.00044200729106164 0.00032259213896459 -0.00057660198877348 -1.4150358575333e-05 0.00044200729106164 -1.4150358575333e-05 0.00077688917318416" pbc="T T T"
B        4.92933034       5.04791578       4.56460126       0.56748712      -0.19320939       0.68737854      -0.95284334      -1.09848948      -0.64392278
H        7.38356111       5.85864154       8.62324944       0.09985489       0.10332621       0.14152551      -0.20373496      -0.11913131       0.65960296
H        8.00853231       5.86083550       7.02270133       0.27452491       0.26982985       0.01951528       0.47219910      -0.54992013      -0.79623837
H        7.38656065       7.32605175       7.65373556       0.05798537       0.23476544       0.16982862      -0.22487007       0.81361668       0.16082425
H        4.90511018       4.95426056       3.32972406      -0.05586028      -0.07937820       0.01745764       0.43973843       0.46993131       1.50483179
H        3.94444118       4.62692174       5.11786601       0.06838234       0.06072204      -0.28952407       0.43101043       0.39636966      -0.30261780
H        5.81586932       5.35568586       5.29475936       0.19212274      -0.00477706      -0.20289107       0.08707485       0.23439928      -0.54401959
N        7.45391216       6.32109506       7.72533209      -1.20399599      -0.39150513      -0.54339115      -0.01675208      -0.15123952      -0.03850125
8
Lattice="11.952692736407164 0.0 0.0 0.0 11.952692736407164 0.0 0.0 0.0 11.952692736407164" Properties=species:S:1:pos:R:3:momenta:R:3:forces:R:3 energy=-438.26898092195 free_energy=-438.26898092195 stress="-5.4147005846165e-05 0.00024935565606037 0.00048206114818109 0.00024935565606037 -0.000196783446275 -2.0183815502422e-05 0.00048206114818109 -2.0183815502422e-05 0.00083760231476914" pbc="T T T"
B        4.92280913       5.03888550       4.56237767       0.52330533      -0.24502023       0.64679318      -0.80081329      -1.02648227      -0.96131446
H        7.37912065       5.85547559       8.62555978       0.09088630       0.09861273       0.16773930      -0.14790970      -0.06693349       0.41622682
H        8.01338315       5.86525305       7.01737018       0.29613749       0.24292945      -0.01678007       0.43308287      -0.52794830      -0.68009691
H        7.38005826       7.33036306       7.65684706       0.04784634       0.25865460       0.17800235      -0.17742452       0.17280354       0.18338996
H        4.89392389       4.94293435       3.32713295      -0.03358464      -0.05585701       0.09141171       0.47001333       0.48081997       1.50817661
H        3.93930959       4.62232967       5.09813958       0.08451724       0.07807873      -0.29850481       0.23791836       0.31311734      -0.08386466
H        5.81630264       5.34769742       5.27895406       0.19617693       0.00679002      -0.22689571       0.09714367       0.23439231      -0.44849081
N        7.44064825       6.31165024       7.71808295      -1.20452034      -0.38425613      -0.54173531      -0.09231597       0.42044207       0.06877392
8
Lattice="11.95240714766651 0.0 0.0 0.0 11.95240714766651 0.0 0.0 0.0 11.95240714766651" Properties=species:S:1:pos:R:3:momenta:R:3:forces:R:3 energy=-438.28174321572 free_energy=-438.28174321572 stress="-0.00014377483764386 0.00015157844209487 0.00048644524293679 0.00015157844209487 0.00019305894440883 -5.3353169851892e-06 0.00048644524293679 -5.3353169851892e-06 0.00090054437869737" pbc="T T T"
B        4.91533126       5.02906866       4.55764522       0.48717524      -0.29221839       0.59183315      -0.60374407      -0.92419852      -1.20067083
H        7.37353432       5.85157452       8.62655580       0.08467900       0.09675861       0.18065018      -0.08776698       0.00296192       0.12857757
H        8.01845010       5.86781190       7.00812543       0.31335076       0.21848824      -0.04472521       0.30799605      -0.43898739      -0.45850780
H        7.37234547       7.33449158       7.65808476       0.03986919       0.25140342       0.18657984      -0.13538505      -0.43937188       0.18716340
H        4.88308899       4.93220610       3.32585135      -0.00997422      -0.03208749       0.16307818       0.49389090       0.48046340       1.42208193
H        3.93395705       4.61791556       5.07596780       0.09022720       0.09082928      -0.29612394       0.01141485       0.21504748       0.14650995
H        5.81616349       5.33970876       5.25982106       0.20037165       0.01819203      -0.24593407       0.10196995       0.23012828      -0.35303575
N        7.42660943       6.30172023       7.70856388      -1.20544030      -0.35136282      -0.53530766      -0.09949481       0.87480565       0.13040520
8
Lattice="11.952116255422338 0.0 0.0 0.0 11.952116255422338 0.0 0.0 0.0 11.952116255422338" Properties=species:S:1:pos:R:3:momenta:R:3:forces:R:3 energy=-438.28517968137 free_energy=-438.28517968137 stress="-0.00021410512384939 4.1618408036021e-05 0.00046006436035463 4.1618408036021e-05 0.00053815976749975 2.8218468147971e-05 0.00046006436035463 2.8218468147971e-05 0.0009404089006407" pbc="T T T"
B        4.90736113       5.01934546       4.55080788       0.46146172      -0.33349840       0.52717923      -0.37435702      -0.79811571      -1.34690775
H        7.36737242       5.84795818       8.62599978       0.08151415       0.09828113       0.17905938      -0.02888208       0.07333710      -0.16798693
H        8.02385002       5.86957690       6.99596100       0.32268749       0.19936434      -0.05995947       0.11578612      -0.30822814      -0.16704603
H        7.36395091       7.33782075       7.65790883       0.03388422       0.21638892       0.19470017      -0.10254669      -0.95156956       0.17073562
H        4.87308803       4.92292806       3.32611648       0.01472447      -0.00867800       0.22800322       0.51038951       0.46849728       1.24629341
H        3.92826624       4.61429550       5.05236934       0.08448847       0.09848362      -0.28224776      -0.23160985       0.10991669       0.37677151
H        5.81588496       5.33256297       5.23805757       0.20461493       0.02920386      -0.26015935       0.09836727       0.22067594      -0.26116411
N        7.41221925       6.29223979       7.69724507      -1.20383696      -0.29951984      -0.52650963      -0.01203709       1.18962928       0.15640168
8
Lattice="11.95182062961392 0.0 0.0 0.0 11.95182062961392 0.0 0.0 0.0 11.95182062961392" Properties=species:S:1:pos:R:3:momenta:R:3:forces:R:3 energy=-438.27892371083 free_energy=-438.27892371083 stress="-0.0002585954065743 -6.6404079945982e-05 0.00041132009034783 -6.6404079945982e-05 0.00080105780434808 7.400415908226e-05 0.00041132009034783 7.400415908226e-05 0.00093054478812336" pbc="T T T"
B        4.89946601       5.01048221       4.54240592       0.44753186      -0.36808231       0.45817808      -0.13219055      -0.65743600      -1.38578573
H        7.36129786       5.84553144       8.62375333       0.08123634       0.10289034       0.16345224       0.02412267       0.12961759      -0.44153167
H        8.02964280       5.87160096       6.98214874       0.32175522       0.18705728      -0.06018982      -0.11363511      -0.16335657       0.15064798
H        7.35547576       7.33986739       7.65684955       0.02940089       0.15976378       0.20152093      -0.08041278      -1.32353497       0.13637521
H        4.86447780       4.91580453       3.32806730       0.04007792       0.01376556       0.28186930       0.51872149       0.44495146       0.98199547
H        3.92217783       4.61195324       5.02846478       0.06710178       0.10099431      -0.25744624      -0.46886994       0.00739498       0.59353026
H        5.81597900       5.32697249       5.21445781       0.20853369       0.03955979      -0.26996982       0.08425909       0.20550194      -0.17514081
N        7.39800733       6.28399988       7.68470272      -1.19619814      -0.23582500      -0.51721048       0.15703491       1.36198078       0.14562212
8
Lattice="11.951521715958172 0.0 0.0 0.0 11.951521715958172 0.0 0.0 0.0 11.951521715958172" Properties=species:S:1:pos:R:3:momenta:R:3:forces:R:3 energy=-438.26584896767 free_energy=-438.26584896767 stress="-0.00027233423448163 -0.00015902140955384 0.00034870043972792 -0.00015902140955384 0.00096024155993106 0.00012426796374037 0.00034870043972792 0.00012426796374037 0.00084873853545744" pbc="T T T"
B        4.89225504       5.00307094       4.53307514       0.44545327      -0.39576088       0.39065310       0.09783778      -0.51330712      -1.30666830
H        7.35599239       5.84499117       8.61981098       0.08334686       0.10967972       0.13571805       0.06761668       0.16112657      -0.66712218
H        8.03584067       5.87479823       6.96808958       0.30957205       0.18175516      -0.04522932      -0.34779615      -0.02808729       0.45346023
H        7.34752728       7.34031591       7.65547072       0.02573786       0.08901055       0.20638201      -0.06925448      -1.53783294       0.08808906
H        4.85782736       4.91133590       3.33171074       0.06552819       0.03469489       0.32063470       0.51834789       0.41038051       0.63356486
H        3.91568105       4.61120581       5.00540362       0.03890973       0.09882544      -0.22291536      -0.67425059      -0.08182610       0.78258073
H        5.81696917       5.32346059       5.18986416       0.21155501       0.04899936      -0.27584085       0.05907328       0.18456682      -0.09581406
N        7.38455306       6.27759030       7.67157703      -1.18022370      -0.16708301      -0.50929865       0.35509964       1.40891382       0.10849780
8
Lattice="11.95122159832336 0.0 0.0 0.0 11.95122159832336 0.0 0.0 0.0 11.95122159832336" Properties=species:S:1:pos:R:3:momenta:R:3:forces:R:3 energy=-438.25021062163 free_energy=-438.25021062163 stress="-0.00025220329124289 -0.0002248904488928 0.00027995747181625 -0.0002248904488928 0.001007001886051 0.00017199879996216 0.00027995747181625 0.00017199879996216 0.00068283300848943" pbc="T T T"
B        4.88630219       4.99749647       4.52351170       0.45404287      -0.41686347       0.33061573       0.28872082      -0.37746555      -1.10671607
H        7.35208022       5.84677139       8.61432175       0.08727668       0.11734211       0.09875483       0.09951412       0.16141157      -0.82766437
H        8.04241564       5.87985610       6.95518167       0.28667978       0.18263845      -0.01661996      -0.55889733       0.08056208       0.70856358
H        7.34065027       7.33902275       7.65434399       0.02229142       0.01199835       0.20886919      -0.06863351      -1.59070533       0.03045214
H        4.85365095       4.90979222       3.33689985       0.09061945       0.05366121       0.34071111       0.50903710       0.36604110       0.21131651
H        3.90880596       4.61219885       4.98430024       0.00207327       0.09295503      -0.18038420      -0.82138152      -0.14768877       0.93069070
H        5.81932083       5.32233244       5.16513187       0.21317757       0.05730406      -0.27818691       0.02367838       0.15831039      -0.02302063
N        7.37240757       6.27337220       7.65853645      -1.15586915      -0.09894654      -0.50385630       0.54756903       1.35158859       0.07145290
8
Lattice="11.950922702245224 0.0 0.0 0.0 11.950922702245224 0.0 0.0 0.0 11.950922702245224" Properties=species:S:1:pos:R:3:momenta:R:3:forces:R:3 energy=-438.23578350296 free_energy=-438.23578350296 stress="-0.00019737373589212 -0.00025618928929792 0.00021158945215971 -0.00025618928929792 0.00094151107278987 0.00021168949450652 0.00021158945215971 0.00021168949450652 0.00043339010173004" pbc="T T T"
B        4.88207476       4.99392248       4.51444591       0.47089616      -0.43220237       0.28365896       0.41651538      -0.26033036      -0.79640481
H        7.35006131       5.85101505       8.60759622       0.09247148       0.12431826       0.05596526       0.11907570       0.12769329      -0.91329482
H        8.04930036       5.88718119       6.94471658       0.25480407       0.18818696       0.02274763      -0.72587453       0.15257845       0.89353930
H        7.33526667       7.33600610       7.65402867       0.01857384      -0.06355231       0.20868692      -0.07788276      -1.48556315      -0.03191386
H        4.85234742       4.91120449       3.34332648       0.11500516       0.07029828       0.33912120       0.49094137       0.31409383      -0.26495767
H        3.90162234       4.61491661       4.96617899      -0.04004071       0.08473938      -0.13210288      -0.88856531      -0.18279031       1.02788239
H        5.82338010       5.32366371       5.14110376       0.21302470       0.06427070      -0.27739564      -0.01984606       0.12759000       0.04422374
N        7.36202219       6.27147056       7.64625571      -1.12423123      -0.03602381      -0.50077440       0.70484873       1.20699904       0.03908012
8
Lattice="11.95062749318791 0.0 0.0 0.0 11.95062749318791 0.0 0.0 0.0 11.95062749318791" Properties=species:S:1:pos:R:3:momenta:R:3:forces:R:3 energy=-438.22472458917 free_energy=-438.22472458917 stress="-0.00011029899659272 -0.00024924292823336 0.00014903164863982 -0.00024924292823336 0.00077075582295254 0.00024026879067931 0.00014903164863982 0.00024026879067931 0.00011415767535895" pbc="T T T"
B        4.87987832       4.99228724       4.50661031       0.49260669      -0.44291005       0.25430773       0.46564398      -0.16916777      -0.40428902
H        7.35026131       5.85756336       8.60009623       0.09839800       0.12895288       0.01099781       0.12610348       0.05995688      -0.92016738
H        8.05638535       5.89687154       6.93779826       0.21648042       0.19649516       0.06914303      -0.83398142       0.18357867       0.99542393
H        7.33162946       7.33143234       7.65504933       0.01418146      -0.13026437       0.20568003      -0.09600890      -1.23079541      -0.09425128
H        4.85415254       4.91536661       3.35053126       0.13839064       0.08435513       0.31399766       0.46463809       0.25766460      -0.76283799
H        3.89424214       4.61919516       4.95192411      -0.08322904       0.07574945      -0.08062680      -0.86361807      -0.18410206       1.06915712
H        5.82932872       5.32729919       5.11858604       0.21083172       0.06972860      -0.27373776      -0.06860246       0.09356208       0.10751531
N        7.35369521       6.27177472       7.63538919      -1.08729064       0.01789815      -0.49979279       0.81460112       0.98977454       0.00902581
8
Lattice="11.950338194033224 0.0 0.0 0.0 11.950338194033224 0.0 0.0 0.0 11.950338194033224" Properties=species:S:1:pos:R:3:momenta:R:3:forces:R:3 energy=-438.21707186645 free_energy=-438.21707186645 stress="2.1622816561589e-06 -0.00020480101783545 9.706001823826e-05 -0.00020480101783545 0.00050830618937815 0.00025655377164024 9.706001823826e-05 0.00025655377164024 -0.00024904977436392" pbc="T T T"
B        4.87982162       4.99230849       4.50069182       0.51522279      -0.45026555       0.24524341       0.43228119      -0.10704558       0.02130865
H        7.35279990       5.86595967       8.59240389       0.10451947       0.12960778      -0.03240422       0.12120372      -0.03928859      -0.84950523
H        8.06351996       5.90871011       6.93527272       0.17478577       0.20549319       0.11842031      -0.87337733       0.17313493       1.00849849
H        7.32979401       7.32560406       7.65786472       0.00877013      -0.18129162       0.19990593      -0.12179077      -0.84173210      -0.15186064
H        4.85910790       4.92184703       3.35793430       0.16049328       0.09571064       0.26529059       0.43103130       0.20057999      -1.23648695
H        3.88681824       4.62473413       4.94222943      -0.12298194       0.06754423      -0.02854578      -0.74687233      -0.15370719       1.05534932
H        5.83715762       5.33286018       5.09831556       0.20643973       0.07353408      -0.26729768      -0.11935609       0.05754201       0.16846222
N        7.34753848       6.27394684       7.62652917      -1.04718638       0.05968646      -0.50062467       0.87511645       0.71193857      -0.01571294
8
Lattice="11.950056535105709 0.0 0.0 0.0 11.950056535105709 0.0 0.0 0.0 11.950056535105709" Properties=species:S:1:pos:R:3:momenta:R:3:forces:R:3 energy=-438.21141642271 free_energy=-438.21141642271 stress="0.00012852255295042 -0.00012728544980986 6.014116736674e-05 -0.00012728544980986 0.00017566221024797 0.00026061843497845 6.014116736674e-05 0.00026061843497845 -0.00062103088674722" pbc="T T T"
B        4.88180552       4.99350128       4.49726820       0.53482284      -0.45554507       0.25648825       0.32513521      -0.07233545       0.41703819
H        7.35757914       5.87547295       8.58516717       0.11029622       0.12482826      -0.07068113       0.10594987      -0.16496346      -0.70722532
H        8.07052314       5.92218153       6.93766057       0.13311739       0.21316541       0.16630636      -0.83755956       0.12351230       0.93231867
H        7.32960849       7.31894643       7.66282534       0.00201850      -0.21077206       0.19164066      -0.15350395      -0.34507896      -0.20042036
H        4.86704935       4.93001497       3.36488937       0.18099208       0.10441022       0.19538274       0.39106786       0.14660973      -1.63042523
H        3.87953339       4.63111011       4.93754629      -0.15511898       0.06147752       0.02170591      -0.55108534      -0.09820833       0.99284255
H        5.84666144       5.33976504       5.08091212       0.19977700       0.07559559      -0.25806163      -0.16899256       0.02073392       0.22829254
N        7.34346703       6.27744199       7.62015294      -1.00608584       0.08688550      -0.50277835       0.88083805       0.39208827      -0.03176900
8
Lattice="11.949783538903429 0.0 0.0 0.0 11.949783538903429 0.0 0.0 0.0 11.949783538903429" Properties=species:S:1:pos:R:3:momenta:R:3:forces:R:3 energy=-438.20604058344 free_energy=-438.20604058344 stress="0.00025432240929505 -2.4053712580658e-05 4.1202567659886e-05 -2.4053712580658e-05 -0.00019518557450245 0.00025315894236557 4.1202567659886e-05 0.00025315894236557 -0.00096178296166361" pbc="T T T"
B        4.88553196       4.99521558       4.49673353       0.54814059      -0.45988394       0.28492679       0.16321056      -0.05962133       0.71609924
H        7.36429270       5.88514792       8.57902717       0.11523354       0.11346311      -0.10060326       0.08251269      -0.30896636      -0.50542695
H        8.07720693       5.93651507       6.94509255       0.09515212       0.21765025       0.20852563      -0.72409737       0.03943280       0.77160729
H        7.33072391       7.31198393       7.67012347      -0.00633807      -0.21446017       0.18135457      -0.18882988       0.21454866      -0.23680142
H        4.87761389       4.93908755       3.37075637       0.19955333       0.11066568       0.10939304       0.34520688       0.09859490      -1.88923402
H        3.87257661       4.63779961       4.93803527      -0.17631936       0.05853121       0.06805184      -0.29831565      -0.02703775       0.89210815
H        5.85745177       5.34727069       5.06681929       0.19089214       0.07589202      -0.24599595      -0.21489767      -0.01568732       0.28775912
N        7.34120493       6.28154879       7.61656240      -0.96662007       0.09821092      -0.50562786       0.82400348       0.06171545      -0.03499717
8
Lattice="11.9495193288633 0.0 0.0 0.0 11.9495193288633 0.0 0.0 0.0 11.9495193288633" Properties=species:S:1:pos:R:3:momenta:R:3:forces:R:3 energy=-438.19984843014 free_energy=-438.19984843014 stress="0.00036473917925313 9.5787331358133e-05 4.0778265443423e-05 9.5787331358133e-05 -0.00056217263518278 0.00023533661767657 4.0778265443423e-05 0.00023533661767657 -0.0012337263951639" pbc="T T T"
B        4.89053084       4.99670062       4.49923030       0.55305142      -0.46413513       0.32452903      -0.02840050      -0.06058280       0.86439018
H        7.37245330       5.89388785       8.57453630       0.11896126       0.09485796      -0.11970947       0.05333069      -0.46028606      -0.26209983
H        8.08340634       5.95076136       6.95726770       0.06458433       0.21742892       0.24120038      -0.53514029      -0.07187899       0.53637940
H        7.33262062       7.30529844       7.67974924      -0.01644620      -0.19079293       0.16964650      -0.22493714       0.77281300      -0.26012799
H        4.89026376       4.94819989       3.37498303       0.21585726       0.11478698       0.01486818       0.29310522       0.05744050      -1.97128226
H        3.86611299       4.64422088       4.94353671      -0.18445063       0.05922871       0.10895062      -0.01508572       0.04966685       0.76560801
H        5.86898738       5.35453856       5.05625069       0.17996685       0.07445811      -0.23109148      -0.25525333      -0.05079497       0.34693754
N        7.34030608       6.28545790       7.61583128      -0.93188264       0.09425173      -0.50835296       0.69987153      -0.23317060      -0.01849717
8
Lattice="11.949263030666584 0.0 0.0 0.0 11.949263030666584 0.0 0.0 0.0 11.949263030666584" Properties=species:S:1:pos:R:3:momenta:R:3:forces:R:3 energy=-438.19274779692 free_energy=-438.19274779692 stress="0.00044851040160559 0.00022200575270614 5.5738347755289e-05 0.00022200575270614 -0.00087614212047733 0.00020890790654764 5.5738347755289e-05 0.00020890790654764 -0.0014069911662564" pbc="T T T"
B        4.89619874       4.99719492       4.50460838       0.54874881      -0.46875631       0.36730931      -0.22330138      -0.06540029       0.83516935
H        7.38143270       5.90056985       8.57208678       0.12124621       0.06897386      -0.12656320       0.02068441      -0.60490756      -0.00199511
H        8.08900918       5.96389848       6.97344823       0.04485749       0.21143046       0.26112218      -0.28079092      -0.19977777       0.24419113
H        7.33464890       7.29946440       7.69146437      -0.02829476      -0.14172705       0.15710056      -0.25866565       1.24972043      -0.27271449
H        4.90431990       4.95649635       3.37717625       0.22957880       0.11708562      -0.07922836       0.23371277       0.02184902      -1.86130376
H        3.86025385       4.64979863       4.95357127      -0.17866098       0.06363345       0.14346925       0.27242714       0.12282185       0.62574135
H        5.88061272       5.36072572       5.04916009       0.16727830       0.07137284      -0.21337329      -0.28919700      -0.08401516       0.40514504
N        7.34018579       6.28835837       7.61777698      -0.90513508       0.07807702      -0.50978697       0.51211744      -0.43709898       0.02715457
8
Lattice="11.949012745057779 0.0 0.0 0.0 11.949012745057779 0.0 0.0 0.0 11.949012745057779" Properties=species:S:1:pos:R:3:momenta:R:3:forces:R:3 energy=-438.18545569841 free_energy=-438.18545569841 stress="0.00050118786545189 0.000343635079067 7.8906188401803e-05 0.000343635079067 -0.0010892375250518 0.00017647338861494 7.8906188401803e-05 0.00017647338861494 -0.0014630811471923" pbc="T T T"
B        4.90184696       4.99603405       4.51242991       0.53565590      -0.47374026       0.40479400      -0.39794789      -0.06453504       0.63542406
H        7.39050964       5.90418323       8.57186307       0.12195940       0.03649536      -0.12105901      -0.01379312      -0.72685187       0.24486677
H        8.09397539       5.97496268       6.99251159       0.03866657       0.19919509       0.26615223       0.01753673      -0.32971832      -0.07834380
H        7.33607875       7.29496457       7.70480753      -0.04171102      -0.07312456       0.14411464      -0.28673545       1.56496967      -0.27983869
H        4.91900211       4.96323303       3.37714967       0.24035078       0.11777294      -0.16395465       0.16593395      -0.01099385      -1.57554889
H        3.85503736       4.65404817       4.96738043      -0.15926680       0.07142054       0.17124433       0.54178131       0.18544885       0.48337162
H        5.89160244       5.36509178       5.04525088       0.15313114       0.06673423      -0.19291272      -0.31676290      -0.11509792       0.46105661
N        7.34016339       6.28955269       7.62197304      -0.88918101       0.05533611      -0.50832370       0.27666260      -0.50003084       0.11044374
8
Lattice="11.948765649706477 0.0 0.0 0.0 11.948765649706477 0.0 0.0 0.0 11.948765649706477" Properties=species:S:1:pos:R:3:momenta:R:3:forces:R:3 energy=-438.17887684862 free_energy=-438.17887684862 stress="0.0005269653415172 0.00044923581394557 9.9626699309321e-05 0.00044923581394557 -0.0011663216404803 0.00014129098219986 9.9626699309321e-05 0.00014129098219986 -0.0013955610925006" pbc="T T T"
B        4.90675748       4.99275664       4.52202464       0.51517194      -0.47863249       0.42951694      -0.53432522      -0.05032068       0.30099252
H        7.39892436       5.90397064       8.57382542       0.12102288      -0.00112437      -0.10459068      -0.04944640      -0.81019095       0.44677502
H        8.09833794       5.98318561       7.01306612       0.04734462       0.18103795       0.25564361       0.32499684      -0.44364304      -0.39556102
H        7.33615876       7.29210317       7.71913515      -0.05635919       0.00578176       0.13078486      -0.30595775       1.66076234      -0.28789090
H        4.93347659       4.96787426       3.37494023       0.24775817       0.11690632      -0.23178859       0.08954566      -0.04416583      -1.15670889
H        3.85042771       4.65666248       4.98400573      -0.12751807       0.08198193       0.19237381       0.77584519       0.23295945       0.34708895
H        5.90121175       5.36710278       5.04402795       0.13779997       0.06063931      -0.16983545      -0.33864916      -0.14405103       0.51294950
N        7.33951609       6.28856922       7.62780488      -0.88563027       0.03349946      -0.50204705       0.02400447      -0.39795222       0.23355845
8
Lattice="11.948518245575475 0.0 0.0 0.0 11.948518245575475 0.0 0.0 0.0 11.948518245575475" Properties=species:S:1:pos:R:3:momenta:R:3:forces:R:3 energy=-438.17340530185 free_energy=-438.17340530185 stress="0.00053816352474264 0.00052743112558354 0.00010544199083454 0.00052743112558354 -0.0010945760858519 0.00010645655497608 0.00010544199083454 0.00010645655497608 -0.0012088207780496" pbc="T T T"
B        4.91024762       4.98718125       4.53258420       0.48937200      -0.48261993       0.43608277      -0.62084307      -0.01802170      -0.11633581
H        7.40594053       5.89954073       8.57772209       0.11835321      -0.04173553      -0.07996261      -0.08660815      -0.84171084       0.57545863
H        8.10218184       5.98811105       7.03362038       0.07027312       0.15815896       0.23077015       0.59483209      -0.52198146      -0.66595777
H        7.33418502       7.29094241       7.73369210      -0.07175380       0.08398473       0.11692503      -0.31354106       1.52137565      -0.30152695
H        4.94691493       4.97015950       3.37079616       0.25138321       0.11439719      -0.27757412       0.00577233      -0.07983308      -0.66146700
H        3.84633641       4.65757584       5.00239458      -0.08535310       0.09452583       0.20729518       0.96277046       0.26288090       0.22315127
H        5.90873499       5.36650570       5.04488122       0.12151125       0.05317102      -0.14433027      -0.35583294      -0.17097661       0.55901307
N        7.33754533       6.28524133       7.63455702      -0.89421713       0.02021474      -0.48915727      -0.20194109      -0.14792281       0.38795463
8
Lattice="11.948266725793031 0.0 0.0 0.0 11.948266725793031 0.0 0.0 0.0 11.948266725793031" Properties=species:S:1:pos:R:3:momenta:R:3:forces:R:3 energy=-438.16854508055 free_energy=-438.16854508055 stress="0.00055119389898326 0.00056860789526144 8.5465145488035e-05 0.00056860789526144 -0.00088804051118119 7.3911196423955e-05 8.5465145488035e-05 7.3911196423955e-05 -0.00091813295726859" pbc="T T T"
B        4.91174273       4.97943210       4.54327377       0.46073063      -0.48471797       0.42161936      -0.65197014       0.03401941      -0.56322769
H        7.41091458       5.89092560       8.58312123       0.11383426      -0.08265176      -0.05115612      -0.12616102      -0.81423312       0.61369828
H        8.10560243       5.98966640       7.05278284       0.10444428       0.13265803       0.19468268       0.77767947      -0.54823673      -0.85124537
H        7.32957873       7.29128461       7.74770093      -0.08727846       0.15077358       0.10222033      -0.30761745       1.18029204      -0.32124090
H        4.95856631       4.97012238       3.36514549       0.25088382       0.11008131      -0.29885681      -0.08276771      -0.11871625      -0.14644689
H        3.84266429       4.65698212       5.02151474      -0.03516027       0.10817747       0.21668163       1.09527219       0.27437957       0.11586217
H        5.91357353       5.36335280       5.04718203       0.10443757       0.04440641      -0.11666810      -0.36917367      -0.19597774       0.59765474
N        7.33365480       6.27972927       7.64151226      -0.91234967       0.02138442      -0.46850459      -0.35242877       0.19262336       0.55350031
8
Lattice="11.94800746938554 0.0 0.0 0.0 11.94800746938554 0.0 0.0 0.0 11.94800746938554" Properties=species:S:1:pos:R:3:momenta:R:3:forces:R:3 energy=-438.16303545794 free_energy=-438.16303545794 stress="0.00058168268803334 0.00056667141251323 3.3288479622019e-05 0.00056667141251323 -0.00058132805798607 4.3868162526437e-05 3.3288479622019e-05 4.3868162526437e-05 -0.00054742689641725" pbc="T T T"
B        4.91084527       4.96990140       4.55333115       0.43191957      -0.48394147       0.38564337      -0.62667195       0.10494223      -0.99481697
H        7.41336128       5.87856051       8.58945778       0.10730719      -0.12100799      -0.02263128      -0.16895197      -0.72782339       0.55774920
H        8.10865663       5.98816475       7.06943995       0.14469200       0.10726777       0.15208918       0.83317424      -0.51323800      -0.92531155
H        7.32195829       7.29271259       7.76044891      -0.10226573       0.19791052       0.08644767      -0.28781812       0.70554687      -0.34349641
H        4.96783173       4.96805135       3.35854969       0.24607284       0.10379682      -0.29568246      -0.17265978      -0.16020130       0.34171234
H        3.83935084       4.65529488       5.04045204       0.02037031       0.12204533       0.22138969       1.16959949       0.26777216       0.02809466
H        5.91530234       5.35796388       5.05036589       0.08673852       0.03442780      -0.08719871      -0.37937007      -0.21913002       0.62760479
N        7.32742628       6.27247262       7.64803542      -0.93530580       0.03962510      -0.44009278      -0.38489907       0.54575653       0.70486841
8
Lattice="11.947737482180965 0.0 0.0 0.0 11.947737482180965 0.0 0.0 0.0 11.947737482180965" Properties=species:S:1:pos:R:3:momenta:R:3:forces:R:3 energy=-438.15530629841 free_energy=-438.15530629841 stress="0.00063780401669451 0.0005208971706057 -4.9984432334656e-05 0.0005208971706057 -0.00022030635145725 1.5088830734273e-05 -4.9984432334656e-05 1.5088830734273e-05 -0.00012927048275481" pbc="T T T"
B        4.90739025       4.95916842       4.56213932       0.40567201      -0.47943964       0.32958740      -0.54704007       0.19212011      -1.37917780
H        7.41300716       5.86320419       8.59608403       0.09859726      -0.15411139       0.00128033      -0.21518221      -0.59026269       0.41937096
H        8.11131888       5.98424882       7.08288525       0.18439013       0.08495008       0.10854346       0.74438854      -0.41900498      -0.88330348
H        7.31119441       7.29466934       7.77135935      -0.11608969       0.22075305       0.06962067      -0.25567900       0.17799880      -0.36242402
H        4.97432831       4.96441134       3.35165345       0.23695890       0.09544822      -0.27006132      -0.26035702      -0.20280863       0.77035902
H        3.83641861       4.65306814       5.05848114       0.07840100       0.13528475       0.22242256       1.18448369       0.24409428      -0.03831054
H        5.91372311       5.35084559       5.05399077       0.06855040       0.02331931      -0.05634731      -0.38652114      -0.24029867       0.64809863
N        7.31868148       6.26409650       7.65363124      -0.95690821       0.07390269      -0.40514260      -0.27814799       0.83897932       0.81970593
8
Lattice="11.947454805804863 0.0 0.0 0.0 11.947454805804863 0.0 0.0 0.0 11.947454805804863" Properties=species:S:1:pos:R:3:momenta:R:3:forces:R:3 energy=-438.14415896503 free_energy=-438.14415896503 stress="0.00071726843798538 0.00043632699331966 -0.00015546820700596 0.00043632699331966 0.00014870925947141 -1.4198911968199e-05 -0.00015546820700596 -1.4198911968199e-05 0.00029839721998297" pbc="T T T"
B        4.90146677       4.94789950       4.56926037       0.38463756      -0.47059641       0.25617580      -0.41729285       0.29200811      -1.69709686
H        7.40981185       5.84582051       8.60232385       0.08754228      -0.17981053       0.01710151      -0.26417367      -0.41524563       0.22213079
H        8.11346284       5.97878880       7.09285894       0.21680403       0.06833078       0.06931548       0.52347164      -0.27850297      -0.74256650
H        7.29742658       7.29655334       7.78003279      -0.12827781       0.21844570       0.05204444      -0.21456129      -0.32972314      -0.37236566
H        4.97792074       4.95974943       3.34513096       0.22374335       0.08504369      -0.22532664      -0.34268094      -0.24475199       1.12012876
H        3.83399196       4.65090146       5.07509877       0.13608195       0.14714651       0.22089669       1.14061949       0.20485408      -0.08233779
H        5.90888579       5.34259341       5.05776155       0.05001819       0.01118861      -0.02457265      -0.39021830      -0.25921562       0.65880823
N        7.30750673       6.25530029       7.65796712      -0.97083117       0.12027472      -0.36578604      -0.03947878       1.02646825       0.88548178
8
Lattice="11.94715877152758 0.0 0.0 0.0 11.94715877152758 0.0 0.0 0.0 11.94715877152758" Properties=species:S:1:pos:R:3:momenta:R:3:forces:R:3 energy=-438.12956433006 free_energy=-438.12956433006 stress="0.00080815066942756 0.00032268378748215 -0.00026868167071816 0.00032268378748215 0.00048631734622626 -4.5320644864647e-05 -0.00026868167071816 -4.5320644864647e-05 0.00069668780864244" pbc="T T T"
B        4.89340095       4.93675734       4.57443509       0.37127465      -0.45704180       0.16882095      -0.24355238       0.40053458      -1.93911785
H        7.40395285       5.82745477       8.60752394       0.07401968      -0.19673199       0.02264380      -0.31460580      -0.21967397      -0.00455007
H        8.11487444       5.97276272       7.09950241       0.23639575       0.05924614       0.03844561       0.20680878      -0.11180039      -0.53624633
H        7.28103679       7.29780326       7.78625570      -0.13859244       0.19323495       0.03425148      -0.16899227      -0.76426186      -0.36948350
H        4.97871310       4.95460986       3.33963483       0.20678085       0.07268590      -0.16552259      -0.41703634      -0.28431016       1.38152713
H        3.83228433       4.64935551       5.09002350       0.19068126       0.15699802       0.21800036       1.04044531       0.15192061      -0.10362759
H        5.90107226       5.33380244       5.06152560       0.03129924      -0.00184373       0.00767725      -0.38959987      -0.27546200       0.65974550
N        7.29423490       6.24676014       7.66086639      -0.97186723       0.17334599      -0.32451839       0.29647524       1.09656812       0.90241422
8
Lattice="11.946850076759647 0.0 0.0 0.0 11.946850076759647 0.0 0.0 0.0 11.946850076759647" Properties=species:S:1:pos:R:3:momenta:R:3:forces:R:3 energy=-438.11335015153 free_energy=-438.11335015153 stress="0.00089269867303601 0.00019237488325592 -0.00037319489581758 0.00019237488325592 0.00076309147271425 -7.8486904335236e-05 -0.00037319489581758 -7.8486904335236e-05 0.0010302107394159" pbc="T T T"
B        4.88370716       4.92633570       4.57755962       0.36773227      -0.43862541       0.07115378      -0.03335095       0.51348956      -2.10155302
H        7.39578040       5.80912765       8.61109816       0.05796215      -0.20436683       0.01713729      -0.36482305      -0.02079743      -0.23129743
H        8.11529057       5.96714399       7.10325367       0.23969300       0.05850521       0.01821127      -0.15742363       0.05940934      -0.30294699
H        7.26259036       7.29795798       7.78998379      -0.14704388       0.14941703       0.01688820      -0.12375015      -1.09270890      -0.35209786
H        4.97700684       4.94947229       3.33575191       0.18652645       0.05852398      -0.09494333      -0.48137379      -0.32001166       1.55092145
H        3.83155951       4.64889210       5.10317205       0.23969699       0.16430499       0.21493195       0.88832427       0.08755207      -0.10255967
H        5.89074985       5.32500242       5.06524971       0.01258101      -0.01566923       0.03999959      -0.38346191      -0.28850175       0.65114201
N        7.27939201       6.23906251       7.66228336      -0.95684022       0.22775712      -0.28360108       0.67137482       1.05785896       0.88090825
8
Lattice="11.946530699149196 0.0 0.0 0.0 11.946530699149196 0.0 0.0 0.0 11.946530699149196" Properties=species:S:1:pos:R:3:momenta:R:3:forces:R:3 energy=-438.09929013847 free_energy=-438.09929013847 stress="0.0009522152703306 5.8208493235662e-05 -0.00045408960851633 5.8208493235662e-05 0.0009591670618383 -0.00011254390151265 -0.00045408960851633 -0.00011254390151265 0.0012702511961148" pbc="T T T"
B        4.87302390       4.91712183       4.57865332       0.37575610      -0.41530646      -0.03322788       0.20352291       0.62632871      -2.18212908
H        7.38575915       5.79175865       8.61256256       0.03939068      -0.20297412       0.00108892      -0.41307496       0.16601737      -0.43290667
H        8.11444894       5.96281216       7.10472305       0.22550300       0.06591817       0.00908811      -0.52218099       0.21621616      -0.07777658
H        7.24276531       7.29669094       7.79131201      -0.15380259       0.09236360       0.00060604      -0.08355086      -1.29825053      -0.32023203
H        4.97324205       4.94471519       3.33396814       0.16350435       0.04271209      -0.01788411      -0.53401814      -0.35063496       1.62712064
H        3.83208176       4.64983976       5.11462381       0.28094425       0.16859921       0.21279442       0.69098617       0.01448140      -0.08058141
H        5.87851272       5.31661972       5.06898978      -0.00586496      -0.03019541       0.07203097      -0.37045699      -0.29775093       0.63330789
N        7.26362671       6.23266865       7.66227307      -0.92509237       0.27879807      -0.24466224       1.03092561       0.92191495       0.82867331
8
Lattice="11.946203692390515 0.0 0.0 0.0 11.946203692390515 0.0 0.0 0.0 11.946203692390515" Properties=species:S:1:pos:R:3:momenta:R:3:forces:R:3 energy=-438.09182552056 free_energy=-438.09182552056 stress="0.00097215866365934 -6.8131100734545e-05 -0.00050050563358604 -6.8131100734545e-05 0.0010624878101057 -0.00014530741469955 -0.00050050563358604 -0.00014530741469955 0.0013959793074773" pbc="T T T"
B        4.86205304       4.90947832       4.57782963       0.39647459      -0.38698038      -0.14065462       0.45453276       0.73413241      -2.17712839
H        7.37441509       5.77611895       8.61156338       0.01842895      -0.19333169      -0.02396196      -0.45799117       0.32804880      -0.59024112
H        8.11213492       5.96049020       7.10458216       0.19456812       0.08051248       0.01008070      -0.84905086       0.34484738       0.11274053
H        7.22229068       7.29382661       7.79044498      -0.15910144       0.02790787      -0.01397419      -0.05304952      -1.37444616      -0.27502433
H        4.96794082       4.94059886       3.33464031       0.13826641       0.02542848       0.06138172      -0.57346922      -0.37514800       1.60901318
H        3.83406878       4.65237709       5.12458271       0.31254171       0.16946538       0.21247033       0.45820055      -0.06397332      -0.04071772
H        5.86502989       5.30896100       5.07286149      -0.02364122      -0.04528647       0.10340655      -0.34934438      -0.30265485       0.60651654
N        7.24764485       6.22789821       7.66096418      -0.87757058       0.32223673      -0.20885680       1.35640239       0.70722685       0.74961123
8
Lattice="11.945872895152666 0.0 0.0 0.0 11.945872895152666 0.0 0.0 0.0 11.945872895152666" Properties=species:S:1:pos:R:3:momenta:R:3:forces:R:3 energy=-438.09420084528 free_energy=-438.09420084528 stress="0.00094493103597031 -0.00017659142738365 -0.00050665288636968 -0.00017659142738365 0.0010674901276954 -0.00017404315946611 -0.00050665288636968 -0.00017404315946611 0.0013944814259975" pbc="T T T"
B        4.85151408       4.90363378       4.57527856       0.43000088      -0.35343455      -0.24694879       0.70379340       0.83157684      -2.07948459
H        7.36229510       5.76280188       8.60790481      -0.00478022      -0.17655879      -0.05564988      -0.49853481       0.45508932      -0.69010248
H        8.10821878       5.96070047       7.10348386       0.14899333       0.10074016       0.01917429      -1.11004362       0.43691931       0.25151398
H        7.20189945       7.28934906       7.78767778      -0.16327560      -0.03788879      -0.02623490      -0.03640962      -1.32099648      -0.21820283
H        4.96166240       4.93725842       3.33796808       0.11129728       0.00690745       0.13838394      -0.59824575      -0.39266140       1.49454153
H        3.83765412       4.65652383       5.13334355       0.33278092       0.16652248       0.21450081       0.20351798      -0.14380084       0.01179370
H        5.85100693       5.30220829       5.07701671      -0.04028841      -0.06070879       0.13367745      -0.31918067      -0.30275109       0.57099423
N        7.23216549       6.22492087       7.65854068      -0.81509468       0.35435963      -0.17705069       1.64080662       0.43438138       0.64824364
8
Lattice="11.945542589282418 0.0 0.0 0.0 11.945542589282418 0.0 0.0 0.0 11.945542589282418" Properties=species:S:1:pos:R:3:momenta:R:3:forces:R:3 energy=-438.10716481977 free_energy=-438.10716481977 stress="0.00086856500926299 -0.00025874005070222 -0.0004713434469878 -0.00025874005070222 0.00097424469117825 -0.00019598369612355 -0.0004713434469878 -0.00019598369612355 0.0012604744793473" pbc="T T T"
B        4.84210203       4.89967245       4.57126296       0.47516342      -0.31461323      -0.34692673       0.93169968       0.91283511      -1.87903258
H        7.34993115       5.75219181       8.60158006      -0.03008655      -0.15415823      -0.09092536      -0.53365816       0.53900660      -0.72394531
H        8.10268136       5.96372862       7.10201244       0.09195530       0.12461709       0.03368829      -1.28515505       0.48784129       0.32822584
H        7.18228210       7.28340746       7.78338854      -0.16685406      -0.09875223      -0.03557055      -0.03720113      -1.14217438      -0.15194736
H        4.95496580       4.93469869       3.34396253       0.08306474      -0.01252535       0.20815270      -0.60693551      -0.40242672       1.28129865
H        3.84286123       4.66213513       5.14126684       0.34027469       0.15948981       0.21899676      -0.05546930      -0.22036253       0.06897751
H        5.83715060       5.29641436       5.08162764      -0.05533457      -0.07612468       0.16222858      -0.27932809      -0.29759335       0.52703237
N        7.21788369       6.22374838       7.65523448      -0.73848245       0.37199627      -0.14993242       1.86777953       0.12170776       0.53483062
8
Lattice="11.945217171448354 0.0 0.0 0.0 11.945217171448354 0.0 0.0 0.0 11.945217171448354" Properties=species:S:1:pos:R:3:momenta:R:3:forces:R:3 energy=-438.12836550663 free_energy=-438.12836550663 stress="0.00074738846153861 -0.0003091220720709 -0.00039862207344351 -0.0003091220720709 0.00079042888252108 -0.00020884514010571 -0.00039862207344351 -0.00020884514010571 0.00099799714958362" pbc="T T T"
B        4.83443259       4.89752072       4.56612178       0.52963325      -0.27101612      -0.43439358       1.11717219       0.97280504      -1.56395790
H        7.33779624       5.74442603       8.59279788      -0.05720834      -0.12811827      -0.12629910      -0.56165536       0.57523574      -0.68847440
H        8.09562277       5.96959718       7.10065481       0.02764610       0.14992788       0.05051068      -1.36543503       0.49771585       0.34040103
H        7.16402437       7.27631244       7.77803313      -0.17057674      -0.14846074      -0.04145242      -0.05710876      -0.84912078      -0.07841769
H        4.94836943       4.93278932       3.35241929       0.05422194      -0.03242919       0.26522931      -0.59834792      -0.40411287       0.96760293
H        3.84959440       4.66890473       5.14875910       0.33453400       0.14837980       0.22563908      -0.29865014      -0.28873618       0.12050642
H        5.82412105       5.29149506       5.08687944      -0.06827596      -0.09113657       0.18832455      -0.23001105      -0.28736051       0.47484294
N        7.20541713       6.22422648       7.65132432      -0.64984858       0.37281156      -0.12790833       2.01190050      -0.21609525       0.41787533
8
Lattice="11.944900748643649 0.0 0.0 0.0 11.944900748643649 0.0 0.0 0.0 11.944900748643649" Properties=species:S:1:pos:R:3:momenta:R:3:forces:R:3 energy=-438.15258295357 free_energy=-438.15258295357 stress="0.00058447162030506 -0.00032352736818417 -0.00029389278223814 -0.00032352736818417 0.00053002225951836 -0.00021114337606909 -0.00029389278223814 -0.00021114337606909 0.00061877185144949" pbc="T T T"
B        4.82897639       4.89694353       4.56026892       0.59030634      -0.22386326      -0.50275510       1.23984702       1.00683247      -1.12692974
H        7.32625218       5.73936758       8.58199076      -0.08565141      -0.10093631      -0.15810043      -0.58115582       0.56017911      -0.58282877
H        8.08725435       5.97806093       7.09977792      -0.03871570       0.17440414       0.06620213      -1.34029866       0.46606261       0.28473047
H        7.14753490       7.26851457       7.77213277      -0.17536590      -0.18141252      -0.04355237      -0.09750173      -0.46169175      -0.00093042
H        4.94230348       4.93126868       3.36290999       0.02569925      -0.05229198       0.30415655      -0.57230331      -0.39776559       0.55732410
H        3.85764640       4.67638618       5.15625107       0.31649561       0.13363184       0.23369806      -0.50556784      -0.34448592       0.15448536
H        5.81247276       5.28722908       5.09296894      -0.07855435      -0.10534945       0.21127939      -0.17148014      -0.27177580       0.41506882
N        7.19523654       6.22603921       7.64713345      -0.55375365       0.35581397      -0.11113713       2.04758055      -0.55705220       0.29547553
8
Lattice="11.944596898361096 0.0 0.0 0.0 11.944596898361096 0.0 0.0 0.0 11.944596898361096" Properties=species:S:1:pos:R:3:momenta:R:3:forces:R:3 energy=-438.17281108843 free_energy=-438.17281108843 stress="0.00038628152748164 -0.00030175574347398 -0.00016597855172649 -0.00030175574347398 0.00021720692978564 -0.00020224040623898 -0.00016597855172649 -0.00020224040623898 0.00014542830405994" pbc="T T T"
B        4.82600594       4.89756038       4.55418356       0.65371266      -0.17483335      -0.54567605       1.28574269       1.01300257      -0.57000268
H        7.31550681       5.73660948       8.56980142      -0.11476430      -0.07531443      -0.18285487      -0.59081742       0.49418181      -0.41137244
H        8.07787459       5.98863418       7.09961924      -0.10147531       0.19600946       0.07740189      -1.20682739       0.39590024       0.16324150
H        7.13299027       7.26056575       7.76625463      -0.18217507      -0.19351614      -0.04176675      -0.15690999      -0.01368300       0.07662789
H        4.93706860       4.92976173       3.37479548      -0.00141852      -0.07163025       0.32016475      -0.53002083      -0.38429365       0.06263906
H        3.86672231       4.68403114       5.16416912       0.28854220       0.11606955       0.24206728      -0.65974667      -0.38434170       0.15999875
H        5.80260366       5.28327242       5.10010508      -0.08563956      -0.11845635       0.23061150      -0.10497752      -0.25126528       0.34833647
N        7.18760858       6.22873239       7.64301999      -0.45634216       0.32166893      -0.10002181       1.97635070      -0.87005532       0.16988319
8
Lattice="11.944308274979852 0.0 0.0 0.0 11.944308274979852 0.0 0.0 0.0 11.944308274979852" Properties=species:S:1:pos:R:3:momenta:R:3:forces:R:3 energy=-438.18251844683 free_energy=-438.18251844683 stress="0.00015971291830817 -0.00024719745445404 -2.4600014351354e-05 -0.00024719745445404 -0.00011448803278386 -0.000182386270235 -2.4600014351354e-05 -0.000182386270235 -0.00038796796893545" pbc="T T T"
B        4.82556565       4.89888566       4.54839021       0.71629358      -0.12570195      -0.55785703       1.25018591       0.99204735       0.08733425
H        7.30558493       5.73551523       8.55704991      -0.14391735      -0.05387557      -0.19754327      -0.58976092       0.38114670      -0.18362936
H        8.06784569       6.00064453       7.10027752      -0.15497985       0.21301709       0.08098635      -0.96592605       0.29190077      -0.01937992
H        7.12030527       7.25306611       7.76098401      -0.19191229      -0.18299828      -0.03624112      -0.23128742       0.44559034       0.14893481
H        4.93280294       4.92781609       3.38725837      -0.02618612      -0.09008313       0.30984487      -0.47481352      -0.36544969      -0.49022502
H        3.87646258       4.69124217       5.17289968       0.25394363       0.09671261       0.24934624      -0.75150905      -0.40672367       0.12927907
H        5.79472039       5.27919479       5.10850380      -0.08913560      -0.13025069       0.24609476      -0.03219753      -0.22638155       0.27551575
N        7.18256506       6.23176092       7.63935997      -0.36383209       0.27315835      -0.09464287       1.80186869      -1.11364168       0.05269651
8
Lattice="11.944036305743904 0.0 0.0 0.0 11.944036305743904 0.0 0.0 0.0 11.944036305743904" Properties=species:S:1:pos:R:3:momenta:R:3:forces:R:3 energy=-438.17848364495 free_energy=-438.17848364495 stress="-8.6733700001391e-05 -0.00016752927051816 0.00011967640302132 -0.00016752927051816 -0.00042429949524788 -0.00015293152716595 0.00011967640302132 -0.00015293152716595 -0.0009348302015105" pbc="T T T"
B        4.82746856       4.90039139       4.54343023       0.77478202      -0.07804470      -0.53589760       1.13948509       0.94737968       0.80251739
H        7.29631943       5.73529354       8.54468112      -0.17260815      -0.03886489      -0.19993103      -0.57766987       0.22987599       0.08389945
H        8.05757449       6.01331174       7.10170508      -0.19410431       0.22410945       0.07426144      -0.62679775       0.16139979      -0.25350226
H        7.10913468       7.24659863       7.75688805      -0.20529694      -0.15101797      -0.02742904      -0.31316552       0.85393304       0.20957987
H        4.92946416       4.92495624       3.39935519      -0.04801495      -0.10747248       0.27175659      -0.41222818      -0.34370180      -1.05721949
H        3.88646181       4.69743768       5.18275191       0.21621586       0.07659454       0.25395311      -0.77961848      -0.41188539       0.05966345
H        5.78882578       5.27453690       5.11837383      -0.08884377      -0.14062966       0.25767933       0.04483251      -0.19782501       0.19774643
N        7.17990076       6.23455831       7.63652663      -0.28200291       0.21528225      -0.09438093       1.52821839      -1.24142483      -0.04162072
8
Lattice="11.943780928846786 0.0 0.0 0.0 11.943780928846786 0.0 0.0 0.0 11.943780928846786" Properties=species:S:1:pos:R:3:momenta:R:3:forces:R:3 energy=-438.16282185716 free_energy=-438.16282185716 stress="-0.00034089227710246 -7.4621406618058e-05 0.00025522894587155 -7.4621406618058e-05 -0.00066986695213582 -0.00011647575065223 0.00025522894587155 -0.00011647575065223 -0.0014370873460249" pbc="T T T"
B        4.83131687       4.90158553       4.53982013       0.82664951      -0.03306424      -0.47920022       0.96969658       0.88419301       1.50922482
H        7.28736396       5.73509994       8.53368956      -0.20046617      -0.03187605      -0.18888115      -0.55499415       0.05490767       0.36641196
H        8.04749718       6.02584522       7.10370040      -0.21473634       0.22848006       0.05521714      -0.21196621       0.01514135      -0.52184824
H        7.09890655       7.24165589       7.75446886      -0.22265642      -0.10188552      -0.01610226      -0.39175787       1.14615455       0.25195948
H        4.92682863       4.92075098       3.41009137      -0.06674656      -0.12381310       0.20708256      -0.34942366      -0.32165415      -1.57653072
H        3.89628375       4.70212504       5.19392068       0.17861222       0.05663446       0.25433874      -0.75084704      -0.40165636      -0.04570622
H        5.78472984       5.26888323       5.12989053      -0.08471793      -0.14957402       0.26543408       0.12395963      -0.16637046       0.11646762
N        7.17919371       6.23662087       7.63486134      -0.21588879       0.15503855      -0.09786516       1.16765496      -1.21337190      -0.09861712
8
Lattice="11.943540430338711 0.0 0.0 0.0 11.943540430338711 0.0 0.0 0.0 11.943540430338711" Properties=species:S:1:pos:R:3:momenta:R:3:forces:R:3 energy=-438.1429873339 free_energy=-438.1429873339 stress="-0.00058468037531368 1.6559692317106e-05 0.00036900914059029 1.6559692317106e-05 -0.0008155604299169 -7.6858779822401e-05 0.00036900914059029 -7.6858779822401e-05 -0.0018298550901957" pbc="T T T"
B        4.83654674       4.90209244       4.53799719       0.87034694       0.00845954      -0.39062984       0.76270940       0.80790417       2.12535442
H        7.27822933       5.73415240       8.52502110      -0.22722844      -0.03360405      -0.16464050      -0.52284235      -0.12357564       0.63102691
H        8.03806220       6.03754795       7.10590652      -0.21439535       0.22593105       0.02289522       0.23806103      -0.13250282      -0.79685859
H        7.08888809       7.23856944       7.75410868      -0.24375834      -0.04265627      -0.00329355      -0.45427628       1.27004077       0.27081749
H        4.92451202       4.91488395       3.41851933      -0.08264068      -0.13926589       0.12010714      -0.29356388      -0.30106936      -1.97583676
H        3.90547823       4.70497099       5.20645195       0.14374891       0.03755808       0.24919674      -0.67777769      -0.37890087      -0.17862708
H        5.78208609       5.26193829       5.14315828      -0.07680586      -0.15711407       0.26949147       0.20300576      -0.13283490       0.03334228
N        7.17984949       6.23759255       7.63463580      -0.16922883       0.10062347      -0.10309504       0.74826212      -1.01187154      -0.10777806
8
Lattice="11.943311438216977 0.0 0.0 0.0 11.943311438216977 0.0 0.0 0.0 11.943311438216977" Properties=species:S:1:pos:R:3:momenta:R:3:forces:R:3 energy=-438.1292640102 free_energy=-438.1292640102 stress="-0.00079354636265138 9.0335297084398e-05 0.00044677245131907 9.0335297084398e-05 -0.00084087082195035 -3.878483045171e-05 0.00044677245131907 -3.878483045171e-05 -0.0020504885262753" pbc="T T T"
B        4.84249613       4.90171737       4.53826028       0.90509646       0.04608967      -0.27656329       0.54097416       0.72251922       2.57026931
H        7.26834741       5.73184257       8.51945930      -0.25264826      -0.04365395      -0.12902806      -0.48248273      -0.28151634       0.83985160
H        8.02970423       6.04790739       7.10782822      -0.19291935       0.21690512      -0.02216087       0.66397960      -0.26460474      -1.04009660
H        7.07828368       7.23745748       7.75601616      -0.26769560       0.01796797       0.00981874      -0.48852626       1.20245788       0.26386730
H        4.92201669       4.90721342       3.42385214      -0.09625221      -0.15400571       0.01821215      -0.24955487      -0.28184339      -2.18766074
H        3.91360721       4.70585396       5.22021217       0.11338715       0.01986692       0.23755667      -0.57575811      -0.34689676      -0.32764674
H        5.78045423       5.25359025       5.15816511      -0.06519518      -0.16326214       0.26993848       0.27973551      -0.09808661      -0.04990047
N        7.18117121       6.23732994       7.63601083      -0.14369937       0.06002142      -0.10773888       0.31751861      -0.65486041      -0.06752605
8
Lattice="11.943089125847871 0.0 0.0 0.0 11.943089125847871 0.0 0.0 0.0 11.943089125847871" Properties=species:S:1:pos:R:3:momenta:R:3:forces:R:3 energy=-438.13042594485 free_energy=-438.13042594485 stress="-0.00093943680361362 0.00013372788682888 0.00047467578030964 0.00013372788682888 -0.00074550889709295 -7.0426473424791e-06 0.00047467578030964 -7.0426473424791e-06 -0.0020511083473334" pbc="T T T"
B        4.84849082       4.90047819       4.54071874       0.93023410       0.07951809      -0.14622849       0.32295084       0.62976355       2.78671850
H        7.25716436       5.72782416       8.51751017      -0.27629704      -0.06045044      -0.08546228      -0.43464312      -0.39483875       0.95650850
H        8.02280251       6.05665444       7.10888416      -0.15303098       0.20241380      -0.07744049       0.99492145      -0.36457379      -1.20627532
H        7.06636037       7.23820389       7.76018597      -0.29282440       0.07113576       0.02204956      -0.48606864       0.95758866       0.23269015
H        4.91880946       4.89781021       3.42557896      -0.10818357      -0.16800700      -0.08872360      -0.21816002      -0.26158337      -2.16903891
H        3.92028661       4.70488523       5.23486652       0.08840212       0.00386619       0.21875902      -0.46008217      -0.30883527      -0.48018273
H        5.77938469       5.24394771       5.17473744      -0.04998714      -0.16791267       0.26666033       0.35170728      -0.06309004      -0.13163849
N        7.18245315       6.23592990       7.63900162      -0.13818045       0.03936549      -0.10958483      -0.06238731      -0.19717325       0.01147488
8
Lattice="11.942867653437157 0.0 0.0 0.0 11.942867653437157 0.0 0.0 0.0 11.942867653437157" Properties=species:S:1:pos:R:3:momenta:R:3:forces:R:3 energy=-438.14935959879 free_energy=-438.14935959879 stress="-0.00099788109670028 0.00013997177441204 0.00044263548679347 0.00013997177441204 -0.00054916124974123 1.4513829605446e-05 0.00044263548679347 1.4513829605446e-05 -0.0018115105620883" pbc="T T T"
B        4.85394250       4.89859649       4.54526429       0.94477289       0.10831930      -0.01064116       0.12097251       0.52955072       2.75849572
H        7.24425499       5.72206493       8.51930274      -0.29740980      -0.08130527      -0.03884017      -0.37904150      -0.44498405       0.95523555
H        8.01762000       6.06378399       7.10850592      -0.10060013       0.18394820      -0.13816665       1.16584069      -0.42056079      -1.25361674
H        7.05258434       7.24047326       7.76638482      -0.31688187       0.10928119       0.03232805      -0.44470185       0.58273357       0.18240201
H        4.91442594       4.88696501       3.42356491      -0.11881605      -0.18088210      -0.18943674      -0.19568317      -0.23631291      -1.91719590
H        3.92524766       4.70239440       5.24988193       0.06894803      -0.01025638       0.19250627      -0.34404508      -0.26753921      -0.62431952
H        5.77851438       5.23333843       5.19251406      -0.03135908      -0.17081651       0.25931656       0.41614644      -0.02893654      -0.21049757
N        7.18309063       6.23371200       7.64346100      -0.14846291       0.04164276      -0.10705806      -0.32987005       0.28357246       0.10813122
8
Lattice="11.942640838183987 0.0 0.0 0.0 11.942640838183987 0.0 0.0 0.0 11.942640838183987" Properties=species:S:1:pos:R:3:momenta:R:3:forces:R:3 energy=-438.18096160549 free_energy=-438.18096160549 stress="-0.00095718461571735 0.00011071390175043 0.00034883847825998 0.00011071390175043 -0.00028636602967685 2.3962359596319e-05 0.00034883847825998 2.3962359596319e-05 -0.0013475652851613" pbc="T T T"
B        4.85844740       4.89644886       4.55158420       0.94802486       0.13188515       0.11883999      -0.05824041       0.42147184       2.51469135
H        7.22942674       5.71484838       8.52453589      -0.31505370      -0.10279770       0.00492388      -0.31485815      -0.42464438       0.82943924
H        8.01423360       6.06953878       7.10627285      -0.04420249       0.16342805      -0.19765222       1.14054085      -0.42978405      -1.15869280
H        7.03673047       7.24376258       7.77418079      -0.33751211       0.12734214       0.03981973      -0.36937711       0.14392799       0.12005383
H        4.90857931       4.87515374       3.41810495      -0.12820983      -0.19197006      -0.27303347      -0.17559568      -0.20213840      -1.47237043
H        3.92840724       4.69887826       5.26457986       0.05471902      -0.02235939       0.15912495      -0.23796577      -0.22535609      -0.75002103
H        5.77765316       5.22226025       5.21096949      -0.00969796      -0.17174749       0.24763094       0.47008268       0.00324097      -0.28547197
N        7.18268743       6.23115756       7.64909595      -0.16784280       0.06615650      -0.09968448      -0.44529321       0.71125109       0.19913256
8
Lattice="11.942402983808169 0.0 0.0 0.0 11.942402983808169 0.0 0.0 0.0 11.942402983808169" Properties=species:S:1:pos:R:3:momenta:R:3:forces:R:3 energy=-438.21396061421 free_energy=-438.21396061421 stress="-0.00082297638490817 5.4784132916328e-05 0.00020114950993355 5.4784132916328e-05 4.1613902948573e-06 2.1504891323826e-05 0.00020114950993355 2.1504891323826e-05 -0.00070704285416445" pbc="T T T"
B        4.86185454       4.89448966       4.55922376       0.94057985       0.14964593       0.23249796      -0.21103757       0.30604743       2.11670559
H        7.21277271       5.70671516       8.53250956      -0.32848056      -0.12144498       0.03989199      -0.24047901      -0.33880928       0.59390573
H        8.01249111       6.07435342       7.10203369       0.00650278       0.14297467      -0.24862401       0.92520362      -0.39846933      -0.92480799
H        7.01892162       7.24748307       7.78301919      -0.35296708       0.12353412       0.04405676      -0.26937202      -0.29475893       0.05316769
H        4.90123382       4.86296228       3.40989342      -0.13619881      -0.20061348      -0.33113463      -0.15161427      -0.15688859      -0.90314463
H        3.92991188       4.69491991       5.27823539       0.04511351      -0.03236845       0.11971194      -0.14862555      -0.18381322      -0.85031550
H        5.77683310       5.21129222       5.22949081       0.01433790      -0.17071701       0.23168476       0.51030081       0.03228945      -0.35639426
N        7.18112471       6.22881908       7.65552159      -0.18867009       0.10893681      -0.08816137      -0.40719022       1.03283896       0.26647301
8
Lattice="11.942149590789503 0.0 0.0 0.0 11.942149590789503 0.0 0.0 0.0 11.942149590789503" Properties=species:S:1:pos:R:3:momenta:R:3:forces:R:3 energy=-438.23603604819 free_energy=-438.23603604819 stress="-0.00061944652837766 -1.3952727298368e-05 1.900318074821e-05 -1.3952727298368e-05 0.00028292844168066 9.9869621272845e-06 1.900318074821e-05 9.9869621272845e-06 3.7413765933618e-05" pbc="T T T"
B        4.86427200       4.89316869       4.56767388       0.92428424       0.16129281       0.32401844      -0.33532336       0.18620886       1.63727735
H        7.19465677       5.69835984       8.54223681      -0.33729786      -0.13445921       0.06133871      -0.15675835      -0.20590863       0.28256879
H        8.01202667       6.07876422       7.09595684       0.04314039       0.12439248      -0.28497147       0.56878027      -0.34095485      -0.58634269
H        6.99958551       7.25105024       7.79231653      -0.36245635       0.09928701       0.04494519      -0.15821071      -0.67870175      -0.01246914
H        4.89261374       4.85099753       3.39991278      -0.14249199      -0.20633535      -0.35935426      -0.11936815      -0.10110616      -0.28696358
H        3.93012292       4.69109935       5.29018031       0.03929456      -0.04032115       0.07590059      -0.08023991      -0.14448112      -0.92038249
H        5.77629975       5.20099894       5.24746707       0.03991785      -0.16798640       0.21187689       0.53452506       0.05740423      -0.42318404
N        7.17856136       6.22722754       7.66233143      -0.20422381       0.16408845      -0.07386119      -0.24957874       1.22625950       0.30535641
8
Lattice="11.941878016282171 0.0 0.0 0.0 11.941878016282171 0.0 0.0 0.0 11.941878016282171" Properties=species:S:1:pos:R:3:momenta:R:3:forces:R:3 energy=-438.23936309546 free_energy=-438.23936309546 stress="-0.00037910502372924 -8.1671844102186e-05 -0.0001735932782727 -8.1671844102186e-05 0.00051956387397365 -6.4467972437184e-06 -0.0001735932782727 -6.4467972437184e-06 0.00080886543922819" pbc="T T T"
B        4.86601484       4.89286888       4.57644975       0.90163593       0.16681790       0.39090998      -0.42875258       0.06585099       1.14053099
H        7.17564734       5.69052041       8.55259039      -0.34138580      -0.14017085       0.06651603      -0.06562341      -0.04935370      -0.06320587
H        8.01232701       6.08331477       7.08849842       0.06035310       0.10881615      -0.30289119       0.14004061      -0.27239124      -0.19243830
H        6.97935782       7.25395336       7.80153757      -0.36605521       0.05833077       0.04269305      -0.04848474      -0.97337521      -0.07262756
H        4.88315345       4.83981604       3.38928763      -0.14676853      -0.20886639      -0.35726031      -0.07767334      -0.03731167       0.31065272
H        3.92955101       4.68792466       5.29987425       0.03626513      -0.04634969       0.02948762      -0.03454130      -0.10819971      -0.95816634
H        5.77645310       5.19186010       5.26435453       0.06614453      -0.16394773       0.18869900       0.54096523       0.07803579      -0.48617167
N        7.17537253       6.22682539       7.66915661      -0.21010356       0.22533497      -0.05825636      -0.02602054       1.29543403       0.31902996
8
Lattice="11.941587609188005 0.0 0.0 0.0 11.941587609188005 0.0 0.0 0.0 11.941587609188005" Properties=species:S:1:pos:R:3:momenta:R:3:forces:R:3 energy=-438.22361993261 free_energy=-438.22361993261 stress="-0.00013550828989605 -0.00013685921458612 -0.00035194904339234 -0.00013685921458612 0.00069193064452152 -2.2916103121214e-05 -0.00035194904339234 -2.2916103121214e-05 0.0015366932163774" pbc="T T T"
B        4.86752114       4.89386741       4.58513848       0.87531026       0.16649872       0.43380726      -0.48932634      -0.05072125       0.67244475
H        7.15642305       5.68387688       8.56244052      -0.34086884      -0.13818688       0.05483705       0.02892898       0.10639161      -0.40267738
H        8.01282197       6.08847628       7.08030385       0.05636645       0.09662437      -0.30129973      -0.29243423      -0.20572888       0.20519157
H        6.95896160       7.25579960       7.81023765      -0.36453706       0.00574065       0.03768599       0.04844565      -1.15935372      -0.12480768
H        4.87341326       4.82987527       3.37914709      -0.14874965      -0.20814224      -0.32741252      -0.02759642       0.03092219       0.84360143
H        3.92876564       4.68578801       5.30693522       0.03495035      -0.05066166      -0.01779089      -0.01177565      -0.07558765      -0.96326425
H        5.77776268       5.18422849       5.27970604       0.09214657      -0.15902400       0.16260745       0.52896785       0.09405317      -0.54540013
N        7.17205529       6.22792770       7.67569829      -0.20462793       0.28711458      -0.04249342       0.21085252       1.25827733       0.31507156
8
Lattice="11.941279634898798 0.0 0.0 0.0 11.941279634898798 0.0 0.0 0.0 11.941279634898798" Properties=species:S:1:pos:R:3:momenta:R:3:forces:R:3 energy=-438.19541242341 free_energy=-438.19541242341 stress="8.3264390832547e-05 -0.00017160889441887 -0.00049517772297925 -0.00017160889441887 0.00078639630896726 -3.4808176217217e-05 -0.00049517772297925 -3.4808176217217e-05 0.0021647236689705" pbc="T T T"
B        4.86926897       4.89631838       4.59341556       0.84793173       0.16082338       0.45535675      -0.51605347      -0.15972278       0.26003543
H        7.13768007       5.67897376       8.57075863      -0.33609577      -0.12924802       0.02756075       0.12185768       0.24025220      -0.70226620
H        8.01296856       6.09459542       7.07208672       0.03246761       0.08760855      -0.28148803      -0.67506122      -0.14967614       0.56358741
H        6.93909716       7.25633466       7.81807337      -0.35917978      -0.05289363       0.03039833       0.12336119      -1.22881315      -0.16765763
H        4.86399335       4.82150672       3.37052101      -0.14825317      -0.20427545      -0.27412462       0.02857504       0.09994882       1.28536357
H        3.92831108       4.68494498       5.31113798       0.03427709      -0.05350606      -0.06437351      -0.01109653      -0.04703253      -0.93655308
H        5.78068722       5.17831242       5.29317195       0.11713279      -0.15361371       0.13397930       0.49900271       0.10569798      -0.60052922
N        7.16913655       6.23070773       7.68173438      -0.18838310       0.34505663      -0.02730284       0.42230024       1.13671415       0.30054993
8
Lattice="11.940956959793231 0.0 0.0 0.0 11.940956959793231 0.0 0.0 0.0 11.940956959793231" Properties=species:S:1:pos:R:3:momenta:R:3:forces:R:3 energy=-438.16515738511 free_energy=-438.16515738511 stress="0.00025685787305127 -0.00018148560750064 -0.00058811385503606 -0.00018148560750064 0.00079673250980348 -3.8400870567182e-05 -0.00058811385503606 -3.8400870567182e-05 0.0026530633493002" pbc="T T T"
B        4.87171262       4.90024947       4.60103861       0.82187360       0.15039400       0.45916365      -0.50960522      -0.25840800      -0.08405440
H        7.12006064       5.67616813       8.57668072      -0.32760321      -0.11496247      -0.01271170       0.20799297       0.33625313      -0.93773138
H        8.01231183       6.10186744       7.06451985      -0.00796507       0.08117523      -0.24644321      -0.97291682      -0.10896872       0.85243522
H        6.92036108       7.25544725       7.82479236      -0.35158879      -0.11197942       0.02132057       0.16911085      -1.18174645      -0.20053476
H        4.85546640       4.81490550       3.36427624      -0.14519100      -0.19749750      -0.20240613       0.08826990       0.16661016       1.62414643
H        3.92864513       4.68550971       5.31239244       0.03322811      -0.05514611      -0.10890911      -0.03079182      -0.02267828      -0.87990424
H        5.78561591       5.17417450       5.30448306       0.14042671      -0.14804737       0.10310974       0.45258953       0.11352773      -0.65076529
N        7.16710375       6.23519712       7.68710858      -0.16335771       0.39599305      -0.01305789       0.58637015       0.95172246       0.28032897
8
Lattice="11.940623634679497 0.0 0.0 0.0 11.940623634679497 0.0 0.0 0.0 11.940623634679497" Properties=species:S:1:pos:R:3:momenta:R:3:forces:R:3 energy=-438.14328521008 free_energy=-438.14328521008 stress="0.00037166671207251 -0.00016483893843619 -0.00062115203287172 -0.00016483893843619 0.00072275417694329 -3.1059190499562e-05 -0.00062115203287172 -3.1059190499562e-05 0.0029755023132391" pbc="T T T"
B        4.87524101       4.90556454       4.60782805       0.79896179       0.13580387       0.44897878      -0.47273651      -0.34511897      -0.35564664
H        7.10411055       5.67559957       8.57953730      -0.31596425      -0.09744870      -0.06258888       0.28253698       0.38316611      -1.09290920
H        8.01052049       6.11032495       7.05815531      -0.06042059       0.07653235      -0.20004186      -1.16577141      -0.08561561       1.05223545
H        6.90319945       7.25316528       7.83021188      -0.34345003      -0.16624461       0.01092927       0.18046799      -1.02353728      -0.22318267
H        4.84833632       4.81013134       3.36108633      -0.13951579      -0.18805830      -0.11724530       0.14914556       0.22834455       1.85678379
H        3.93010315       4.68745836       5.31071515       0.03087247      -0.05582011      -0.15022869      -0.06836012      -0.00243886      -0.79599185
H        5.79283249       5.17173977       5.31342496       0.16143636      -0.14253833       0.07020199       0.39229908       0.11836295      -0.69469163
N        7.16636235       6.24129184       7.69171041      -0.13213947       0.43767918       0.00009496       0.69340380       0.72278449       0.25770527
8
Lattice="11.94028448662326 0.0 0.0 0.0 11.94028448662326 0.0 0.0 0.0 11.94028448662326" Properties=species:S:1:pos:R:3:momenta:R:3:forces:R:3 energy=-438.13716336857 free_energy=-438.13716336857 stress="0.0004199500753106 -0.00012251924430837 -0.00058986405013099 -0.00012251924430837 0.00057106495855067 -1.1386910130682e-05 -0.00058986405013099 -1.1386910130682e-05 0.003117375372935" pbc="T T T"
B        4.88015029       4.91204631       4.61364441       0.78006651       0.11752636       0.42814649      -0.41019256      -0.41907121      -0.55356807
H        7.09025970       5.67717329       8.57886607      -0.30167121      -0.07917527      -0.11809348       0.34135323       0.37430313      -1.15889049
H        8.00740575       6.11983204       7.05337203      -0.11970608       0.07274692      -0.14665052      -1.24338452      -0.07992241       1.15157746
H        6.88788811       7.24964976       7.83419581      -0.33634037      -0.21071238      -0.00033435       0.15489632      -0.76658175      -0.23594002
H        4.84301666       4.80711524       3.36141841      -0.13113748      -0.17612040      -0.02337610       0.20917645       0.28305763       1.98389858
H        3.93287873       4.69063472       5.30620674       0.02638152      -0.05570179      -0.18721026      -0.12029633       0.01410028      -0.68850494
H        5.80249139       5.17080755       5.31981454       0.17958532      -0.13711665       0.03542727       0.32135457       0.12109408      -0.73059362
N        7.16721164       6.24875716       7.69545456      -0.09739615       0.46845545       0.01220067       0.73974802       0.47013304       0.23635327
8
Lattice="11.93994469543508 0.0 0.0 0.0 11.93994469543508 0.0 0.0 0.0 11.93994469543508" Properties=species:S:1:pos:R:3:momenta:R:3:forces:R:3 energy=-438.14930508945 free_energy=-438.14930508945 stress="0.000397962307977 -5.7680968854106e-05 -0.00049376247158216 -5.7680968854106e-05 0.00035447533127187 2.1079982807685e-05 -0.00049376247158216 2.1079982807685e-05 0.0030717225969207" pbc="T T T"
B        4.88661943       4.91935989       4.61837141       0.76499054       0.09593232       0.39956779      -0.32889484      -0.47983819      -0.67627667
H        7.07880890       5.68055107       8.57442644      -0.28505714      -0.06277310      -0.17478260       0.38087457       0.30605512      -1.13123071
H        8.00293424       6.13008531       7.05034154      -0.18009227       0.06883386      -0.09091949      -1.19987268      -0.09148638       1.14288035
H        6.87452390       7.24518625       7.83664046      -0.33150576      -0.24088275      -0.01204419       0.09327349      -0.43119306      -0.23978411
H        4.83981299       4.80566756       3.36551825      -0.11991256      -0.16175996       0.07447673       0.26655528       0.32877334       2.00650253
H        3.93701046       4.69475845       5.29904177       0.01909235      -0.05487651      -0.21866253      -0.18193594       0.02756923      -0.56218412
H        5.81459367       5.17106377       5.32348849       0.19422567      -0.13163815      -0.00096572       0.24377919       0.12263457      -0.75635916
N        7.16982440       6.25723277       7.69826617      -0.06191887       0.48710236       0.02344065       0.72137389       0.21684711       0.22087321
8
Lattice="11.939609436817124 0.0 0.0 0.0 11.939609436817124 0.0 0.0 0.0 11.939609436817124" Properties=species:S:1:pos:R:3:momenta:R:3:forces:R:3 energy=-438.17694624485 free_energy=-438.17694624485 stress="0.0003067158355551 2.3674166844751e-05 -0.00033675426811791 2.3674166844751e-05 9.3535714718555e-05 6.5688346017039e-05 -0.00033675426811791 6.5688346017039e-05 0.0028397789523953" pbc="T T T"
B        4.89468662       4.92706853       4.62191324       0.75300718       0.07144892       0.36622704      -0.23752806      -0.52741605      -0.72018999
H        7.06990103       5.68515461       8.56622231      -0.26659048      -0.05103528      -0.22781344       0.39832892       0.17865930      -1.01101472
H        7.99723707       6.14062944       7.04899538      -0.23530964       0.06382854      -0.03802362      -1.03319477      -0.11936418       1.02212888
H        6.86300858       7.24016661       7.83747131      -0.32995884      -0.25322585      -0.02380679       0.00175638      -0.04930392      -0.23696668
H        4.83889758       4.80548872       3.37338712      -0.10577866      -0.14515086       0.17114698       0.31951337       0.36355510       1.92467399
H        3.94237236       4.69944283       5.28946659       0.00861509      -0.05337121      -0.24340572      -0.24733232       0.03899883      -0.42290708
H        5.82896815       5.17209957       5.32431332       0.20477415      -0.12589634      -0.03846078       0.16407489       0.12388335      -0.76979300
N        7.17422441       6.26625123       7.70007854      -0.02888021       0.49339864       0.03424797       0.63256273      -0.00773178       0.21857721
8
Lattice="11.939283481385301 0.0 0.0 0.0 11.939283481385301 0.0 0.0 0.0 11.939283481385301" Properties=species:S:1:pos:R:3:momenta:R:3:forces:R:3 energy=-438.21303497247 free_energy=-438.21303497247 stress="0.00015323698634241 0.00011243003852017 -0.00012781618105069 0.00011243003852017 -0.00018418342455087 0.0001204506123108 -0.00012781618105069 0.0001204506123108 0.0024320358064877" pbc="T T T"
B        4.90423513       4.93467440       4.62420551       0.74358653       0.04469614       0.33180607      -0.14585620      -0.56198294      -0.67966540
H        7.06348427       5.69020019       8.55451436      -0.24715054      -0.04674229      -0.27241944       0.39212437      -0.00294312      -0.80608175
H        7.99060739       6.15090308       7.04900637      -0.27896662       0.05690907       0.00643875      -0.74696413      -0.16190048       0.79025783
H        6.85303519       7.23504839       7.83664784      -0.33251629      -0.24615374      -0.03532741      -0.10695840       0.33532525      -0.23118506
H        4.84028255       4.80619484       3.38476912      -0.08891423      -0.12675925       0.26101963       0.36622315       0.38542480       1.73751997
H        3.94867609       4.70423509       5.27779146      -0.00505851      -0.05119678      -0.26060628      -0.30947458       0.04975472      -0.27739176
H        5.84527158       5.17344731       5.32220735       0.21096819      -0.11976503      -0.07625929       0.08695561       0.12563301      -0.76888372
N        7.18026932       6.27528401       7.70084220      -0.00199780       0.48905375       0.04545986       0.46695190      -0.16669974       0.24048119
8
Lattice="11.938970790105207 0.0 0.0 0.0 11.938970790105207 0.0 0.0 0.0 11.938970790105207" Properties=species:S:1:pos:R:3:momenta:R:3:forces:R:3 energy=-438.24841011625 free_energy=-438.24841011625 stress="-4.7606244386474e-05 0.00019674274850971 0.00011780862700629 0.00019674274850971 -0.00044677635952195 0.00018152499758865 0.00011780862700629 0.00018152499758865 0.0018702451649148" pbc="T T T"
B        4.91499361       4.94167979       4.62523317       0.73651002       0.01643616       0.30076113      -0.06381680      -0.58380959      -0.54834947
H        7.05929085       5.69476938       8.53980792      -0.22798485      -0.05231567      -0.30459518       0.36253324      -0.22754794      -0.53312151
H        7.98348177       6.16030792       7.04979917      -0.30528505       0.04746023       0.03700901      -0.35529177      -0.21611562       0.45719520
H        6.84410119       7.23029343       7.83416904      -0.33954507      -0.22076951      -0.04651895      -0.21380484       0.67125883      -0.22718823
H        4.84380633       4.80736400       3.39916287      -0.06975403      -0.10734561       0.33841953       0.40478593       0.39244455       1.44410364
H        3.95548902       4.70867736       5.26437689      -0.02153096      -0.04835112      -0.27001438      -0.36086823       0.06141421      -0.13259821
H        5.86300925       5.17463619       5.31716224       0.21298934      -0.11322506      -0.11342617       0.01704053       0.12851601      -0.75199357
N        7.18764805       6.28381040       7.70054119       0.01467610       0.47818267       0.05849124       0.21952122      -0.22180376       0.29904124
8
Lattice="11.938674131931055 0.0 0.0 0.0 11.938674131931055 0.0 0.0 0.0 11.938674131931055" Properties=species:S:1:pos:R:3:momenta:R:3:forces:R:3 energy=-438.27456672785 free_energy=-438.27456672785 stress="-0.00027168485220031 0.00026356993461336 0.00037746532767081 0.00026356993461336 -0.00066262019968027 0.00024267428303247 0.00037746532767081 0.00024267428303247 0.0011897294208301" pbc="T T T"
B        4.92655127       4.94765472       4.62505365       0.73153844      -0.01256010       0.27798727      -0.00069737      -0.59327346      -0.32191320
H        7.05684531       5.69790481       8.52282016      -0.21041784      -0.06940128      -0.32169659       0.31251405      -0.47610198      -0.21944485
H        7.97640635       6.16828555       7.05059997      -0.30991415       0.03511446       0.04918625       0.11065839      -0.27676144       0.04774694
H        6.83556009       7.22629812       7.83008113      -0.35057528      -0.18094929      -0.05755883      -0.29604362       0.90874039      -0.22956048
H        4.84914107       4.80859495       3.41585397      -0.04889708      -0.08784210       0.39795819       0.43333086       0.38298095       1.04556778
H        3.96226778       4.71237601       5.24962638      -0.04004105      -0.04479453      -0.27194577      -0.39437588       0.07554394       0.00497326
H        5.88156928       5.17525734       5.30926414       0.21139803      -0.10630975      -0.14903318      -0.04146365       0.13298168      -0.71796576
N        7.19589547       6.29139271       7.69921609       0.01716923       0.46685455       0.07528319      -0.10764422      -0.14807497       0.40163330
8
Lattice="11.93839476298921 0.0 0.0 0.0 11.93839476298921 0.0 0.0 0.0 11.93839476298921" Properties=species:S:1:pos:R:3:momenta:R:3:forces:R:3 energy=-438.28633337565 free_energy=-438.28633337565 stress="-0.00048589224377733 0.00030123018542377 0.00062105757866068 0.00030123018542377 -0.00080577092307223 0.00029521440060687 0.00062105757866068 0.00029521440060687 0.00044095676493567" pbc="T T T"
B        4.93839110       4.95229627       4.62382625       0.72815503      -0.04159901       0.26838839       0.03558930      -0.59107341      -0.00232824
H        7.05550661       5.69871747       8.50443258      -0.19553732      -0.09845959      -0.32290046       0.24837974      -0.72107759       0.09702234
H        7.96998556       6.17438991       7.05053270      -0.29081641       0.01984461       0.04035379       0.59731294      -0.33543909      -0.39300895
H        6.82670787       7.22333018       7.82449329      -0.36411378      -0.13274679      -0.06884075      -0.33249898       1.01205332      -0.24099175
H        4.85582387       4.80956363       3.43396219      -0.02700399      -0.06922734       0.43476631       0.45028912       0.35620285       0.54873307
H        3.96840920       4.71506459       5.23399358      -0.05952673      -0.04042799      -0.26713047      -0.40418029       0.09339870       0.12995628
H        5.90027113       5.17502391       5.29871962       0.20702319      -0.09904934      -0.18222060      -0.08506887       0.13930387      -0.66618781
N        7.20442817       6.29774064       7.69699392       0.00223510       0.46180885       0.09786454      -0.49378337       0.05194638       0.54258175
8
Lattice="11.938132211631125 0.0 0.0 0.0 11.938132211631125 0.0 0.0 0.0 11.938132211631125" Properties=species:S:1:pos:R:3:momenta:R:3:forces:R:3 energy=-438.28368500865 free_energy=-438.28368500865 stress="-0.0006518314384147 0.00030220854481942 0.00081361346582228 0.00030220854481942 -0.0008604101916577 0.00032905452476467 0.00081361346582228 0.00032905452476467 -0.00031174119515001" pbc="T T T"
B        4.94994728       4.95546661       4.62184486       0.72551308      -0.07010355       0.27637341       0.03926968      -0.57870876       0.39674067
H        7.05454649       5.69649160       8.48562940      -0.18395235      -0.13842172      -0.30950877       0.17980705      -0.92815243       0.37133335
H        7.96480967       6.17834522       7.04876581      -0.24917242       0.00210508       0.01072326       1.02991304      -0.38054077      -0.79952354
H        6.81689319       7.22148616       7.81760386      -0.37780933      -0.08327771      -0.08083287      -0.30979323       0.96979773      -0.26096710
H        4.86331594       4.81006270       3.45250281      -0.00471591      -0.05241944       0.44480354       0.45488412       0.31284109      -0.02897725
H        3.97332254       4.71664605       5.21800210      -0.07871061      -0.03508936      -0.25654199      -0.38667729       0.11562876       0.23863669
H        5.91843450       5.17381143       5.28588632       0.20087268      -0.09143885      -0.21220609      -0.11118551       0.14759340      -0.59664937
N        7.21260755       6.30274916       7.69412101      -0.03162483       0.46875350       0.12758472      -0.88893841       0.34289979       0.69778070
8
Lattice="11.937884231104606 0.0 0.0 0.0 11.937884231104606 0.0 0.0 0.0 11.937884231104606" Properties=species:S:1:pos:R:3:momenta:R:3:forces:R:3 energy=-438.27169833554 free_energy=-438.27169833554 stress="-0.00073366403269708 0.00026514403169708 0.00092163646950427 0.00026514403169708 -0.0008228028512976 0.00033504002987154 0.00092163646950427 0.00033504002987154 -0.00099617614097093" pbc="T T T"
B        4.96068717       4.95720055       4.61956422       0.72247441      -0.09766178       0.30518586       0.00722246      -0.55919011       0.84464253
H        7.05326051       5.69077311       8.46742160      -0.17565712      -0.18652846      -0.28496588       0.11859845      -1.06126552       0.55971609
H        7.96136346       6.18008075       7.04469940      -0.18994890      -0.01706526      -0.03601085       1.32574658      -0.39889809      -1.09612537
H        6.80563419       7.22068059       7.80973114      -0.38892534      -0.03938281      -0.09389909      -0.22668877       0.79786457      -0.28570536
H        4.87108819       4.81001470       3.47046263       0.01740239      -0.03817395       0.42536468       0.44778240       0.25608782      -0.65440728
H        3.97652077       4.71720364       5.20226892      -0.09622752      -0.02858028      -0.24123717      -0.34107121       0.14210289       0.32916060
H        5.93546848       5.17166809       5.27130025       0.19404248      -0.08343502      -0.23827255      -0.11824795       0.15778825      -0.51003514
N        7.21983175       6.30650017       7.69098873      -0.08298625       0.49082439       0.16428620      -1.21672912       0.66284861       0.82994630
8
Lattice="11.937646983247502 0.0 0.0 0.0 11.937646983247502 0.0 0.0 0.0 11.937646983247502" Properties=species:S:1:pos:R:3:momenta:R:3:forces:R:3 energy=-438.25803693772 free_energy=-438.25803693772 stress="-0.00070764189081433 0.00019521749122789 0.00092212752378025 0.00019521749122789 -0.00069994215916232 0.00030787791935549 0.00092212752378025 0.00030787791935549 -0.0015423745896492" pbc="T T T"
B        4.97020495       4.95768251       4.61760430       0.71762811      -0.12410825       0.35603882      -0.06126298      -0.53778536       1.29068125
H        7.05109369       5.68143010       8.45076015      -0.17003364      -0.23846696      -0.25443973       0.07604656      -1.09024884       0.63013788
H        7.95993126       6.17973784       7.03815413      -0.12161373      -0.03608237      -0.09278803       1.41823154      -0.37954893      -1.21840631
H        6.79271830       7.22066816       7.80133439      -0.39492906      -0.00647056      -0.10816447      -0.09403692       0.53304199      -0.30978953
H        4.87871944       4.80945919       3.48688683       0.03889953      -0.02697535       0.37576184       0.43177424       0.19239851      -1.27524052
H        3.97771573       4.71697882       5.18751621      -0.11078372      -0.02072145      -0.22222014      -0.26936013       0.17188717       0.40139208
H        5.95096669       5.16879357       5.25568581       0.18759449      -0.07497667      -0.25975038      -0.10612259       0.16961782      -0.40793169
N        7.22564305       6.30922889       7.68813850      -0.14684899       0.52770114       0.20597930      -1.40486388       0.93609270       0.90384233
8
Lattice="11.937415452258332 0.0 0.0 0.0 11.937415452258332 0.0 0.0 0.0 11.937415452258332" Properties=species:S:1:pos:R:3:momenta:R:3:forces:R:3 energy=-438.24907828561 free_energy=-438.24907828561 stress="-0.00057323104350031 0.00010344816814374 0.00081228379638897 0.00010344816814374 -0.00050904359614684 0.00024887368859883 0.00081228379638897 0.00024887368859883 -0.0018978897771125" pbc="T T T"
B        4.97829894       4.95720084       4.61671621       0.70929787      -0.14959623       0.42719781      -0.16449619      -0.52146935       1.66791846
H        7.04774714       5.66867831       8.43644549      -0.16600309      -0.28888352      -0.22392049       0.05928852      -1.00150280       0.57457980
H        7.96052518       6.17765009       7.02949767      -0.05463369      -0.05301879      -0.15040876       1.28684089      -0.31705948      -1.13853003
H        6.77825828       7.22109087       7.79300541      -0.39399397       0.01220743      -0.12345774       0.06739063       0.22429135      -0.32661419
H        4.88598050       4.80852388       3.50096996       0.05948422      -0.01891643       0.29805206       0.41128362       0.13074870      -1.82345866
H        3.97689028       4.71632459       5.17455367      -0.12128308      -0.01139545      -0.20035992      -0.17671046       0.20350916       0.45654093
H        5.96478079       5.16549500       5.23993232       0.18245072      -0.06599988      -0.27600983      -0.07556061       0.18257605      -0.29263183
N        7.22981864       6.31126615       7.68623284      -0.21555356       0.57546320       0.24926331      -1.42001580       1.09373810       0.89477593
8
Lattice="11.937184187435067 0.0 0.0 0.0 11.937184187435067 0.0 0.0 0.0 11.937184187435067" Properties=species:S:1:pos:R:3:momenta:R:3:forces:R:3 energy=-438.24729576518 free_energy=-438.24729576518 stress="-0.00034852799571756 3.3910913718328e-06 0.00061008354060395 3.3910913718328e-06 -0.00027050323533595 0.00016552097354505 0.00061008354060395 0.00016552097354505 -0.0020326300823892" pbc="T T T"
B        4.98500093       4.95609197       4.61769876       0.69567888      -0.17460672       0.51338974      -0.29875002      -0.51853451       1.90186487
H        7.04322772       5.65306484       8.42504275      -0.16222107      -0.33211174      -0.19917984       0.06945944      -0.79891228       0.40676488
H        7.96286577       6.17430109       7.01964329       0.00077727      -0.06588856      -0.19942189       0.95940145      -0.21612807      -0.87540259
H        6.76268135       7.22153658       7.78541588      -0.38519739       0.01564089      -0.13933064       0.23519950      -0.08389139      -0.33294936
H        4.89287422       4.80739238       3.51214144       0.07908861      -0.01360010       0.19760106       0.39243423       0.08231590      -2.22284669
H        3.97431841       4.71564761       5.16421738      -0.12688419      -0.00055708      -0.17636866      -0.06924889       0.23488328       0.49672941
H        5.97704376       5.16213247       5.22502445       0.17933683      -0.05645424      -0.28649216      -0.03027998       0.19584186      -0.16798615
N        7.23240752       6.31297193       7.68598343      -0.28086978       0.62742769       0.29010841      -1.27105784       1.09887093       0.80494038
8
Lattice="11.936947902219035 0.0 0.0 0.0 11.936947902219035 0.0 0.0 0.0 11.936947902219035" Properties=species:S:1:pos:R:3:momenta:R:3:forces:R:3 energy=-438.25134883228 free_energy=-438.25134883228 stress="-6.9868115631911e-05 -9.0981840754052e-05 0.00035110382143746 -9.0981840754052e-05 -9.3451648631688e-06 7.0377994808366e-05 0.00035110382143746 7.0377994808366e-05 -0.0019483097394128" pbc="T T T"
B        4.99054705       4.95468639       4.62127318       0.67512803      -0.19990487       0.60591365      -0.45588671      -0.53484878       1.93178648
H        7.03782130       5.63540612       8.41681304      -0.15746979      -0.36315319      -0.18466261       0.10110263      -0.50714335       0.16252435
H        7.96642516       6.17026234       7.00989390       0.03687130      -0.07313510      -0.23237049       0.50707722      -0.08851243      -0.48784060
H        6.74664703       7.22159694       7.77922020      -0.36867503       0.00488221      -0.15518434       0.38740215      -0.35418242      -0.32673812
H        4.89961898       4.80627763       3.52013486       0.09789127      -0.01013033       0.08312618       0.37997814       0.05627459      -2.41045051
H        3.97052274       4.71535096       5.15726748      -0.12703564       0.01172566      -0.15081908       0.04528742       0.26386658       0.52454422
H        5.98813184       5.15906529       5.21192863       0.17874732      -0.04631595      -0.29076500       0.02452980       0.20829127      -0.03877541
N        7.23369993       6.31467614       7.68804296      -0.33576926       0.67587513       0.32503106      -1.00316868       0.95007747       0.65473668
8
Lattice="11.936702235869658 0.0 0.0 0.0 11.936702235869658 0.0 0.0 0.0 11.936702235869658" Properties=species:S:1:pos:R:3:momenta:R:3:forces:R:3 energy=-438.25793411875 free_energy=-438.25793411875 stress="0.0002219259486875 -0.00016804572714953 7.6852650680451e-05 -0.00016804572714953 0.00024894766618326 -2.2720740806091e-05 7.6852650680451e-05 -2.2720740806091e-05 -0.0016739700783544" pbc="T T T"
B        4.99530684       4.95326793       4.62795155       0.64661985      -0.22639904       0.69387572      -0.62240422      -0.57140433       1.72974538
H        7.03200790       5.61669395       8.41167673      -0.15086696      -0.37844612      -0.18293184       0.14441151      -0.16326317      -0.11321543
H        7.97051897       6.16612734       7.00168960       0.04963844      -0.07381386      -0.24493291       0.01393691       0.04986571      -0.05090063
H        6.73092334       7.22091295       7.77494261      -0.34548697      -0.01757321      -0.17035938       0.50670670      -0.56145134      -0.30835835
H        4.90658659       4.80540397       3.52502551       0.11621928      -0.00728705      -0.03425590       0.37564349       0.05713887      -2.35522821
H        3.96618327       4.71578928       5.15427481      -0.12155878       0.02528749      -0.12419362       0.15921627       0.28843143       0.54262832
H        5.99857990       5.15660921       5.20146352       0.18088642      -0.03564284      -0.28867110       0.08129293       0.21847770       0.08907247
N        7.23414657       6.31663893       7.69289095      -0.37578319       0.71370639       0.35170077      -0.67371461       0.67521266       0.47339883
8
Lattice="11.936444207711373 0.0 0.0 0.0 11.936444207711373 0.0 0.0 0.0 11.936444207711373" Properties=species:S:1:pos:R:3:momenta:R:3:forces:R:3 energy=-438.26371470109 free_energy=-438.26371470109 stress="0.0004908742885803 -0.00021986587327957 -0.00017559886102728 -0.00021986587327957 0.00048051454069345 -0.00010200996261871 -0.00017559886102728 -0.00010200996261871 -0.0012595192562568" pbc="T T T"
B        4.99969599       4.95204574       4.63793871       0.61009259      -0.25490510       0.76618404      -0.77948647      -0.62271057       1.31187843
H        7.02634514       5.59797510       8.40922746      -0.14209680      -0.37642525      -0.19440558       0.18826730       0.19177122      -0.37730252
H        7.97441725       6.16244493       6.99633321       0.03893640      -0.06777912      -0.23638428      -0.44675973       0.18369139       0.36690113
H        6.71624973       7.21920838       7.77288336      -0.31751124      -0.04824514      -0.18427383       0.58134639      -0.69183897      -0.27969795
H        4.91421592       4.80498990       3.52721675       0.13439374      -0.00379637      -0.14287798       0.37699823       0.08280703      -2.06953795
H        3.96202696       4.71723583       5.15553255      -0.11065624       0.03986183      -0.09689826       0.26549288       0.30692498       0.55337856
H        6.00897449       5.15500425       5.19419080       0.18558761      -0.02458540      -0.28041102       0.13069936       0.22473000       0.20904439
N        7.23425764       6.31902823       7.70074683      -0.39910465       0.73569363       0.36922406      -0.33202489       0.31747076       0.28685526
8
Lattice="11.936172436392923 0.0 0.0 0.0 11.936172436392923 0.0 0.0 0.0 11.936172436392923" Properties=species:S:1:pos:R:3:momenta:R:3:forces:R:3 energy=-438.26654235217 free_energy=-438.26654235217 stress="0.00071118497529415 -0.00024242675046475 -0.00037954756660229 -0.00024242675046475 0.000665223288792 -0.00015971971764987 -0.00037954756660229 -0.00015971971764987 -0.00076613397754445" pbc="T T T"
B        5.00410245       4.95114093       4.65110057       0.56661861      -0.28588014       0.81367559      -0.90554237      -0.67801562       0.73382506
H        7.02136094       5.58023444       8.40879858      -0.13139635      -0.35754267      -0.21763042       0.22280512       0.52057932      -0.59584228
H        7.97744184       6.15966705       6.99478749       0.00768835      -0.05557516      -0.20895661      -0.82428162       0.30108027       0.71580166
H        6.70322630       7.21630833       7.77307689      -0.28714888      -0.08320610      -0.19648247       0.60491606      -0.74071942      -0.24345264
H        4.92292915       4.80522829       3.52737386       0.15255397       0.00136361      -0.23264371       0.37839477       0.12547894      -1.60454598
H        3.95873059       4.71986410       5.16102489      -0.09487872       0.05511208      -0.06925294       0.35822402       0.31818815       0.55878952
H        6.01985445       5.15439578       5.19036090       0.19224464      -0.01339155      -0.26655340       0.16280643       0.22532161       0.31488952
N        7.23451519       6.32191336       7.71153872      -0.40604710       0.73894769       0.37785668      -0.01052066      -0.07735481       0.11506110
8
Lattice="11.935887122191994 0.0 0.0 0.0 11.935887122191994 0.0 0.0 0.0 11.935887122191994" Properties=species:S:1:pos:R:3:momenta:R:3:forces:R:3 energy=-438.26604176105 free_energy=-438.26604176105 stress="0.00086780783846792 -0.000235156410388 -0.00051945437396519 -0.000235156410388 0.00078818178095747 -0.00019215060675218 -0.00051945437396519 -0.00019215060675218 -0.00025648579464799" pbc="T T T"
B        5.00883837       4.95058536       4.66700073       0.51834402      -0.31924807       0.83058054      -0.98063529      -0.72461133       0.07284334
H        7.01747568       5.56429920       8.40956647      -0.11945296      -0.32395809      -0.24980025       0.24063962       0.79338263      -0.74667601
H        7.97903444       6.15811617       6.99757826      -0.03924271      -0.03824805      -0.16687601      -1.08998399       0.39425960       0.96585013
H        6.69224389       7.21214540       7.77530757      -0.25703472      -0.11850667      -0.20670970       0.57580261      -0.71068648      -0.20256920
H        4.93306571       4.80626371       3.52632065       0.17055037       0.00875577      -0.29658469       0.37328958       0.17466641      -1.03276705
H        3.95685268       4.72374172       5.17045511      -0.07504943       0.07066070      -0.04149347       0.43294177       0.32158280       0.56041759
H        6.03163469       5.15482659       5.18991999       0.19979877      -0.00239387      -0.24797550       0.16865025       0.21871782       0.40159645
N        7.23531414       6.32526980       7.72493036      -0.39822238       0.72281990       0.37870792       0.27077975      -0.47020872      -0.02658013
8
Lattice="11.935589858655973 0.0 0.0 0.0 11.935589858655973 0.0 0.0 0.0 11.935589858655973" Properties=species:S:1:pos:R:3:momenta:R:3:forces:R:3 energy=-438.26349320625 free_energy=-438.26349320625 stress="0.00095436836210262 -0.00020034424089738 -0.00058851425888282 -0.00020034424089738 0.00084067696646033 -0.00019854326120219 -0.00058851425888282 -0.00019854326120219 0.00021331241388872" pbc="T T T"
B        5.01411621       4.95032861       4.68498158       0.46822544      -0.35437032       0.81493210      -0.99059838      -0.75137031      -0.59526286
H        7.01495619       5.55077246       8.41066502      -0.10725552      -0.27908464      -0.28731797       0.23694318       0.98872545      -0.81828258
H        7.97879498       6.15797114       7.00478615      -0.09600413      -0.01714109      -0.11549082      -1.23091528       0.45882335       1.10187828
H        6.68345251       7.20675616       7.77916453      -0.22976694      -0.15049126      -0.21485738       0.49682107      -0.61034701      -0.15986262
H        4.94483876       4.80817175       3.52492484       0.18795420       0.01844259      -0.33141628       0.35654181       0.22048566      -0.42762138
H        3.95679488       4.72883370       5.18331270      -0.05216642       0.08612179      -0.01379844       0.48673206       0.31695675       0.55941221
H        6.04455667       5.15623784       5.19256092       0.20682392       0.00802241      -0.22576514       0.14195987       0.20387367       0.46620999
N        7.23693070       6.32899039       7.74038721      -0.37801481       0.68844458       0.37352235       0.49718405      -0.82923559      -0.12858302
8
Lattice="11.935283335413544 0.0 0.0 0.0 11.935283335413544 0.0 0.0 0.0 11.935283335413544" Properties=species:S:1:pos:R:3:momenta:R:3:forces:R:3 energy=-438.26081148692 free_energy=-438.26081148692 stress="0.00097008100246449 -0.00014280492973527 -0.00058560970055927 -0.00014280492973527 0.00082000782284871 -0.00017994935141831 -0.00058560970055927 -0.00017994935141831 0.00059871532889052" pbc="T T T"
B        5.02003928       4.95025026       4.70425638       0.41965405      -0.39013879       0.76800491      -0.92957353      -0.75109136      -1.21310984
H        7.01389317       5.53999452       8.41128725      -0.09593357      -0.22712434      -0.32627825       0.20864599       1.09191490      -0.80689716
H        7.97649890       6.15926747       7.01608628      -0.15637145       0.00628958      -0.06061608      -1.24299268       0.49226506       1.11691707
H        6.67675789       7.20027069       7.78410943      -0.20762046      -0.17610269      -0.22097204       0.37473131      -0.45355204      -0.11794851
H        4.95831110       4.81094579       3.52399609       0.20416096       0.03008381      -0.33716433       0.32558833       0.25574490       0.15118388
H        3.95878444       4.73501265       5.19895109      -0.02730134       0.10113133       0.01368939       0.51819475       0.30460408       0.55659952
H        6.05866145       5.15847741       5.19779200       0.21169794       0.01745168      -0.20109216       0.08089184       0.18049820       0.50847184
N        7.23950800       6.33290040       7.75725350      -0.34841978       0.63836732       0.36439609       0.65879712      -1.12249895      -0.18952252
8
Lattice="11.93497099791569 0.0 0.0 0.0 11.93497099791569 0.0 0.0 0.0 11.93497099791569" Properties=species:S:1:pos:R:3:momenta:R:3:forces:R:3 energy=-438.25907778262 free_energy=-438.25907778262 stress="0.00092037411609574 -6.9792384274975e-05 -0.00051372890689961 -6.9792384274975e-05 0.0007307144455517 -0.0001390149663005 -0.00051372890689961 -0.0001390149663005 0.0008707480765009" pbc="T T T"
B        5.02659925       4.95017871       4.72398778       0.37606287      -0.42517409       0.69327618      -0.79922818      -0.72101413      -1.74317526
H        7.01419361       5.53203008       8.41075932      -0.08668415      -0.17277670      -0.36271624       0.15554446       1.09542784      -0.71479516
H        7.97210196       6.16191104       7.03080356      -0.21406703       0.03051719      -0.00823460      -1.12724766       0.49437708       1.01006679
H        6.67183883       7.19289431       7.78953831      -0.19236153      -0.19309273      -0.22517646       0.22193700      -0.26036150      -0.07831780
H        4.97338567       4.81449722       3.52421168       0.21850467       0.04307623      -0.31625987       0.28049195       0.27652990       0.66283972
H        3.96286903       4.74207669       5.21665616      -0.00151375       0.11534896       0.04087458       0.52791079       0.28540555       0.55227493
H        6.07378049       5.16131610       5.20500360       0.21278617       0.02550007      -0.17505120      -0.01355283       0.14882285       0.52952467
N        7.24305064       6.33677931       7.77481852      -0.31287055       0.57656112       0.35344292       0.74834320      -1.31957887      -0.21362787
8
Lattice="11.93465659666747 0.0 0.0 0.0 11.93465659666747 0.0 0.0 0.0 11.93465659666747" Properties=species:S:1:pos:R:3:momenta:R:3:forces:R:3 energy=-438.25761220513 free_energy=-438.25761220513 stress="0.00081149897298106 9.4263415442376e-06 -0.00037941462646556 9.4263415442376e-06 0.00058145265733241 -7.9349377467803e-05 -0.00037941462646556 -7.9349377467803e-05 0.0010137705045639" pbc="T T T"
B        5.03367724       4.94991440       4.74334196       0.34050932      -0.45804738       0.59551830      -0.61099839      -0.66236821      -2.16505078
H        7.01557874       5.52667085       8.40858559      -0.08072951      -0.12101211      -0.39281043       0.07697525       0.99540864      -0.54822444
H        7.96573778       6.16569672       7.04795583      -0.26297995       0.05399306       0.03573420      -0.88943955       0.46484549       0.78186511
H        6.66817617       7.18488405       7.79482594      -0.18508899      -0.20028007      -0.22760184       0.05355464      -0.05434046      -0.04253498
H        4.98980626       4.81866814       3.52607101       0.23034362       0.05667715      -0.27258806       0.22300670       0.28163050       1.08461427
H        3.96891881       4.74977255       5.23569632       0.02417360       0.12845879       0.06772658       0.51717325       0.26030001       0.54653117
H        6.08954320       5.16447111       5.21352309       0.20868267       0.03180514      -0.14852005      -0.13340331       0.11032662       0.53364751
N        7.24742539       6.34038847       7.79236286      -0.27506225       0.50841422       0.34265054       0.76124059      -1.39512075      -0.19364619
8
Lattice="11.934343882593272 0.0 0.0 0.0 11.934343882593272 0.0 0.0 0.0 11.934343882593272" Properties=species:S:1:pos:R:3:momenta:R:3:forces:R:3 energy=-438.25420770734 free_energy=-438.25420770734 stress="0.00065606801526068 8.4117767238656e-05 -0.00019346810980415 8.4117767238656e-05 0.00038723857254617 -5.9685080018919e-06 -0.00019346810980415 -5.9685080018919e-06 0.0010262924222543" pbc="T T T"
B        5.04104625       4.94925651       4.76152728       0.31540976      -0.48746292       0.48028521      -0.38004884      -0.57898423      -2.46982988
H        7.01758912       5.52345538       8.40446729      -0.07925387      -0.07677335      -0.41317664      -0.02503800       0.79591180      -0.31929283
H        7.95770926       6.17033753       7.06629444      -0.29747643       0.07524773       0.06566097      -0.54251903       0.40631761       0.44131109
H        6.66509421       7.17651829       7.79935870      -0.18606194      -0.19772514      -0.22838010      -0.11080605       0.13785982      -0.01048724
H        5.00716602       4.82325559       3.52987659       0.23913342       0.07013086      -0.21080413       0.15587609       0.27173822       1.40630737
H        3.97663462       4.75782559       5.25535726       0.04884205       0.14020758       0.09422103       0.48922161       0.23055330       0.53872581
H        6.10539556       5.16763567       5.22265744       0.19834421       0.03607811      -0.12217110      -0.26926464       0.06685228       0.52511559
N        7.25236445       6.34350263       7.80919250      -0.23900011       0.44032864       0.33427732       0.68547010      -1.32940814      -0.11785952
8
Lattice="11.934036174767787 0.0 0.0 0.0 11.934036174767787 0.0 0.0 0.0 11.934036174767787" Properties=species:S:1:pos:R:3:momenta:R:3:forces:R:3 energy=-438.24635480568 free_energy=-438.24635480568 stress="0.0004719629071874 0.00014305707244353 2.7768554271692e-05 0.00014305707244353 0.00016772219458402 7.4399883931175e-05 2.7768554271692e-05 7.4399883931175e-05 0.00091965242953482" pbc="T T T"
B        5.04838096       4.94803167       4.77782628       0.30238740      -0.51241071       0.35335827      -0.12497732      -0.47609635      -2.65998588
H        7.01960085       5.52170832       8.39829874      -0.08331462      -0.04457486      -0.42129110      -0.14617721       0.51053665      -0.04672317
H        7.94846760       6.17550086       7.08435305      -0.31292850       0.09302809       0.07662495      -0.11201199       0.32448362       0.01026142
H        6.66181809       7.16806221       7.80256047      -0.19460548      -0.18677981      -0.22770163      -0.25111292       0.29058340       0.01855473
H        5.02492860       4.82804395       3.53573744       0.24450190       0.08275988      -0.13592809       0.08213867       0.24848231       1.62524560
H        3.98556858       4.76597396       5.27496927       0.07175539       0.15043331       0.12026145       0.44838162       0.19750717       0.52782849
H        6.12063845       5.17051428       5.23173148       0.18128969       0.03814871      -0.09650681      -0.40964332       0.02062891       0.50863779
N        7.25747705       6.34594317       7.82467030      -0.20902815       0.37942745       0.33103411       0.51741559      -1.11443919       0.01400276
8
Lattice="11.933736014742896 0.0 0.0 0.0 11.933736014742896 0.0 0.0 0.0 11.933736014742896" Properties=species:S:1:pos:R:3:momenta:R:3:forces:R:3 energy=-438.23329265807 free_energy=-438.23329265807 stress="0.00028304752675616 0.00017667140360277 0.00026061061101281 0.00017667140360277 -5.3433785589013e-05 0.00015328998874042 0.00026061061101281 0.00015328998874042 0.00071883505617814" pbc="T T T"
B        5.05527911       4.94612119       4.79162400       0.30220803      -0.53225429       0.22028148       0.13450321      -0.35931595      -2.74087247
H        7.02086120       5.52060183       8.39014537      -0.09366471      -0.02793958      -0.41586080      -0.27854224       0.16604217       0.24301584
H        7.93857425       6.18085185       7.10052707      -0.30645114       0.10648858       0.06524492       0.35830804       0.22945827      -0.46943351
H        6.65754602       7.15973411       7.80391917      -0.20915027      -0.16994167      -0.22578731      -0.34993889       0.38379194       0.04606861
H        5.04246386       4.83283842       3.54359064       0.24629125       0.09399035      -0.05304785       0.00477338       0.21374278       1.74208670
H        3.99516177       4.77400190       5.29393282       0.09245440       0.15906461       0.14567826       0.39978464       0.16252021       0.51240943
H        6.13448268       5.17285694       5.24012541       0.15764812       0.03795858      -0.07185971      -0.54303437      -0.02600486       0.48850500
N        7.26227418       6.34760829       7.83824523      -0.18924878       0.33268189       0.33531263       0.27797205      -0.76848137       0.18222583
8
Lattice="11.933444843162857 0.0 0.0 0.0 11.933444843162857 0.0 0.0 0.0 11.933444843162857" Properties=species:S:1:pos:R:3:momenta:R:3:forces:R:3 energy=-438.21808517214 free_energy=-438.21808517214 stress="0.00011739146096138 0.00017930935182378 0.00047381115115015 0.00017930935182378 -0.00025003689333412 0.00022102838380235 0.00047381115115015 0.00022102838380235 0.00046095369193191" pbc="T T T"
B        5.06130258       4.94348083       4.80243481       0.31473858      -0.54668478       0.08624479       0.37983616      -0.23397695      -2.71537304
H        7.02055201       5.51924116       8.38020837      -0.11057265      -0.02870569      -0.39708034      -0.40978573      -0.19584208       0.51624853
H        7.92864140       6.18609986       7.11320180      -0.27778632       0.11540968       0.03076098       0.80486841       0.13573698      -0.93266172
H        6.65153440       7.15167956       7.80301841      -0.22745925      -0.15043751      -0.22278869      -0.39607827       0.40738585       0.07373677
H        5.05910153       4.83749190       3.55323648       0.24451130       0.10335806       0.03289268      -0.07350440       0.16935273       1.75793170
H        4.00480345       4.78176528       5.31174579       0.11077402       0.16611310       0.17026865       0.34887363       0.12680921       0.49062668
H        6.14612124       5.17448616       5.24731478       0.12807846       0.03556091      -0.04834446      -0.65903633      -0.07079583       0.46825145
N        7.26621673       6.34849137       7.84947808      -0.18219984       0.30543426       0.34816112       0.01017583      -0.33714101       0.34892500
8
Lattice="11.93316277898251 0.0 0.0 0.0 11.93316277898251 0.0 0.0 0.0 11.93316277898251" Properties=species:S:1:pos:R:3:momenta:R:3:forces:R:3 energy=-438.20786383245 free_energy=-438.20786383245 stress="2.9576538265992e-06 0.000150959600756 0.000632283913798 0.000150959600756 -0.00039580345399953 0.00026778261614281 0.000632283913798 0.00026778261614281 0.00018980851569081" pbc="T T T"
B        5.06604010       4.94014974       4.80993251       0.33895131      -0.55554370      -0.04380004       0.59474884      -0.10481496      -2.58298816
H        7.01788491       5.51677280       8.36878323      -0.13362534      -0.04636807      -0.36673726      -0.52326223      -0.52094501       0.73571209
H        7.91925264       6.19104198       7.12093715      -0.22998925       0.12030789      -0.02402983       1.15235169       0.05976680      -1.29733397
H        6.64319126       7.14395986       7.79957688      -0.24695536      -0.13164702      -0.21871405      -0.38697642       0.36297445       0.10251473
H        5.07420121       4.84191852       3.56437955       0.23922697       0.11047885       0.11711730      -0.15018440       0.11705900       1.67276733
H        4.01391014       4.78920292       5.32803208       0.12679006       0.17161960       0.19375880       0.30089552       0.09134576       0.46040328
H        6.15481695       5.17531118       5.25291387       0.09361822       0.03110453      -0.02585762      -0.74898089      -0.11177301       0.45054079
N        7.26878986       6.34868233       7.85806655      -0.18789057       0.30009336       0.36845778      -0.23118182       0.10828026       0.46591044
8
Lattice="11.932888581202883 0.0 0.0 0.0 11.932888581202883 0.0 0.0 0.0 11.932888581202883" Properties=species:S:1:pos:R:3:momenta:R:3:forces:R:3 energy=-438.21083306812 free_energy=-438.21083306812 stress="-3.9251086549742e-05 9.797160331229e-05 0.00070473519563611 9.797160331229e-05 -0.00046810515372685 0.0002849647250113 0.00070473519563611 0.0002849647250113 -5.3691627981597e-05" pbc="T T T"
B        5.06918352       4.93624864       4.81398773       0.37292318      -0.55852307      -0.16484941       0.76557391       0.02418695      -2.34172327
H        7.01222388       5.51251047       8.35622249      -0.16149890      -0.07772450      -0.32805476      -0.60030868      -0.75156662       0.86756140
H        7.91087377       6.19559547       7.12269853      -0.16938201       0.12234804      -0.09243057       1.33296444       0.01498887      -1.48402265
H        6.63216973       7.13655750       7.79349587      -0.26501980      -0.11651826      -0.21339052      -0.32867292       0.26253135       0.13208189
H        5.08723081       4.84609190       3.57666609       0.23045840       0.11497350       0.19481328      -0.22274143       0.05857216       1.48532582
H        4.02201481       4.79633109       5.34256966       0.14073841       0.17555059       0.21568257       0.26032187       0.05678229       0.41978531
H        6.15999884       5.17532902       5.25672168       0.05557698       0.02478717      -0.00414213      -0.80618492      -0.14734462       0.43721812
N        7.26959374       6.34835255       7.86387372      -0.20361607       0.31516577       0.39255083      -0.39243862       0.48431216       0.48918554
8
Lattice="11.932619861397109 0.0 0.0 0.0 11.932619861397109 0.0 0.0 0.0 11.932619861397109" Properties=species:S:1:pos:R:3:momenta:R:3:forces:R:3 energy=-438.23085782174 free_energy=-438.23085782174 stress="-2.5476229984858e-06 3.2307220158921e-05 0.00067338934309458 3.2307220158921e-05 -0.00045383890202492 0.0002671291436359 0.00067338934309458 0.0002671291436359 -0.00024303249421138" pbc="T T T"
B        5.07059918       4.93196816       4.81471284       0.41385109      -0.55505633      -0.27150043       0.88183174       0.14943900      -1.99036131
H        7.00321317       5.50606250       8.34290956      -0.19185817      -0.11698071      -0.28536001      -0.62472219      -0.84192250       0.89103009
H        7.90377285       6.19981209       7.11809511      -0.10471263       0.12303210      -0.16452373       1.31119425       0.00619839      -1.44489303
H        6.61844126       7.12939497       7.78490986      -0.27926184      -0.10715901      -0.20652944      -0.23409568       0.12561868       0.16088765
H        5.09783981       4.85003097       3.58971030       0.21817837       0.11644988       0.26083762      -0.28851485      -0.00421889       1.19465970
H        4.02884701       4.80322489       5.35531888       0.15290779       0.17775202       0.23528738       0.23033524       0.02348209       0.36729161
H        6.16135384       5.17461424       5.25876787       0.01554659       0.01686741       0.01710400      -0.82611559      -0.17619585       0.42939708
N        7.26842902       6.34772701       7.86696197      -0.22444269       0.34517122       0.41480333      -0.44136190       0.72019976       0.39548004
8
Lattice="11.932353581906629 0.0 0.0 0.0 11.932353581906629 0.0 0.0 0.0 11.932353581906629" Properties=species:S:1:pos:R:3:momenta:R:3:forces:R:3 energy=-438.26328551936 free_energy=-438.26328551936 stress="0.00010235362270172 -3.1793555666755e-05 0.00054037988802096 -3.1793555666755e-05 -0.00035328380921053 0.00021354682072358 0.00054037988802096 0.00021354682072358 -0.00037300962075312" pbc="T T T"
B        5.07037026       4.92754562       4.81250084       0.45833126      -0.54464992      -0.35792204       0.93715095       0.26765970      -1.53145364
H        6.99086794       5.49742425       8.32924054      -0.22162726      -0.15661608      -0.24362163      -0.58772486      -0.77249356       0.80532945
H        7.89797016       6.20386467       7.10754227      -0.04553333       0.12379731      -0.22906943       1.09854611       0.02738566      -1.18419319
H        6.60231425       7.12235891       7.77421850      -0.28790263      -0.10468260      -0.19794936      -0.11898829      -0.02605698       0.18674860
H        5.10591173       4.85378062       3.60311304       0.20250319       0.11458831       0.30976452      -0.34481389      -0.06909341       0.80320557
H        4.03438342       4.80999468       5.36644915       0.16364514       0.17804286       0.25164213       0.21210472      -0.00849785       0.30238520
H        6.15888993       5.17330079       5.25934727      -0.02457636       0.00768024       0.03812648      -0.80629970      -0.19733477       0.42761498
N        7.26534836       6.34704912       7.86762512      -0.24463109       0.38192107       0.42909722      -0.38234644       0.78074090       0.19309321
8
Lattice="11.932086701089077 0.0 0.0 0.0 11.932086701089077 0.0 0.0 0.0 11.932086701089077" Properties=species:S:1:pos:R:3:momenta:R:3:forces:R:3 energy=-438.29584729444 free_energy=-438.29584729444 stress="0.00024995938118422 -8.170539036842e-05 0.00032746650115036 -8.170539036842e-05 -0.0001822477753854 0.00012943289321554 0.00032746650115036 0.00012943289321554 -0.00045810126268127" pbc="T T T"
B        5.06878641       4.92323543       4.80803170       0.50295193      -0.52746735      -0.41859106       0.93002963       0.37574680      -0.97571578
H        6.97558317       5.48700219       8.31560960      -0.24761141      -0.18891498      -0.20773313      -0.49146247      -0.55817644       0.63080542
H        7.89324210       6.20801247       7.09226359      -0.00007760       0.12571918      -0.27619032       0.74891183       0.06455637      -0.75754095
H        6.58437764       7.11531970       7.76207866      -0.29011873      -0.10928412      -0.18777300       0.00086748      -0.17207585       0.20748437
H        5.11157211       4.85739563       3.61647711       0.18390682       0.10929706       0.33653033      -0.38929263      -0.13339041       0.32103301
H        4.03884461       4.81676700       5.37635145       0.17337794       0.17639206       0.26396136       0.20456426      -0.03930927       0.22575390
H        6.15293985       5.17156008       5.25902516      -0.06267056      -0.00235112       0.05912573      -0.74647828      -0.21016001       0.43184907
N        7.26064545       6.34654844       7.86639784      -0.25957443       0.41668273       0.43071983      -0.25172181       0.67483473      -0.08063916
8
Lattice="11.93181680899458 0.0 0.0 0.0 11.93181680899458 0.0 0.0 0.0 11.93181680899458" Properties=species:S:1:pos:R:3:momenta:R:3:forces:R:3 energy=-438.31468286851 free_energy=-438.31468286851 stress="0.00040800816302044 -0.00010972693572587 6.8116964249734e-05 -0.00010972693572587 3.1700494793316e-05 2.5179747709667e-05 6.8116964249734e-05 2.5179747709667e-05 -0.00052115224948742" pbc="T T T"
B        5.06627847       4.91927890       4.80222801       0.54477109      -0.50439181      -0.44927012       0.86417085       0.47090809      -0.34701689
H        6.95805132       5.47554299       8.30240638      -0.26719204      -0.20776655      -0.18147604      -0.34822561      -0.24227838       0.40179616
H        7.88918309       6.21254623       7.07410429       0.02654026       0.12924946      -0.29970501       0.33587009       0.10210753      -0.24816708
H        6.56538115       7.10815067       7.74934904      -0.28611943      -0.12031415      -0.17643018       0.11222644      -0.29620617       0.22155517
H        5.11513836       4.86092636       3.62941043       0.16318172       0.10075305       0.33725989      -0.42048872      -0.19412803      -0.22952961
H        4.04263372       4.82366614       5.38561232       0.18259517       0.17293940       0.27177908       0.20450562      -0.06924890       0.13945823
H        6.14409442       5.16957620       5.25859830      -0.09666850      -0.01276938       0.08030873      -0.64854902      -0.21453788       0.44153613
N        7.25478126       6.34641658       7.86402409      -0.26698310       0.44236445       0.41759287      -0.09774365       0.44554739      -0.37574388
8
Lattice="11.931542517667838 0.0 0.0 0.0 11.931542517667838 0.0 0.0 0.0 11.931542517667838" Properties=species:S:1:pos:R:3:momenta:R:3:forces:R:3 energy=-438.31138404788 free_energy=-438.31138404788 stress="0.00054601544726331 -0.00011396559748452 -0.00020258273192129 -0.00011396559748452 0.00025605470951999 -8.596434686047e-05 -0.00020258273192129 -8.596434686047e-05 -0.00057941063965804" pbc="T T T"
B        5.06332984       4.91588194       4.79617078       0.58153050      -0.47672000      -0.44779802       0.74848719       0.55070510       0.31368507
H        6.93913132       5.46399815       8.29002208      -0.27871331      -0.20975970      -0.16684982      -0.17626510       0.11850077       0.15606456
H        7.88529927       6.21773330       7.05523822       0.03288702       0.13422657      -0.29784829      -0.07177419       0.12816542       0.26199297
H        6.54610315       7.10074469       7.73700575      -0.27687039      -0.13647880      -0.16448704       0.20551600      -0.38730968       0.22834868
H        5.11703569       4.86440864       3.64152044       0.14122994       0.08935027       0.30993804      -0.43843952      -0.24816400      -0.80989721
H        4.04624325       4.83079783       5.39495142       0.19170444       0.16790852       0.27495162       0.20708474      -0.09861482       0.04682002
H        6.13310069       5.16752487       5.25902054      -0.12477264      -0.02314838       0.10191428      -0.51651553      -0.21084481       0.45551390
N        7.24828392       6.34679553       7.86139018      -0.26696502       0.45468704       0.39026034       0.03935692       0.15038358      -0.64762443
8
Lattice="11.93126352418206 0.0 0.0 0.0 11.93126352418206 0.0 0.0 0.0 11.93126352418206" Properties=species:S:1:pos:R:3:momenta:R:3:forces:R:3 energy=-438.28685180527 free_energy=-438.28685180527 stress="0.0006407264813583 -9.7209846878304e-05 -0.00045530490850027 -9.7209846878304e-05 0.00046046800717482 -0.00019087099363238 -0.00045530490850027 -0.00019087099363238 -0.00063552896211551" pbc="T T T"
B        5.06039823       4.91320194       4.79099246       0.61177029      -0.44587636      -0.41470537       0.59655008       0.61336991       0.94791088
H        6.91971710       5.45336833       8.27884733      -0.28156960      -0.19433456      -0.16405850       0.00535232       0.46974802      -0.07412232
H        7.88109861       6.22377839       7.03786574       0.02057350       0.14007993      -0.27255547      -0.42400857       0.13672367       0.71109295
H        6.52724377       7.09302643       7.72604453      -0.26374844      -0.15613215      -0.15250963       0.27504826      -0.43925340       0.22820308
H        5.11771393       4.86785864       3.65241620       0.11886999       0.07561522       0.25499058      -0.44500501      -0.29268550      -1.36445401
H        4.05016491       4.83823710       5.40513712       0.20090623       0.16153212       0.27361287       0.20642493      -0.12760140      -0.04776747
H        6.12076416       5.16555817       5.26130742      -0.14557312      -0.03312001       0.12419050      -0.35627189      -0.19986604       0.47199212
N        7.24166007       6.34777579       7.85943605      -0.26130675       0.45231651       0.35114095       0.13570612      -0.15656802      -0.86695209
8
Lattice="11.930980406910933 0.0 0.0 0.0 11.930980406910933 0.0 0.0 0.0 11.930980406910933" Properties=species:S:1:pos:R:3:momenta:R:3:forces:R:3 energy=-438.25053458812 free_energy=-438.25053458812 stress="0.00067816782692619 -6.4724856773457e-05 -0.00066907843010859 -6.4724856773457e-05 0.00062107627189496 -0.00027873147968848 -0.00066907843010859 -0.00027873147968848 -0.000676791775045" pbc="T T T"
B        5.05786617       4.91134314       4.78776095       0.63492646      -0.41324936      -0.35365043       0.42564726       0.65823145       1.48553088
H        6.90063636       5.44456966       8.26924788      -0.27607692      -0.16332473      -0.17191110       0.18015886       0.76874294      -0.26597678
H        7.87615640       6.23080543       7.02396495      -0.00684767       0.14608430      -0.22818242      -0.69148342       0.12661448       1.06139764
H        6.50936001       7.08495799       7.71738047      -0.24830938      -0.17748289      -0.14098818       0.31833793      -0.44989439       0.22214030
H        5.11758563       4.87127271       3.66173252       0.09669865       0.06015782       0.17576087      -0.44379423      -0.32558075      -1.82533146
H        4.05482401       4.84602242       5.41689441       0.21014737       0.15402210       0.26813328       0.19669275      -0.15620224      -0.13951132
H        6.10787595       5.16379624       5.26643256      -0.15810909      -0.04241521       0.14735778      -0.17573781      -0.18300490       0.48836298
N        7.23533752       6.34940122       7.85905673      -0.25259683       0.43631489       0.30361162       0.18166217      -0.43368512      -1.02004817
8
Lattice="11.930694294918352 0.0 0.0 0.0 11.930694294918352 0.0 0.0 0.0 11.930694294918352" Properties=species:S:1:pos:R:3:momenta:R:3:forces:R:3 energy=-438.21612769433 free_energy=-438.21612769433 stress="0.00065274003767919 -2.2559543023147e-05 -0.00083037340770071 -2.2559543023147e-05 0.00072217293729863 -0.00034219960316803 -0.00083037340770071 -0.00034219960316803 -0.00068223589990891" pbc="T T T"
B        5.05601993       4.91035720       4.78736588       0.65128149      -0.38001702      -0.27137168       0.25493729       0.68611154       1.85763897
H        6.88258993       5.43833886       8.26151888      -0.26318085      -0.12012733      -0.18835520       0.33588829       0.98708108      -0.40632595
H        7.87015405       6.23885457       7.01511324      -0.04490844       0.15153272      -0.17021263      -0.86063377       0.09975359       1.29443180
H        6.49283982       7.07654161       7.71175417      -0.23205149      -0.19878162      -0.13028200       0.33551490      -0.42031477       0.21166724
H        5.11698748       4.87462881       3.66917541       0.07501183       0.04358367       0.07855746      -0.43917604      -0.34597038      -2.12492138
H        4.06054024       4.85415268       5.43081312       0.21909506       0.14553826       0.25904324       0.17273529      -0.18419087      -0.22364856
H        6.09516827       5.16232229       5.27522469      -0.16187016      -0.05086660       0.17154442       0.01535928      -0.16213546       0.50116573
N        7.22963913       6.35167535       7.86100414      -0.24360030       0.40927869       0.25122557       0.17557225      -0.65342170      -1.10404909
8
Lattice="11.930406555630466 0.0 0.0 0.0 11.930406555630466 0.0 0.0 0.0 11.930406555630466" Properties=species:S:1:pos:R:3:momenta:R:3:forces:R:3 energy=-438.19585763285 free_energy=-438.19585763285 stress="0.0005657721736231 2.3629437380857e-05 -0.00093026568202126 2.3629437380857e-05 0.00075523406129831 -0.00037714605417107 -0.00093026568202126 -0.00037714605417107 -0.00063297010068003" pbc="T T T"
B        5.05504819       4.91024781       4.79041945       0.66163020      -0.34691223      -0.17694836       0.10323559       0.69950615       2.01430851
H        6.86613129       5.43518262       8.25583133      -0.24408891      -0.06898913      -0.21081634       0.46385775       1.10817929      -0.48910852
H        7.86290048       6.24788514       7.01237568      -0.08884556       0.15575444      -0.10439740      -0.92694134       0.05922349       1.40286110
H        6.47790981       7.06782245       7.70965485      -0.21622345      -0.21828963      -0.12054705       0.32859868      -0.35370018       0.19842265
H        5.11616051       4.87788692       3.67457523       0.05378467       0.02644032      -0.02785943      -0.43488892      -0.35417326      -2.21264784
H        4.06750607       4.86258411       5.44726199       0.22708857       0.13612832       0.24686006       0.13116874      -0.21113077      -0.29634821
H        6.08329402       5.16118145       5.28827112      -0.15674083      -0.05842027       0.19664713       0.20528761      -0.13986108       0.50589518
N        7.22477966       6.35456738       7.86579999      -0.23685748       0.37446938       0.19719610       0.11887993      -0.79943482      -1.12123053
8
Lattice="11.930118578134309 0.0 0.0 0.0 11.930118578134309 0.0 0.0 0.0 11.930118578134309" Properties=species:S:1:pos:R:3:momenta:R:3:forces:R:3 energy=-438.19558982884 free_energy=-438.19558982884 stress="0.00042365463771495 6.8640783274011e-05 -0.0009622558258319 6.8640783274011e-05 0.00071785508569511 -0.000382130444003 -0.0009622558258319 -0.000382130444003 -0.00052201633440787" pbc="T T T"
B        5.05504770       4.91097417       4.79717818       0.66669466      -0.31401278      -0.08059123      -0.01342485       0.70211857       1.94043818
H        6.85167114       5.43534823       8.25218812      -0.21996134      -0.01452439      -0.23634273       0.55807394       1.12400133      -0.51325035
H        7.85434925       6.25777373       7.01623211      -0.13378093       0.15803712      -0.03640029      -0.89056578       0.00867465       1.38494515
H        6.46466005       7.05889622       7.71126369      -0.20161309      -0.23420970      -0.11168313       0.30134115      -0.25530504       0.18412708
H        5.11524256       4.88098653       3.67793046       0.03277996       0.00916518      -0.13323473      -0.43247109      -0.35157665      -2.07129995
H        4.07576933       4.87122236       5.46631138       0.23303762       0.12566653       0.23191223       0.07046439      -0.23639113      -0.35476722
H        6.07281857       5.16037886       5.30582709      -0.14291837      -0.06506656       0.22210358       0.38103810      -0.11912707       0.49732191
N        7.22087275       6.35801345       7.87366493      -0.23451390       0.33516300       0.14427537       0.01387095      -0.86382406      -1.07445229
8
Lattice="11.929831670588323 0.0 0.0 0.0 11.929831670588323 0.0 0.0 0.0 11.929831670588323" Properties=species:S:1:pos:R:3:momenta:R:3:forces:R:3 energy=-438.21260866799 free_energy=-438.21260866799 stress="0.00023690285173022 0.00010767551288837 -0.00092175411919178 0.00010767551288837 0.00061259235944251 -0.0003576779253431 -0.00092175411919178 -0.0003576779253431 -0.00035858650031546" pbc="T T T"
B        5.05602570       4.91245298       4.80749747       0.66707315      -0.28095040       0.00761644      -0.08358728       0.69818724       1.66281905
H        6.83947596       5.43879943       8.25040063      -0.19200740       0.03828907      -0.26168577       0.61413222       1.03247763      -0.48108408
H        7.84461377       6.26831354       7.02652562      -0.17462499       0.15765522       0.02796066      -0.75460807      -0.04805446       1.24202023
H        6.45306401       7.04991294       7.71642137      -0.18862539      -0.24469824      -0.10341469       0.25891560      -0.13215986       0.17042782
H        5.11426864       4.88384542       3.67943104       0.01178477      -0.00784224      -0.22697685      -0.43080392      -0.34016522      -1.72378239
H        4.08521790       4.87991873       5.48768794       0.23554927       0.11395114       0.21440559      -0.00853539      -0.25921470      -0.39756187
H        6.06420057       5.15987803       5.32774699      -0.12105578      -0.07083203       0.24677947       0.52916376      -0.10295392       0.46989797
N        7.21793445       6.36191721       7.88447677      -0.23838694       0.29463655       0.09512758      -0.13518458      -0.84303289      -0.95893460
8
Lattice="11.929547022848592 0.0 0.0 0.0 11.929547022848592 0.0 0.0 0.0 11.929547022848592" Properties=species:S:1:pos:R:3:momenta:R:3:forces:R:3 energy=-438.23706821346 free_energy=-438.23706821346 stress="1.911372866792e-05 0.0001364712837799 -0.0008074076579178 0.0001364712837799 0.00044614315066072 -0.00030584139140609 -0.0008074076579178 -0.00030584139140609 -0.00016528903116839" pbc="T T T"
B        5.05789907       4.91562066       4.82084939       0.66402935      -0.24746751       0.07911132      -0.10158586       0.69171041       1.24376747
H        6.82964070       5.44625777       8.25010065      -0.16184151       0.08420051      -0.28375069       0.62893710       0.83661823      -0.39795438
H        7.83396698       6.28028891       7.04245816      -0.20634076       0.15414371       0.08262291      -0.52569209      -0.10697061       0.97939181
H        6.44297747       7.04212375       7.72464104      -0.17754103      -0.24830504      -0.09549373       0.20729929       0.00742653       0.15851622
H        5.11317570       4.88742327       3.67944638      -0.00918217      -0.02415900      -0.29985252      -0.42686381      -0.32193225      -1.22612186
H        4.09558004       4.88954062       5.51080073       0.23338382       0.10094376       0.19474714      -0.10246245      -0.27882401      -0.42519746
H        6.05774796       5.16065754       5.35348219      -0.09257860      -0.07586983       0.26921432       0.63763672      -0.09417255       0.41866941
N        7.21587895       6.36721442       7.89778674      -0.25018849       0.25663124       0.05299089      -0.32382410      -0.73212221      -0.76307038
8
Lattice="11.929265683242942 0.0 0.0 0.0 11.929265683242942 0.0 0.0 0.0 11.929265683242942" Properties=species:S:1:pos:R:3:momenta:R:3:forces:R:3 energy=-438.25622797402 free_energy=-438.25622797402 stress="-0.00021335917771518 0.00015151213999012 -0.00062398510321507 0.00015151213999012 0.000229776633587 -0.0002304738792381 -0.00062398510321507 -0.0002304738792381 3.116797954272e-05" pbc="T T T"
B        5.06049922       4.92128341       4.83641881       0.65990173      -0.21366303       0.12842548      -0.06778417       0.68532547       0.76103240
H        6.82206253       5.45805584       8.25079481      -0.13157279       0.11809857      -0.30009270       0.60199740       0.54641423      -0.27247939
H        7.82281819       6.29434799       7.06267621      -0.22447074       0.14747462       0.12171423      -0.21736580      -0.16358140       0.61125144
H        6.43413813       7.03669510       7.73518461      -0.16866195      -0.24432251      -0.08784659       0.15343194       0.15376365       0.14933306
H        5.11181326       4.89257059       3.67847087      -0.02985876      -0.03941249      -0.34583809      -0.41724959      -0.29853069      -0.64973941
H        4.10644749       4.90083488       5.53483974       0.22584447       0.08684402       0.17359943      -0.20602915      -0.29452405      -0.43953114
H        6.05357439       5.16355140       5.38216284      -0.05970852      -0.08053062       0.28794627       0.69814006      -0.09453259       0.34058444
N        7.21451755       6.37472685       7.91290545      -0.27163327       0.22554868       0.02179575      -0.54806046      -0.53297103      -0.49377817
8
Lattice="11.928988466990344 0.0 0.0 0.0 11.928988466990344 0.0 0.0 0.0 11.928988466990344" Properties=species:S:1:pos:R:3:momenta:R:3:forces:R:3 energy=-438.25919645671 free_energy=-438.25919645671 stress="-0.00044222911083571 0.00015097130952251 -0.00038445988585543 0.00015097130952251 -2.1304002661385e-05 -0.00013696940845846 -0.00038445988585543 -0.00013696940845846 0.00021082403664674" pbc="T T T"
B        5.06358649       4.92726505       4.85323861       0.65761778      -0.17983515       0.15392223       0.01174261       0.68022627       0.28556868
H        6.81644211       5.47131616       8.25194226      -0.10341737       0.13572794      -0.30917991       0.53621309       0.17978644      -0.11637715
H        7.81167559       6.30816975       7.08542983      -0.22581989       0.13800122       0.14057646       0.14703394      -0.21308048       0.16472034
H        6.42618486       7.03181779       7.74717472      -0.16210528      -0.23288363      -0.08052460       0.10372440       0.29727221       0.14323245
H        5.10996225       4.89717067       3.67704621      -0.04984564      -0.05335524      -0.36282450      -0.39949597      -0.27130416      -0.06225241
H        4.11731288       4.91158250       5.55889746       0.21280581       0.07197124       0.15168355      -0.31249712      -0.30584860      -0.44374912
H        6.05158455       5.16638870       5.41272089      -0.02506393      -0.08531624       0.30169482       0.70749831      -0.10441386       0.23503618
N        7.21357017       6.38231149       7.92902004      -0.30423868       0.20571826       0.00482269      -0.79835135      -0.26404371      -0.18636731
8
Lattice="11.928715809686873 0.0 0.0 0.0 11.928715809686873 0.0 0.0 0.0 11.928715809686873" Properties=species:S:1:pos:R:3:momenta:R:3:forces:R:3 energy=-438.24061470973 free_energy=-438.24061470973 stress="-0.00064674943143558 0.00013551492682918 -0.00011154621999256 0.00013551492682918 -0.00028677671135804 -3.2433850096353e-05 -0.00011154621999256 -3.2433850096353e-05 0.00036913824513656" pbc="T T T"
B        5.06686980       4.93335905       4.87031447       0.66002740      -0.14625536       0.15738585       0.12608383       0.67605865      -0.13070323
H        6.81231172       5.48495465       8.25302674      -0.07928394       0.13415620      -0.31028469       0.43979402      -0.23418256       0.05478326
H        7.80110342       6.32143080       7.10875593      -0.20878962       0.12639752       0.13656226       0.53055196      -0.25068044      -0.31455834
H        6.41869020       7.02763077       7.75970456      -0.15774669      -0.21467825      -0.07353364       0.06399833       0.42866010       0.14006396
H        5.10735790       4.90108504       3.67568907      -0.06870960      -0.06585992      -0.35199931      -0.37257802      -0.24134413       0.48420589
H        4.12761239       4.92155226       5.58207230       0.19463712       0.05668033       0.12962568      -0.41448603      -0.31252568      -0.44195679
H        6.05148959       5.16894173       5.44400910       0.00878929      -0.09076656       0.30949301       0.66813670      -0.12269658       0.10433918
N        7.21268595       6.38980965       7.94529647      -0.34900827       0.20028074       0.00324539      -1.05208382       0.04557288       0.10594133
8
Lattice="11.928447528074681 0.0 0.0 0.0 11.928447528074681 0.0 0.0 0.0 11.928447528074681" Properties=species:S:1:pos:R:3:momenta:R:3:forces:R:3 energy=-438.20313987193 free_energy=-438.20313987193 stress="-0.00080508329842996 0.00010898890217463 0.00016359119198503 0.00010898890217463 -0.00054232589325117 7.4315000699357e-05 0.00016359119198503 7.4315000699357e-05 0.00051727304684814" pbc="T T T"
B        5.07004179       4.93937881       4.88671951       0.66955674      -0.11312536       0.14292012       0.26125814       0.67123986      -0.45601056
H        6.80909665       5.49780764       8.25360097      -0.06041794       0.11233854      -0.30352530       0.32720258      -0.65433638       0.22207236
H        7.79166648       6.33386838       7.13068316      -0.17398676       0.11358952       0.11000868       0.88329694      -0.27219843      -0.76246537
H        6.41121097       7.02424872       7.77192605      -0.15520535      -0.19082763      -0.06675635       0.03842091       0.53966851       0.13876847
H        5.10372478       4.90419880       3.67484656      -0.08608307      -0.07688856      -0.31668672      -0.33674927      -0.20958570       0.95614504
H        4.13678104       4.93055073       5.60354510       0.17208560       0.04132475       0.10793684      -0.50467734      -0.31443685      -0.43850495
H        6.05285705       5.17097798       5.47490194       0.03967287      -0.09734853       0.31083976       0.58721717      -0.14702521      -0.04634879
N        7.21148275       6.39709182       7.96095256      -0.40585126       0.21065026       0.01531782      -1.26491790       0.37783025       0.37206367
8
Lattice="11.928182641300168 0.0 0.0 0.0 11.928182641300168 0.0 0.0 0.0 11.928182641300168" Properties=species:S:1:pos:R:3:momenta:R:3:forces:R:3 energy=-438.15712175441 free_energy=-438.15712175441 stress="-0.00089681351716963 7.846555015162e-05 0.00040629778905936 7.846555015162e-05 -0.00076115872496828 0.00017349775797733 0.00040629778905936 0.00017349775797733 0.0006749812574765" pbc="T T T"
B        5.07282767       4.94517104       4.90166400       0.68808478      -0.08066272       0.11569527       0.40170701       0.66339064      -0.67418793
H        6.80620287       5.50873839       8.25330074      -0.04717363       0.07139042      -0.29005578       0.21844963      -1.02955697       0.36498956
H        7.78386611       6.34530008       7.14944303      -0.12453449       0.10059908       0.06452783       1.15011543      -0.27451109      -1.10464193
H        6.40334645       7.02175658       7.78311023      -0.15400846      -0.16280007      -0.06014176       0.02959017       0.62368050       0.13799478
H        5.09882028       4.90642606       3.67488190      -0.10177546      -0.08656341      -0.26140399      -0.29303540      -0.17679113       1.33605357
H        4.14431654       4.93843064       5.62262687       0.14614137       0.02615360       0.08682449      -0.57651100      -0.31158142      -0.43743045
H        6.05518512       5.17227405       5.50437428       0.06596119      -0.10549604       0.30560269       0.47516613      -0.17429021      -0.21018496
N        7.20960327       6.40406597       7.97531418      -0.47289357       0.23716041       0.03859831      -1.41048597       0.67629481       0.57602415
8
Lattice="11.927919337869398 0.0 0.0 0.0 11.927919337869398 0.0 0.0 0.0 11.927919337869398" Properties=species:S:1:pos:R:3:momenta:R:3:forces:R:3 energy=-438.11597090498 free_energy=-438.11597090498 stress="-0.00090593869188092 5.3053342455169e-05 0.00058537829914752 5.3053342455169e-05 -0.00091609971882484 0.00025598897864647 0.00058537829914752 0.00025598897864647 0.00086219479620363" pbc="T T T"
B        5.07503679       4.95062347       4.91453871       0.71688702      -0.04906630       0.08101665       0.53136618       0.64990348      -0.78196655
H        6.80312029       5.51675039       8.25183446      -0.03884338       0.01468515      -0.27205572       0.13620464      -1.30499010       0.46478581
H        7.77807824       6.35563340       7.16366356      -0.06575989       0.08843715       0.00667977       1.28248942      -0.25686034      -1.27432461
H        6.39479673       7.02020787       7.79267937      -0.15363042      -0.13221131      -0.05383546       0.03853575       0.67601347       0.13657952
H        5.09248131       4.90771147       3.67608487      -0.11575768      -0.09512793      -0.19104621      -0.24273371      -0.14358848       1.61710616
H        4.14984110       4.94509294       5.63877765       0.11791458       0.01130062       0.06605311      -0.62493542      -0.30411406      -0.44179923
H        6.05798723       5.17262623       5.53155008       0.08669230      -0.11557918       0.29381916       0.34399193      -0.20112992      -0.37910051
N        7.20677385       6.41067869       7.98785226      -0.54761020       0.27748455       0.06908808      -1.46710749       0.88317670       0.65743172
8
Lattice="11.92765507787742 0.0 0.0 0.0 11.92765507787742 0.0 0.0 0.0 11.92765507787742" Properties=species:S:1:pos:R:3:momenta:R:3:forces:R:3 energy=-438.09075095638 free_energy=-438.09075095638 stress="-0.00082558111962037 4.1866425141354e-05 0.00068105767508064 4.1866425141354e-05 -0.00098473659070942 0.00031465445858291 0.00068105767508064 0.00031465445858291 0.00108754848227" pbc="T T T"
B        5.07660414       4.95566013       4.92491655       0.75610459      -0.01839486       0.04378250       0.63570344       0.62810733      -0.78402772
H        6.79952792       5.52109208       8.24896031      -0.03360657      -0.05235536      -0.25206873       0.09996695      -1.43355971       0.50966888
H        7.77450787       6.36485820       7.17250996      -0.00433403       0.07800365      -0.05490279       1.25544605      -0.22140365      -1.23681972
H        6.38542080       7.01962649       7.80021066      -0.15337423      -0.10045877      -0.04794813       0.06412718       0.69460632       0.13378566
H        5.08467138       4.90802859       3.67869477      -0.12799790      -0.10274894      -0.10995337      -0.18720284      -0.11042964       1.79832627
H        4.15314720       4.95047917       5.65159208       0.08845311      -0.00314907       0.04506063      -0.64591851      -0.29190160      -0.45427322
H        6.06086767       5.17185740       5.55570286       0.10148712      -0.12771943       0.27548675       0.20525333      -0.22456311      -0.54519241
N        7.20285501       6.41690006       7.99817825      -0.62677024       0.32679072       0.10051395      -1.42739099       0.95803576       0.58584471
8
Lattice="11.92738692638389 0.0 0.0 0.0 11.92738692638389 0.0 0.0 0.0 11.92738692638389" Properties=species:S:1:pos:R:3:momenta:R:3:forces:R:3 energy=-438.08593645085 free_energy=-438.08593645085 stress="-0.00066073419671649 5.0400695036339e-05 0.00068776481857334 5.0400695036339e-05 -0.00095409665004276 0.00034527908628807 0.00068776481857334 0.00034527908628807 0.0013413035288126" pbc="T T T"
B        5.07760808       4.96022798       4.93252835       0.80334529       0.01132915       0.00840185       0.70357686       0.59633026      -0.68917437
H        6.79537279       5.52134769       8.24447668      -0.02884006      -0.12263304      -0.23214242       0.12007848      -1.38812276       0.49696844
H        7.77316818       6.37301748       7.17574852       0.05278215       0.06981609      -0.11086085       1.07253554      -0.17242768      -0.99783448
H        6.37528552       7.02000748       7.80542125      -0.15216018      -0.06860791      -0.04242393       0.10418165       0.67916962       0.12901217
H        5.07552514       4.90737945       3.68291024      -0.13815841      -0.10932594      -0.02176858      -0.12786052      -0.07820419       1.87938364
H        4.15421875       4.95455710       5.66076567       0.05858695      -0.01712496       0.02309552      -0.63821831      -0.27524550      -0.47471205
H        6.06356347       5.16982610       5.57621012       0.11020403      -0.14158565       0.25012560       0.07028318      -0.24171768      -0.70020833
N        7.19787747       6.42270022       8.00601539      -0.70574133       0.37811534       0.12575580      -1.30240551       0.88083476       0.36819880
8
Lattice="11.927112036407383 0.0 0.0 0.0 11.927112036407383 0.0 0.0 0.0 11.927112036407383" Properties=species:S:1:pos:R:3:momenta:R:3:forces:R:3 energy=-438.0982657837 free_energy=-438.0982657837 stress="-0.00042987609138351 7.9046989785196e-05 0.00061638329028731 7.9046989785196e-05 -0.00082512583691242 0.00034772975600703 0.00061638329028731 0.00034772975600703 0.001593649782089" pbc="T T T"
B        5.07826411       4.96428800       4.93725823       0.85340122       0.03977854      -0.02087433       0.72730473       0.55363995      -0.50612246
H        6.79090455       5.51752742       8.23823991      -0.02170144      -0.18778555      -0.21360524       0.19313475      -1.17135767       0.43538922
H        7.77386937       6.38018456       7.17376510       0.09902417       0.06403937      -0.15243753       0.77005267      -0.11559043      -0.60791014
H        6.36468719       7.02130965       7.80816919      -0.14865277      -0.03765637      -0.03709624       0.15499636       0.63232128       0.12247883
H        5.06537499       4.90580239       3.68887212      -0.14550683      -0.11445769       0.06958056      -0.06648587      -0.04794858       1.85997055
H        4.15324266       4.95731910       5.66609299       0.02918875      -0.03044353      -0.00050597      -0.60218750      -0.25420455      -0.50198116
H        6.06595435       5.16644653       5.59253673       0.11273338      -0.15630079       0.21698840      -0.05101660      -0.25054252      -0.83650134
N        7.19205580       6.42803391       8.01119345      -0.77841271       0.42285500       0.13823778      -1.12148965       0.65675599       0.04763311
8
Lattice="11.926828234993254 0.0 0.0 0.0 11.926828234993254 0.0 0.0 0.0 11.926828234993254" Properties=species:S:1:pos:R:3:momenta:R:3:forces:R:3 energy=-438.11933011814 free_energy=-438.11933011814 stress="-0.00016169769353133 0.00012225913885002 0.00048912867829263 0.00012225913885002 -0.00061399355048314 0.00032575417351429 0.00048912867829263 0.00032575417351429 0.0018030395476738" pbc="T T T"
B        5.07888965       4.96782523       4.93917794       0.90092401       0.06622694      -0.03969607       0.70372869       0.50039931      -0.24421809
H        6.78663144       5.51012029       8.23019308      -0.00987966      -0.23938509      -0.19768087       0.30232497      -0.81731730       0.34213106
H        7.77623233       6.38646966       7.16751716       0.12926776       0.06073404      -0.17317016       0.40296143      -0.05634146      -0.14206181
H        6.35410269       7.02344822       7.80848269      -0.14184813      -0.00893277      -0.03188162       0.21182296       0.55938627       0.11494452
H        5.05471283       4.90338002       3.69663515      -0.14940546      -0.11783245       0.15889118      -0.00524325      -0.02105912       1.73955609
H        4.15059591       4.95880176       5.66751972       0.00150452      -0.04276401      -0.02599026      -0.54075164      -0.22898640      -0.53297437
H        6.06805295       5.16170741       5.60431594       0.10942482      -0.17086686       0.17627637      -0.15029245      -0.24975781      -0.94719794
N        7.18575069       6.43285202       8.01368873      -0.83986581       0.45290697       0.13356750      -0.91898009       0.31835204      -0.31726608
8
Lattice="11.926534501349012 0.0 0.0 0.0 11.926534501349012 0.0 0.0 0.0 11.926534501349012" Properties=species:S:1:pos:R:3:momenta:R:3:forces:R:3 energy=-438.14021687988 free_energy=-438.14021687988 stress="0.0001115224143399 0.0001706290317381 0.00033210691887647 0.0001706290317381 -0.00034822164197924 0.00028549097075723 0.00033210691887647 0.00028549097075723 0.00192860570663" pbc="T T T"
B        5.07984324       4.97086012       4.93855951       0.94266876       0.08990368      -0.04404718       0.63410488       0.43809930       0.08677153
H        6.78320445       5.50002245       8.22038231       0.00780925      -0.27122120      -0.18547354       0.42355269      -0.38069226       0.23756931
H        7.77974973       6.39202986       7.15835761       0.14111326       0.05995785      -0.17049772       0.02772616       0.00127598       0.32488910
H        6.34408389       7.02630222       7.80656819      -0.13148629       0.01619405      -0.02681221       0.26947944       0.46771524       0.10761170
H        5.04409534       4.90023228       3.70615219      -0.14973493      -0.11952519       0.24036753       0.05342490       0.00086165       1.51834006
H        4.14678477       4.95909781       5.66517336      -0.02308181      -0.05374350      -0.05323134      -0.45889754      -0.19987467      -0.56326279
H        6.06997385       5.15567033       5.61142814       0.10137252      -0.18457978       0.12947693      -0.22127553      -0.23891872      -1.02701612
N        7.17938703       6.43712239       8.01364979      -0.88852058       0.46313243       0.11052763      -0.72303607      -0.08352005      -0.67249628
8
Lattice="11.926231178712943 0.0 0.0 0.0 11.926231178712943 0.0 0.0 0.0 11.926231178712943" Properties=species:S:1:pos:R:3:momenta:R:3:forces:R:3 energy=-438.15510820211 free_energy=-438.15510820211 stress="0.00036012433797156 0.00021402475092358 0.00016868350390839 0.00021402475092358 -5.9984559740341e-05 0.00023351535812645 0.00016868350390839 0.00023351535812645 0.0019400044133786" pbc="T T T"
B        5.08146061       4.97344776       4.93584948       0.97708803       0.11027002      -0.03059646       0.52317360       0.36908618       0.47591293
H        6.78128535       5.48837906       8.20896716       0.03131633      -0.28041118      -0.17746213       0.53319671       0.07909417       0.13986463
H        7.78386966       6.39706167       7.14780668       0.13505898       0.06169423      -0.14563633      -0.31054321       0.05500476       0.73590931
H        6.33516063       7.02973080       7.80278747      -0.11783211       0.03674580      -0.02191791       0.32297212       0.36552100       0.10187069
H        5.03405269       4.89650038       3.71726402      -0.14679015      -0.11990786       0.30852147       0.10691183       0.01613863       1.19856626
H        4.14236152       4.95834998       5.65934974      -0.04346768      -0.06313084      -0.08189549      -0.36297987      -0.16722159      -0.58768964
H        6.07189052       5.14845536       5.61401006       0.09020040      -0.19701302       0.07869216      -0.25967252      -0.21829798      -1.07232206
N        7.17337238       6.44083996       8.01138555      -0.92546374       0.45187093       0.07059040      -0.55009945      -0.49490920      -0.98030128
8
Lattice="11.925919903166234 0.0 0.0 0.0 11.925919903166234 0.0 0.0 0.0 11.925919903166234" Properties=species:S:1:pos:R:3:momenta:R:3:forces:R:3 energy=-438.16229256187 free_energy=-438.16229256187 stress="0.0005604626257899 0.00024416387569582 1.6443107728342e-05 0.00024416387569582 0.00021997293603221 0.00017556512518 1.6443107728342e-05 0.00017556512518 0.0018221124373276" pbc="T T T"
B        5.08400770       4.97566950       4.93163051       1.00337329       0.12704796       0.00320469       0.37783226       0.29614236       0.90903809
H        6.78144047       5.47641406       8.19623029       0.05958281      -0.26717659      -0.17333292       0.61343621       0.51043844       0.06203077
H        7.78806671       6.40178536       7.13736645       0.11371458       0.06583825      -0.10233912      -0.58206561       0.10407661       1.05628680
H        6.32777704       7.03358951       7.79762625      -0.10141331       0.05227039      -0.01715275       0.36788850       0.26083207       0.09906364
H        5.02502848       4.89233039       3.72968961      -0.14106981      -0.11948800       0.35849698       0.15263592       0.02325858       0.78696550
H        4.13785319       4.95673737       5.65048544      -0.05899875      -0.07076158      -0.11149119      -0.25999176      -0.13145386      -0.60099136
H        6.07399806       5.14022572       5.61242487       0.07775942      -0.20787261       0.02609934      -0.26275773      -0.18869798      -1.08086103
N        7.16804206       6.44402774       8.00733713      -0.95290423       0.42024438       0.01680056      -0.40651007      -0.87094499      -1.22045123
8
Lattice="11.925603334152747 0.0 0.0 0.0 11.925603334152747 0.0 0.0 0.0 11.925603334152747" Properties=species:S:1:pos:R:3:momenta:R:3:forces:R:3 energy=-438.16323963938 free_energy=-438.16323963938 stress="0.00069558878166565 0.00025580957328768 -0.00011262174429238 0.00025580957328768 0.00046592506711882 0.00011627178915819 -0.00011262174429238 0.00011627178915819 0.0015758659696141" pbc="T T T"
B        5.08765528       4.97762323       4.92658560       1.02097646       0.14015835       0.05899848       0.20580417       0.22195225       1.36549684
H        6.78407325       5.46529056       8.18258129       0.09089102      -0.23405762      -0.17215988       0.65381338       0.87508089       0.01158168
H        7.79188963       6.40643095       7.12840413       0.08089281       0.07223987      -0.04564447      -0.77007785       0.14868992       1.26936833
H        6.32225734       7.03774343       7.79166607      -0.08289809       0.06278202      -0.01238475       0.40055167       0.16078256       0.10030914
H        5.01734823       4.88785990       3.74302205      -0.13316505      -0.11881528       0.38621588       0.18845437       0.02127689       0.29832827
H        4.13371370       4.95446214       5.63913404      -0.06946326      -0.07652680      -0.14135746      -0.15696747      -0.09308924      -0.59832544
H        6.07649104       5.13117493       5.60722606       0.06595693      -0.21691783      -0.02622877      -0.22903807      -0.15130598      -1.05153108
N        7.16363150       6.44673374       8.00204870      -0.97321088       0.37122090      -0.04716134      -0.29356712      -1.18050707      -1.38555464
8
Lattice="11.925284790295006 0.0 0.0 0.0 11.925284790295006 0.0 0.0 0.0 11.925284790295006" Properties=species:S:1:pos:R:3:momenta:R:3:forces:R:3 energy=-438.16110533658 free_energy=-438.16110533658 stress="0.0007544972234173 0.0002467813588015 -0.00021025648862123 0.0002467813588015 0.00065826748812295 5.9640258568096e-05 -0.00021025648862123 5.9640258568096e-05 0.0012172743139977" pbc="T T T"
B        5.09246997       4.97941444       4.92146292       1.02942698       0.14964089       0.13720395       0.01443955       0.14844549       1.81461038
H        6.78939125       5.45601245       8.16854862       0.12319244      -0.18510254      -0.17265775       0.65011141       1.14774269      -0.00836509
H        7.79498952       6.41122792       7.12208587       0.04096778       0.08074680       0.01894972      -0.86632922       0.18956498       1.36959995
H        6.31879098       7.04207659       7.78555745      -0.06305164       0.06865414      -0.00741332       0.41801778       0.07124950       0.10639102
H        5.01120742       4.88320820       3.75673617      -0.12369354      -0.11841403       0.38867810       0.21336797       0.01042094      -0.24054202
H        4.13029527       4.95173865       5.62594523      -0.07503337      -0.08034798      -0.17065179      -0.06052457      -0.05275125      -0.57567841
H        6.07955439       5.12151652       5.59912200       0.05667936      -0.22393113      -0.07634325      -0.15820227      -0.10762303      -0.98437901
N        7.16026753       6.44902616       7.99613766      -0.98853746       0.30881968      -0.11751414      -0.21198019      -1.40490607      -1.47474858
8
Lattice="11.924967867582312 0.0 0.0 0.0 11.924967867582312 0.0 0.0 0.0 11.924967867582312" Properties=species:S:1:pos:R:3:momenta:R:3:forces:R:3 energy=-438.15949432709 free_energy=-438.15949432709 stress="0.00073114804183592 0.00021731750761844 -0.00026997168542076 0.00021731750761844 0.00078318327406061 9.7486278393627e-06 -0.00026997168542076 9.7486278393627e-06 0.00077550013557959" pbc="T T T"
B        5.09841394       4.98114796       4.91703325       1.02821435       0.15557876       0.23648340      -0.19019327       0.07604577       2.21356382
H        6.79739593       5.44936056       8.15475510       0.15432808      -0.12526542      -0.17337523       0.60234519       1.31298425       0.00230553
H        7.79713575       6.41639727       7.11933160      -0.00144305       0.09122720       0.08588351      -0.86722214       0.22771256       1.35690222
H        6.31742783       7.04649733       7.77998648      -0.04272789       0.07053221      -0.00198955       0.41811219      -0.00334343       0.11769838
H        5.00667145       4.87847054       3.77021277      -0.11321398      -0.11871211       0.36449286       0.22837680      -0.00722472      -0.78825116
H        4.12783211       4.94878418       5.61163899      -0.07618815      -0.08216594      -0.19835570       0.02338942      -0.01115891      -0.53016599
H        6.08336159       5.11147509       5.58893638       0.05174095      -0.22871170      -0.12240762      -0.05139685      -0.05941659      -0.88083902
N        7.15796902       6.45098731       7.99025843      -1.00075268       0.23756568      -0.19054930      -0.16369312      -1.53413188      -1.48842804
8
Lattice="11.924656084225866 0.0 0.0 0.0 11.924656084225866 0.0 0.0 0.0 11.924656084225866" Properties=species:S:1:pos:R:3:momenta:R:3:forces:R:3 energy=-438.16155776486 free_energy=-438.16155776486 stress="0.00062389735843846 0.00016953389222658 -0.00028537389010023 0.00016953389222658 0.00083112794459403 -2.8456079027198e-05 -0.00028537389010023 -2.8456079027198e-05 0.00029002015875608" pbc="T T T"
B        5.10534667       4.98291906       4.91403178       1.01670420       0.15796980       0.35312942      -0.40360636       0.00323925       2.50939132
H        6.80788301       5.44585100       8.14187298       0.18218387      -0.05997589      -0.17284109       0.51265873       1.36089386       0.04200727
H        7.79822628       6.42214375       7.12076657      -0.04166511       0.10357469       0.14969868      -0.77136206       0.26420662       1.23295514
H        6.31807627       7.05093977       7.77562761      -0.02280262       0.06919445       0.00415083       0.39860830      -0.05947966       0.13393198
H        5.00368292       4.87371631       3.78278311      -0.10211870      -0.11992974       0.31449033       0.23722718      -0.02716615      -1.28961155
H        4.12642981       4.94580983       5.59696629      -0.07365415      -0.08192961      -0.22328745       0.08998127       0.03080304      -0.46042481
H        6.08807299       5.10127712       5.57755648       0.05283183      -0.23107095      -0.16269093       0.08782780      -0.00876639      -0.74449013
N        7.15665006       6.45270593       7.98505384      -1.01149935       0.16219983      -0.26257810      -0.15065370      -1.56285138      -1.42535981
8
Lattice="11.924352583620095 0.0 0.0 0.0 11.924352583620095 0.0 0.0 0.0 11.924352583620095" Properties=species:S:1:pos:R:3:momenta:R:3:forces:R:3 energy=-438.16907522146 free_energy=-438.16907522146 stress="0.00043692090749541 0.00010668344964006 -0.00025090877192755 0.00010668344964006 0.00079805417643887 -4.963384827906e-05 -0.00025090877192755 -4.963384827906e-05 -0.00019360598126219" pbc="T T T"
B        5.11302759       4.98480338       4.91308268       0.99417444       0.15665054       0.48066974      -0.62210014      -0.07341962       2.64691284
H        6.82044751       5.44570116       8.13055997       0.20470972       0.00488977      -0.16961830       0.38515630       1.28724317       0.10768556
H        7.79829473       6.42864717       7.12666022      -0.07495906       0.11770628       0.20499482      -0.58065854       0.30035943       1.00333633
H        6.32050239       7.05536085       7.77307993      -0.00426386       0.06556800       0.01124403       0.35907660      -0.09560441       0.15459726
H        5.00207515       4.86899174       3.79379262      -0.09051978      -0.12197763       0.24226589       0.24620254      -0.04278106      -1.68337177
H        4.12605785       4.94300951       5.58265298      -0.06833620      -0.07961356      -0.24416911       0.13549749       0.07227866      -0.36662617
H        6.09382976       5.09113982       5.56586411       0.06136948      -0.23085879      -0.19565681       0.25294898       0.04200094      -0.58134749
N        7.15612355       6.45426855       7.98109222      -1.02217716       0.08765393      -0.32977926      -0.17483175      -1.48969758      -1.28628214
8
Lattice="11.924059846582857 0.0 0.0 0.0 11.924059846582857 0.0 0.0 0.0 11.924059846582857" Properties=species:S:1:pos:R:3:momenta:R:3:forces:R:3 energy=-438.18148183792 free_energy=-438.18148183792 stress="0.00018046028252643 3.3136730442242e-05 -0.00016281760883052 3.3136730442242e-05 0.00068377815193699 -4.8328402704686e-05 -0.00016281760883052 -4.8328402704686e-05 -0.00063026015725729" pbc="T T T"
B        5.12112134       4.98684523       4.91461454       0.96002151       0.15123932       0.60997516      -0.84036834      -0.15806172       2.58308599
H        6.83449628       5.44880501       8.12138076       0.22005255       0.06329687      -0.16245593       0.22504305       1.09108599       0.19517193
H        7.79751405       6.43605333       7.13686129      -0.09674937       0.13357205       0.24666074      -0.30168944       0.33734740       0.67814693
H        6.32433169       7.05973347       7.77279322       0.01186991       0.06061884       0.01945766       0.29872277      -0.11078065       0.17820213
H        5.00159206       4.86432637       3.80267909      -0.07818908      -0.12439649       0.15431735       0.26283032      -0.04643698      -1.91497832
H        4.12654579       4.94054811       5.56933036      -0.06128099      -0.07522313      -0.25972904       0.15790081       0.11223512      -0.25087523
H        6.10074302       5.08125635       5.55465301       0.07834688      -0.22801414      -0.22007999       0.43293517       0.09039127      -0.40081477
N        7.15610616       6.45574918       7.97879660      -1.03406912       0.01891334      -0.38829100      -0.23403617      -1.31582683      -1.07496836
8
Lattice="11.92377950796488 0.0 0.0 0.0 11.92377950796488 0.0 0.0 0.0 11.92377950796488" Properties=species:S:1:pos:R:3:momenta:R:3:forces:R:3 energy=-438.19542916929 free_energy=-438.19542916929 stress="-0.00012686159245229 -4.5898172111338e-05 -2.2668724386374e-05 -4.5898172111338e-05 0.00049448057326128 -2.0815136657077e-05 -2.2668724386374e-05 -2.0815136657077e-05 -0.00098091326613957" pbc="T T T"
B        5.12921020       4.98904652       4.91878640       0.91422498       0.14121918       0.73035374      -1.04848636      -0.25375082       2.30227838
H        6.84927143       5.45471620       8.11473122       0.22668535       0.10925126      -0.15038694       0.03991899       0.77896824       0.29857330
H        7.79619197       6.44446634       7.15075767      -0.10299551       0.15117398       0.27033754       0.04938755       0.37619956       0.27880847
H        6.32905688       7.06403943       7.77500016       0.02455403       0.05534845       0.02886263       0.21807978      -0.10555371       0.20277885
H        5.00191521       4.85974008       3.80904828      -0.06458952      -0.12639977       0.05945164       0.29329115      -0.03173936      -1.95221384
H        4.12758753       4.93854751       5.55746509      -0.05361339      -0.06883402      -0.26887022       0.15696210       0.14973147      -0.11707274
H        6.10887681       5.07177730       5.54454183       0.10407442      -0.22264027      -0.23529106       0.61189210       0.13397417      -0.21549714
N        7.15622841       6.45719908       7.97838032      -1.04834502      -0.03912195      -0.43465489      -0.32018551      -1.04822907      -0.80477231
8
Lattice="11.923512181530223 0.0 0.0 0.0 11.923512181530223 0.0 0.0 0.0 11.923512181530223" Properties=species:S:1:pos:R:3:momenta:R:3:forces:R:3 energy=-438.20584993439 free_energy=-438.20584993439 stress="-0.00045725972299499 -0.00012432924167679 0.00015958156357206 -0.00012432924167679 0.00024432975947222 3.3222663545293e-05 0.00015958156357206 3.3222663545293e-05 -0.0012168183574404" pbc="T T T"
B        5.13681979       4.99135958       4.92545159       0.85779982       0.12606325       0.83137271      -1.23014077      -0.36066379       1.82522572
H        6.86389460       5.46265750       8.11078725       0.22362719       0.13738085      -0.13286190      -0.15932312       0.36920437       0.40988784
H        7.79475118       6.45394593       7.16729928      -0.09085820       0.17057606       0.27321883       0.44222301       0.41711217      -0.15705552
H        6.33406092       7.06826268       7.77967803       0.03280473       0.05072554       0.03941787       0.11899466      -0.08186319       0.22591604
H        5.00269838       4.85524950       3.81272493      -0.04901386      -0.12701291      -0.03259169       0.33987030       0.00427776      -1.79537941
H        4.12876100       4.93707588       5.54731151      -0.04644961      -0.06060111      -0.27082923       0.13453250       0.18394702       0.02925562
H        6.11823125       5.06279378       5.53590613       0.13796600      -0.21503947      -0.24138804       0.76957339       0.17072447      -0.04027544
N        7.15605656       6.45863892       7.97981095      -1.06589378      -0.08210312      -0.46653957      -0.41572350      -0.70339926      -0.50274010
8
Lattice="11.923257332234384 0.0 0.0 0.0 11.923257332234384 0.0 0.0 0.0 11.923257332234384" Properties=species:S:1:pos:R:3:momenta:R:3:forces:R:3 energy=-438.20869059848 free_energy=-438.20869059848 stress="-0.00077441536104852 -0.00019514954445806 0.00036407686197236 -0.00019514954445806 -4.2702606354613e-05 0.00010936450174897 0.00036407686197236 0.00010936450174897 -0.001320569625268" pbc="T T T"
B        5.14346094       4.99368696       4.93417573       0.79302545       0.10538208       0.90478811      -1.36401118      -0.47546396       1.20567973
H        6.87743512       5.47156925       8.10949423       0.21064205       0.14373495      -0.10984637      -0.35777102      -0.10294542       0.51876584
H        7.79368889       6.46451011       7.18510793      -0.05949128       0.19186252       0.25495382       0.82974923       0.45841288      -0.57372975
H        6.33865941       7.07238503       7.78655517       0.03579755       0.04760229       0.05097065       0.00504691      -0.04319154       0.24506249
H        5.00360872       4.85087230       3.81376310      -0.03078900      -0.12527528      -0.11288565       0.39981917       0.06006314      -1.47663680
H        4.12956844       4.93614384       5.53890433      -0.04078013      -0.05074222      -0.26526556       0.09460090       0.21426529       0.18136545
H        6.12873188       5.05432794       5.52884875       0.17840982      -0.20567783      -0.23932479       0.88353157       0.19940299       0.10974957
N        7.15513095       6.46005507       7.98281663      -1.08684848      -0.10690293      -0.48354448      -0.49216789      -0.31136336      -0.21144310
8
Lattice="11.923013192353302 0.0 0.0 0.0 11.923013192353302 0.0 0.0 0.0 11.923013192353302" Properties=species:S:1:pos:R:3:momenta:R:3:forces:R:3 energy=-438.20381333861 free_energy=-438.20381333861 stress="-0.0010367268547411 -0.00025057785588422 0.00056289193368402 -0.00025057785588422 -0.00033242812372137 0.00019814050065393 0.00056289193368402 0.00019814050065393 -0.0012855729578299" pbc="T T T"
B        5.14868740       4.99588891       4.94430525       0.72335244       0.07902764       0.94581321      -1.42835402      -0.59223389       0.51605158
H        6.88900115       5.48020577       8.11059652       0.18837611       0.12668796      -0.08187628      -0.53684683      -0.58246212       0.61287258
H        7.79351465       6.47614067       7.20267033      -0.01072537       0.21501743       0.21832515       1.15168750       0.49539739      -0.90342562
H        6.34216299       7.07638452       7.79516083       0.03296426       0.04662006       0.06327047      -0.11805885       0.00533765       0.25796451
H        5.00437286       4.84662867       3.81241668      -0.00947163      -0.12042863      -0.17474679       0.46628256       0.13015335      -1.04899309
H        4.12949854       4.93570954       5.53209387      -0.03734844      -0.03950292      -0.25225742       0.04314386       0.24033615       0.33186036
H        6.14023135       5.04633503       5.52321500       0.22278868      -0.19509192      -0.23080667       0.93284000       0.21982942       0.22206061
N        7.15302262       6.46140081       7.98693295      -1.10999269      -0.11234935      -0.48778160      -0.51353028       0.08271210       0.01580142
8
Lattice="11.922776757647908 0.0 0.0 0.0 11.922776757647908 0.0 0.0 0.0 11.922776757647908" Properties=species:S:1:pos:R:3:momenta:R:3:forces:R:3 energy=-438.19566502063 free_energy=-438.19566502063 stress="-0.0012035749856907 -0.00028277182753396 0.00072567839189552 -0.00028277182753396 -0.000583069311495 0.00028603601653941 0.00072567839189552 0.00028603601653941 -0.0011163610795448" pbc="T T T"
B        5.15216353       4.99779729       4.95506468       0.65301177       0.04712249       0.95333825      -1.40722842      -0.70432687      -0.17074367
H        6.89784618       5.48728060       8.11369069       0.15839613       0.08773177      -0.05006611      -0.67653876      -0.99810890       0.67918089
H        7.79467197       6.48878594       7.21857933       0.05067015       0.23973605       0.16931775       1.34663659       0.51988836      -1.08221032
H        6.34395483       7.08023542       7.80490122       0.02408270       0.04811972       0.07599517      -0.24223517       0.05698263       0.26317127
H        5.00482555       4.84254134       3.80908606       0.01503253      -0.11202723      -0.21437929       0.53062168       0.20699885      -0.57113050
H        4.12810479       4.93569142       5.52660995      -0.03655126      -0.02711986      -0.23222749      -0.01224373       0.26210211       0.47331329
H        6.15252578       5.03871696       5.51864398       0.26766698      -0.18377582      -0.21801053       0.90257100       0.23289328       0.28941325
N        7.14940292       6.46260109       7.99157446      -1.13239717      -0.09980901      -0.48389935      -0.44636254       0.42246476       0.12872562
8
Lattice="11.92254392895921 0.0 0.0 0.0 11.92254392895921 0.0 0.0 0.0 11.92254392895921" Properties=species:S:1:pos:R:3:momenta:R:3:forces:R:3 energy=-438.19058157565 free_energy=-438.19058157565 stress="-0.0012435324121027 -0.00028545644865478 0.00082758673843817 -0.00028545644865478 -0.00075203113682387 0.00035782048663485 0.00082758673843817 0.00035782048663485 -0.00083045300625612" pbc="T T T"
B        5.15372833       4.99923306       4.96565599       0.58641504       0.01002796       0.92923088      -1.29600954      -0.80603453      -0.79543880
H        6.90347425       5.49164928       8.11828227       0.12308588       0.03185457      -0.01605937      -0.75963971      -1.27533197       0.70625026
H        7.79745753       6.50235596       7.23176495       0.11741985       0.26522574       0.11630660       1.37047189       0.52156272      -1.07139280
H        6.34357107       7.08390781       7.81514061       0.00936428       0.05206388       0.08878375      -0.35709213       0.10363548       0.26047210
H        5.00495258       4.83863612       3.80426166       0.04244251      -0.09995078      -0.23071178       0.58481256       0.28297508      -0.09499026
H        4.12508640       4.93598589       5.52213367      -0.03837270      -0.01379693      -0.20584215      -0.06294725       0.27976780       0.59884587
H        6.16538088       5.03134446       5.51464022       0.30911097      -0.17208451      -0.20320633       0.78760578       0.24025588       0.31140297
N        7.14411243       6.46355937       7.99611089      -1.14958865      -0.07336500      -0.47829587      -0.27367610       0.65173673       0.09922622
8
Lattice="11.922309860288111 0.0 0.0 0.0 11.922309860288111 0.0 0.0 0.0 11.922309860288111" Properties=species:S:1:pos:R:3:momenta:R:3:forces:R:3 energy=-438.19237348945 free_energy=-438.19237348945 stress="-0.0011418006879262 -0.00025620737559156 0.00085613724687219 -0.00025620737559156 -0.00080599198537235 0.00039981532448065 0.00085613724687219 0.00039981532448065 -0.0004594563375939" pbc="T T T"
B        5.15343726       5.00002537       4.97534138       0.52753416      -0.03169218       0.87728055      -1.10391611      -0.89336128      -1.31899961
H        6.90571877       5.49250164       8.12383221       0.08539002      -0.03279748       0.01808757      -0.77674011      -1.35692328       0.68702028
H        7.80195823       6.51671064       7.24165373       0.18090944       0.29011156       0.06845570       1.21269487       0.49124868      -0.87348453
H        6.34076667       7.08736526       7.82527127      -0.01045104       0.05797784       0.10127472      -0.45064361       0.13645607       0.25108383
H        5.00491388       4.83494460       3.79847765       0.07213659      -0.08436128      -0.22477525       0.62296223       0.35177325       0.34051846
H        4.12035163       4.93648658       5.51835912      -0.04235631       0.00029359      -0.17395033      -0.10016455       0.29370214       0.70262582
H        6.17855613       5.02408345       5.51065025       0.34309892      -0.16019449      -0.18840396       0.59436106       0.24384469       0.29429142
N        7.13720799       6.46416618       7.99993518      -1.15640561      -0.03936828      -0.47763861      -0.00529515       0.73143141      -0.06496507
8
Lattice="11.922069515669012 0.0 0.0 0.0 11.922069515669012 0.0 0.0 0.0 11.922069515669012" Properties=species:S:1:pos:R:3:momenta:R:3:forces:R:3 energy=-438.19956640786 free_energy=-438.19956640786 stress="-0.00090402427729644 -0.00019826171303553 0.00081359272038072 -0.00019826171303553 -0.00073083517230014 0.00040319251856362 0.00081359272038072 0.00040319251856362 -4.6266556509366e-05" pbc="T T T"
B        5.15156433       5.00003091       4.98350387       0.47947124      -0.07728702       0.80240214      -0.85254834      -0.96388181      -1.72262554
H        6.90476928       5.48951882       8.12979216       0.04842400      -0.09614616       0.05011475      -0.72949683      -1.22311842       0.62126319
H        7.80802566       6.53165118       7.24821708       0.23284218       0.31258193       0.03382177       0.90094881       0.42480168      -0.53188897
H        6.33554909       7.09056115       7.83476804      -0.03402682       0.06494209       0.11316270      -0.51080110       0.14714971       0.23757817
H        5.00503198       4.83150836       3.79227736       0.10322234      -0.06566354      -0.19905906       0.64169369       0.40892984       0.71012218
H        4.11404386       4.93710317       5.51503475      -0.04763605       0.01499023      -0.13760275      -0.11614849       0.30426144       0.78036861
H        6.19181777       5.01681993       5.50613322       0.36604838      -0.14815398      -0.17512637       0.34008857       0.24536494       0.24940603
N        7.12896697       6.46431081       8.00251851      -1.14847017      -0.00530035      -0.48727997       0.32206213       0.65453846      -0.32316095
8
Lattice="11.921818349022901 0.0 0.0 0.0 11.921818349022901 0.0 0.0 0.0 11.921818349022901" Properties=species:S:1:pos:R:3:momenta:R:3:forces:R:3 energy=-438.20648490855 free_energy=-438.20648490855 stress="-0.00055259205345599 -0.00012048765933334 0.00071444316932787 -0.00012048765933334 -0.00053575834985153 0.00036574886434014 0.00071444316932787 0.00036574886434014 0.00036248214249429" pbc="T T T"
B        5.14855755       4.99915130       4.98968516       0.44425429      -0.12586345       0.71028437      -0.57025080      -1.01657410      -2.00283464
H        6.90112954       5.48294161       8.13563425       0.01502046      -0.14820260       0.07786917      -0.63029572      -0.89918070       0.51517630
H        7.81529889       6.54692685       7.25190328       0.26690772       0.33079917       0.01775907       0.49049153       0.32487169      -0.11546967
H        6.32816766       7.09343513       7.84322694      -0.05949103       0.07168746       0.12426562      -0.52765051       0.12868955       0.22261653
H        5.00574160       4.82838322       3.78618410       0.13466260      -0.04447202      -0.15704737       0.64014029       0.45193431       1.00062420
H        4.10651946       4.93777799       5.51198233      -0.05300222       0.03012876      -0.09809814      -0.10439302       0.31196018       0.82930421
H        6.20493891       5.00947850       5.50061821       0.37535511      -0.13598490      -0.16435901       0.04742985       0.24584518       0.18934176
N        7.11984001       6.46389664       8.00345014      -1.12375480       0.02187076      -0.51017103       0.65525491       0.45100187      -0.61644923
8
Lattice="11.921552897852845 0.0 0.0 0.0 11.921552897852845 0.0 0.0 0.0 11.921552897852845" Properties=species:S:1:pos:R:3:momenta:R:3:forces:R:3 energy=-438.20723593927 free_energy=-438.20723593927 stress="-0.00012397132380019 -3.5029398973803e-05 0.00057853663494751 -3.5029398973803e-05 -0.00025171313989178 0.00029232492568984 0.00057853663494751 0.00029232492568984 0.00072402792891008" pbc="T T T"
B        5.14495881       4.99734502       4.99360022       0.42271679      -0.17646954       0.60699925      -0.28683124      -1.05035791      -2.16594325
H        6.89551599       5.47351935       8.14087989      -0.01269503      -0.18110677       0.09967919      -0.49755830      -0.44720597       0.38163363
H        7.82326659       6.56225986       7.25348727       0.27980619       0.34334459       0.02228396       0.04597083       0.20050958       0.30641936
H        6.31906252       7.09591100       7.85038677      -0.08456951       0.07672529       0.13460281      -0.49598938       0.07898116       0.20931995
H        5.00751350       4.82564190       3.78067300       0.16542717      -0.02154762      -0.10284730       0.61867862       0.47942562       1.20561415
H        4.09828631       4.93849773       5.50909816      -0.05705259       0.04554368      -0.05689898      -0.06237007       0.31669301       0.84896678
H        6.21769002       5.00203282       5.49374356       0.36981760      -0.12375127      -0.15652697      -0.25668038       0.24575868       0.12725797
N        7.11036536       6.46285782       8.00245832      -1.08339559       0.03723508      -0.54678228       0.93924966       0.17556847      -0.89300454
8
Lattice="11.921271265374301 0.0 0.0 0.0 11.921271265374301 0.0 0.0 0.0 11.921271265374301" Properties=species:S:1:pos:R:3:momenta:R:3:forces:R:3 energy=-438.19954654775 free_energy=-438.19954654775 stress="0.00034203651031291 4.5755727211022e-05 0.00042576925794466 4.5755727211022e-05 7.9519585531054e-05 0.00019242754754769 0.00042576925794466 0.00019242754754769 0.0010059585888922" pbc="T T T"
B        5.14131363       4.99463157       4.99512887       0.41451709      -0.22820389       0.49846428      -0.02713291      -1.06462444      -2.22176162
H        6.88872864       5.46236210       8.14512368      -0.03353156      -0.19050686       0.11459467      -0.35046972       0.05654761       0.23519142
H        7.83134491       6.57737836       7.25389406       0.27139828       0.34946254       0.04631557      -0.37558159       0.06377716       0.67876690
H        6.30879181       7.09789574       7.85613064      -0.10690882       0.07858353       0.14436423      -0.41632336      -0.00035451       0.19938862
H        5.01077571       4.82337553       3.77614758       0.19462839       0.00230942      -0.04077077       0.57882904       0.49114807       1.32372933
H        4.08992636       4.93929951       5.50634287      -0.05832205       0.06109478      -0.01546709       0.00971386       0.31836019       0.84042546
H        6.22982465       4.99450863       5.48527608       0.34962516      -0.11155705      -0.15155338      -0.54871591       0.24493832       0.07310336
N        7.10107366       6.46117336       7.99941097      -1.03130017       0.03880347      -0.59551171       1.13411163      -0.10997273      -1.11375630
8
Lattice="11.920973240305246 0.0 0.0 0.0 11.920973240305246 0.0 0.0 0.0 11.920973240305246" Properties=species:S:1:pos:R:3:momenta:R:3:forces:R:3 energy=-438.186072844 free_energy=-438.186072844 stress="0.00080577488572287 0.00011209523118331 0.00027242290856873 0.00011209523118331 0.00041419294802847 7.8095049789129e-05 0.00027242290856873 7.8095049789129e-05 0.0011872463053261" pbc="T T T"
B        5.13809605       4.99108787       4.99429438       0.41831760      -0.28022939       0.39003436       0.19128926      -1.05864118      -2.18030562
H        6.88153424       5.45075054       8.14805262      -0.04718166      -0.17574992       0.12243010      -0.20477861       0.54093487       0.09010315
H        7.83894825       6.59204567       7.25404973       0.24405350       0.34907403       0.08660845      -0.73211456      -0.07290308       0.96734948
H        6.29795885       7.09928202       7.86047343      -0.12437385       0.07602589       0.15383527      -0.29558830      -0.10257855       0.19327317
H        5.01585177       4.82169122       3.77292062       0.22154873       0.02633277       0.02490863       0.52244193       0.48734959       1.35522442
H        4.08202499       4.94026864       5.50372816      -0.05544763       0.07666023       0.02488691       0.10811713       0.31654794       0.80628617
H        6.24107028       4.98698033       5.47511621       0.31609941      -0.09951822      -0.14894441      -0.80923210       0.24290478       0.03396902
N        7.09241106       6.45887460       7.99430284      -0.97293624       0.02739577      -0.65345983       1.22216166      -0.35374842      -1.25796474
8
Lattice="11.920660234682597 0.0 0.0 0.0 11.920660234682597 0.0 0.0 0.0 11.920660234682597" Properties=species:S:1:pos:R:3:momenta:R:3:forces:R:3 energy=-438.17303174726 free_energy=-438.17303174726 stress="0.0012310883730759 0.00015790697874789 0.00013043804732532 0.00015790697874789 0.00071388766954223 -3.8253151139152e-05 0.00013043804732532 -3.8253151139152e-05 0.0012569218777507" pbc="T T T"
B        5.13566068       4.98683903       4.99124002       0.43205344      -0.33172547       0.28633610       0.35864185      -1.03170791      -2.05008545
H        6.87458377       5.43995936       8.14945973      -0.05401033      -0.13920731       0.12362704      -0.07132181       0.95167956      -0.04177740
H        7.84554150       6.60607837       7.25478249       0.20174021       0.34262472       0.13873238      -0.99669552      -0.19850342       1.15581425
H        6.28715084       7.09995456       7.86354230      -0.13531696       0.06822636       0.16328059      -0.14596645      -0.21707479       0.19018933
H        5.02292201       4.82070568       3.77120051       0.24558020       0.04981869       0.09005486       0.45150964       0.46859369       1.30069378
H        4.07511873       4.94152946       5.50130631      -0.04730925       0.09211242       0.06307362       0.22629793       0.31066782       0.75021866
H        6.25112556       4.97956254       5.46329607       0.27127859      -0.08774076      -0.14790653      -1.02389688       0.23905959       0.01413775
N        7.08469308       6.45604494       7.98723897      -0.91398387       0.00588392      -0.71707477       1.20263668      -0.52276928      -1.32000776
8
Lattice="11.92033505555282 0.0 0.0 0.0 11.92033505555282 0.0 0.0 0.0 11.92033505555282" Properties=species:S:1:pos:R:3:momenta:R:3:forces:R:3 energy=-438.16744753337 free_energy=-438.16744753337 stress="0.0015862247151845 0.00018052232571841 8.1634166990449e-06 0.00018052232571841 0.00094846535996715 -0.00014507055817832 8.1634166990449e-06 -0.00014507055817832 0.0012117403443943" pbc="T T T"
B        5.13421956       4.98204666       4.98621163       0.45315527      -0.38176820       0.19133205       0.47147319      -0.98341365      -1.83810486
H        6.86836694       5.43112276       8.14925424      -0.05480023      -0.08531948       0.11907922       0.04343098       1.25328153      -0.15154362
H        7.85067440       6.61935157       7.25677057       0.14928815       0.33087631       0.19776554      -1.15356545      -0.30376630       1.23966337
H        6.27689159       7.09980043       7.86555716      -0.13874477       0.05490342       0.17284233       0.01701439      -0.33095536       0.18857333
H        5.03200328       4.82053463       3.77108082       0.26611425       0.07210595       0.15061413       0.36816002       0.43571971       1.16078464
H        4.06966066       4.94323057       5.49916556      -0.03312884       0.10727048       0.09821627       0.35575557       0.30009522       0.67657002
H        6.25966330       4.97239897       5.44997841       0.21756350      -0.07629915      -0.14742512      -1.18290244       0.23283995       0.01576830
N        7.07808591       6.45281294       7.97842227      -0.85942622      -0.02177222      -0.78251873       1.08228316      -0.60354788      -1.30245841
8
Lattice="11.92000160584491 0.0 0.0 0.0 11.92000160584491 0.0 0.0 0.0 11.92000160584491" Properties=species:S:1:pos:R:3:momenta:R:3:forces:R:3 energy=-438.17432872476 free_energy=-438.17432872476 stress="0.0018445516813178 0.00017958928286651 -8.87016856937e-05 0.00017958928286651 0.0010965438052155 -0.00023233871037056 -8.87016856937e-05 -0.00023233871037056 0.001054854407301" pbc="T T T"
B        5.13383356       4.97689567       4.97954879       0.47870608      -0.42915959       0.10854272       0.53070280      -0.91374137      -1.55119491
H        6.86319225       5.42513945       8.14747197      -0.05053117      -0.01976100       0.10993649       0.13591567       1.42567416      -0.23300148
H        7.85400632       6.63179492       7.26051890       0.09198009       0.31476589       0.25862241      -1.19422990      -0.38114914       1.22109999
H        6.26760221       7.09872378       7.86681447      -0.13432443       0.03633756       0.18245608       0.17705090      -0.43117507       0.18651797
H        5.04293783       4.82127782       3.77252963       0.28245523       0.09252740       0.20247083       0.27481655       0.38990088       0.93716314
H        4.06599528       4.94552527       5.49742993      -0.01253772       0.12184978       0.12958426       0.48703928       0.28421161       0.59003311
H        6.26633828       4.96564923       5.43545962       0.15755941      -0.06525006      -0.14632066      -1.28017709       0.22371666       0.03956451
N        7.07260318       6.44934021       7.96814798      -0.81327980      -0.05130419      -0.84562693       0.86972946      -0.59654251      -1.20844657
8
Lattice="11.919664539864328 0.0 0.0 0.0 11.919664539864328 0.0 0.0 0.0 11.919664539864328" Properties=species:S:1:pos:R:3:momenta:R:3:forces:R:3 energy=-438.19461665056 free_energy=-438.19461665056 stress="0.0019817376058406 0.00015660652341015 -0.000155766005838 0.00015660652341015 0.0011423643423723 -0.0002910929198938 -0.000155766005838 -0.0002910929198938 0.00079512284944309" pbc="T T T"
B        5.13441068       4.97158094       4.97168224       0.50562333      -0.47244081       0.04123707       0.53891902      -0.82454456      -1.19889627
H        6.85917983       5.42260616       8.14428482      -0.04227401       0.05095007       0.09755494       0.20394462       1.45699545      -0.28159792
H        7.85532963       6.64338997       7.26634986       0.03548282       0.29546046       0.31615153      -1.11310177      -0.42306122       1.10450694
H        6.25956602       7.09666184       7.86767509      -0.12245131       0.01345165       0.19185913       0.31608590      -0.50406568       0.18241055
H        5.05539015       4.82300270       3.77537972       0.29387051       0.11040601       0.24142207       0.17445138       0.33322121       0.63462383
H        4.06433491       4.94855113       5.49626145       0.01435359       0.13545912       0.15653507       0.61011542       0.26308565       0.49566650
H        6.27080317       4.95947312       5.42017248       0.09416348      -0.05466030      -0.14334448      -1.31130179       0.21144347       0.08540334
N        7.06810771       6.44580677       7.95680291      -0.77879399      -0.07860296      -0.90190192       0.57720400      -0.51083250      -1.03912002
8
Lattice="11.919328987767651 0.0 0.0 0.0 11.919328987767651 0.0 0.0 0.0 11.919328987767651" Properties=species:S:1:pos:R:3:momenta:R:3:forces:R:3 energy=-438.22445445108 free_energy=-438.22445445108 stress="0.0019843221031179 0.00011346819588521 -0.00019148961943761 0.00011346819588521 0.0010801553249961 -0.0003151364127063 -0.00019148961943761 -0.0003151364127063 0.00044991142057332" pbc="T T T"
B        5.13570932       4.96628915       4.96312485       0.53099096      -0.51016870      -0.00767973       0.50057831      -0.71814607      -0.79603704
H        6.85625864       5.42376264       8.14000443      -0.03119648       0.11970950       0.08349212       0.24645314       1.34543679      -0.29463341
H        7.85459331       6.65417342       7.27439892      -0.01420564       0.27453220       0.36534756      -0.91191309      -0.42481461       0.89973377
H        6.25288981       7.09360052       7.86855060      -0.10431386      -0.01219472       0.20067833       0.42139393      -0.54067029       0.17509815
H        5.06885729       4.82572847       3.77932455       0.29980041       0.12513147       0.26349497       0.07061953       0.26845780       0.26399558
H        4.06473568       4.95240988       5.49585874       0.04690734       0.14767299       0.17855890       0.71612589       0.23652164       0.39835655
H        6.27273253       4.95400949       5.40467472       0.03064848      -0.04465451      -0.13733564      -1.27537849       0.19574070       0.15226248
N        7.06431528       6.44239169       7.94485711      -0.75879683      -0.09996240      -0.94693425       0.22301561      -0.35785568      -0.80162819
8
Lattice="11.919000034230539 0.0 0.0 0.0 11.919000034230539 0.0 0.0 0.0 11.919000034230539" Properties=species:S:1:pos:R:3:momenta:R:3:forces:R:3 energy=-438.25618848224 free_energy=-438.25618848224 stress="0.0018450576734738 5.3693914779541e-05 -0.0001966821421038 5.3693914779541e-05 0.00090960167089355 -0.00030039510431652 -0.0001966821421038 -0.00030039510431652 4.4428360854814e-05" pbc="T T T"
B        5.13735031       4.96117846       4.95444789       0.55235490      -0.54130492      -0.03617926       0.41994444      -0.59930155      -0.36672037
H        6.85417003       5.42845778       8.13507170      -0.01857762       0.17925233       0.06946609       0.26286739       1.09340966      -0.27076022
H        7.85191854       6.66424330       7.28461782      -0.05116795       0.25401524       0.40183543      -0.59834302      -0.38293543       0.62093444
H        6.24747233       7.08958379       7.86988296      -0.08189157      -0.03853900       0.20856360       0.48075465      -0.53339002       0.16391676
H        5.08269617       4.82941624       3.78392834       0.30005421       0.13630266       0.26556967      -0.03258908       0.19971127      -0.15481663
H        4.06708150       4.95715172       5.49644932       0.08397554       0.15814008       0.19541623       0.79694742       0.20515159       0.30306403
H        6.27184671       4.94935414       5.38961903      -0.02946766      -0.03542827      -0.12733636      -1.17253062       0.17662050       0.23869702
N        7.06080559       6.43925218       7.93284022      -0.75554480      -0.11230139      -0.97726708      -0.16614263      -0.15304976      -0.51783966
8
Lattice="11.91868236440203 0.0 0.0 0.0 11.91868236440203 0.0 0.0 0.0 11.91868236440203" Properties=species:S:1:pos:R:3:momenta:R:3:forces:R:3 energy=-438.28103937279 free_energy=-438.28103937279 stress="0.0015694504348415 -1.7257723123585e-05 -0.00017675575890101 -1.7257723123585e-05 0.00063970202943087 -0.00024686486647555 -0.00017675575890101 -0.00024686486647555 -0.000387195153717" pbc="T T T"
B        5.13884175       4.95635951       4.94624132       0.56781139      -0.56541606      -0.04373759       0.30195819      -0.47400256       0.05531025
H        6.85248539       5.43614456       8.13002887      -0.00575735       0.22276860       0.05728537       0.25411766       0.71247565      -0.21097332
H        7.84759726       6.67375974       7.29678946      -0.07028538       0.23617667       0.42247209      -0.19316584      -0.29876320       0.29188934
H        6.24299174       7.08471524       7.87211575      -0.05777618      -0.06323669       0.21529250       0.48619206      -0.47853179       0.14868259
H        5.09616503       4.83396712       3.78865349       0.29483280       0.14383945       0.24605553      -0.13096140       0.13197102      -0.59096633
H        4.07108511       4.96276532       5.49827470       0.12401078       0.16664844       0.20725037       0.84614834       0.16985846       0.21441963
H        6.26793330       4.94554201       5.37571071      -0.08274623      -0.02719671      -0.11257622      -1.00545119       0.15416470       0.34255963
N        7.05704758       6.43650441       7.92130218      -0.77029348      -0.11342911      -0.99152307      -0.56431323       0.08769290      -0.22750771
8
Lattice="11.918379782776315 0.0 0.0 0.0 11.918379782776315 0.0 0.0 0.0 11.918379782776315" Properties=species:S:1:pos:R:3:momenta:R:3:forces:R:3 energy=-438.29246921512 free_energy=-438.29246921512 stress="0.0011776278025408 -9.0659532473636e-05 -0.00014287421205328 -9.0659532473636e-05 0.00029048471308317 -0.00015988381402501 -0.00014287421205328 -0.00015988381402501 -0.00080324322414415" pbc="T T T"
B        5.13961645       4.95188088       4.93906013       0.57599549      -0.58264179      -0.03176269       0.15330518      -0.34903516       0.42801297
H        6.85064343       5.44590751       8.12547622       0.00603517       0.24458462       0.04871853       0.22376432       0.22746452      -0.11987728
H        7.84206931       6.68293290       7.31055670      -0.06807162       0.22310863       0.42593317       0.26460502      -0.18099740      -0.05224264
H        6.23892100       7.07915280       7.87565724      -0.03486134      -0.08389501       0.22083844       0.43414085      -0.37613385       0.12989603
H        5.10847490       4.83922698       3.79290356       0.28466114       0.14801383       0.20543315      -0.22079900       0.07055559      -1.00334714
H        4.07631047       4.96917272       5.50156607       0.16524538       0.17313507       0.21463580       0.85902916       0.13183809       0.13661955
H        6.26086946       4.94253645       5.36365849      -0.12608411      -0.02014769      -0.09237849      -0.77984128       0.12857892       0.46068668
N        7.05243882       6.43420823       7.91075949      -0.80302918      -0.10205318      -0.99086343      -0.93728474       0.35071003       0.03543370
8
Lattice="11.91809475836028 0.0 0.0 0.0 11.91809475836028 0.0 0.0 0.0 11.91809475836028" Properties=species:S:1:pos:R:3:momenta:R:3:forces:R:3 energy=-438.2891112749 free_energy=-438.2891112749 stress="0.0007056890653851 -0.00015366671347452 -0.00011134168712994 -0.00015366671347452 -0.0001049410506982 -5.1161078708683e-05 -0.00011134168712994 -5.1161078708683e-05 -0.0011578238842436" pbc="T T T"
B        5.13908540       4.94772159       4.93336750       0.57611499      -0.59359131      -0.00383918      -0.01571784      -0.23084591       0.70581637
H        6.84801304       5.45652650       8.12201493       0.01590544       0.24090438       0.04520970       0.17927272      -0.31805333      -0.00710158
H        7.83587560       6.69199498       7.32546943      -0.04355174       0.21621153       0.41308875       0.71554337      -0.04766563      -0.36607979
H        6.23457477       7.07309911       7.88083910      -0.01599957      -0.09831054       0.22531951       0.32639334      -0.23046226       0.10874480
H        5.11885311       4.84499565       3.79607983       0.27028586       0.14938018       0.14646243      -0.29958495       0.02011294      -1.34495881
H        4.08221916       4.97622870       5.50651292       0.20585329       0.17763972       0.21846048       0.83263790       0.09250248       0.07322094
H        6.25065307       4.94022504       5.35412247      -0.15689104      -0.01444322      -0.06620010      -0.50555436       0.10017415       0.58837491
N        7.04636247       6.43235894       7.90164019      -0.85178678      -0.07772686      -0.97825672      -1.23563877       0.61653989       0.24214412
8
Lattice="11.917828017528088 0.0 0.0 0.0 11.917828017528088 0.0 0.0 0.0 11.917828017528088" Properties=species:S:1:pos:R:3:momenta:R:3:forces:R:3 energy=-438.2759931211 free_energy=-438.2759931211 stress="0.0002038175936176 -0.00019019627439478 -0.00010054737532602 -0.00019019627439478 -0.00050052301848716 6.1470725027805e-05 -0.00010054737532602 6.1470725027805e-05 -0.0014080855212683" pbc="T T T"
B        5.13671205       4.94379102       4.92948452       0.56802178      -0.59917927       0.03432827      -0.18968058      -0.12429431       0.84823016
H        6.84398532       5.46658575       8.12018052       0.02347945       0.21066311       0.04751253       0.13252835      -0.85908140       0.11173796
H        7.82958755       6.70115519       7.34105155       0.00096736       0.21572551       0.38708741       1.08567185       0.07481534      -0.60087785
H        6.22918968       7.06678911       7.88787748      -0.00371430      -0.10468264       0.22889211       0.17116726      -0.05066360       0.08695659
H        5.12662013       4.85103890       3.79764750       0.25251443       0.14866443       0.07402457      -0.36639437      -0.01651798      -1.57113456
H        4.08824046       4.98372528       5.51323013       0.24401511       0.18026739       0.21973853       0.76583661       0.05339516       0.02697220
H        6.23744610       4.93842203       5.34766323      -0.17329510      -0.01022387      -0.03377014      -0.19775966       0.06934501       0.71892260
N        7.03826738       6.43088550       7.89423839      -0.91206097      -0.04117385      -0.95797565      -1.40380687       0.85595892       0.36535168
8
Lattice="11.91757828866504 0.0 0.0 0.0 11.91757828866504 0.0 0.0 0.0 11.91757828866504" Properties=species:S:1:pos:R:3:momenta:R:3:forces:R:3 energy=-438.26271869954 free_energy=-438.26271869954 stress="-0.00027005914051669 -0.00018442617423867 -0.00012545992168593 -0.00018442617423867 -0.00084166430442887 0.00015669231818084 -0.00012545992168593 0.00015669231818084 -0.0015231906469801" pbc="T T T"
B        5.13210206       4.93993709       4.92755418       0.55231438      -0.60037463       0.07547592      -0.34763889      -0.03169262       0.83051149
H        6.83808931       5.47463384       8.12037472       0.02904823       0.15630487       0.05541022       0.09839582      -1.31420517       0.21570841
H        7.82372101       6.71054218       7.35688050       0.05967020       0.22046101       0.35303580       1.30277162       0.15715834      -0.71732404
H        6.22203289       7.06047630       7.89684501       0.00009822      -0.10180657       0.23170310      -0.01584892       0.14861076       0.06648240
H        5.13127358       4.85710199       3.79720357       0.23205890       0.14662670      -0.00535401      -0.42177713      -0.03911455      -1.64971187
H        4.09385728       4.99140228       5.52173219       0.27793745       0.18116139       0.21948777       0.65948774       0.01608829      -0.00044638
H        6.22162380       4.93687847       5.34469937      -0.17434515      -0.00760066       0.00481316       0.12235328       0.03653533       0.84335098
N        7.02776470       6.42965450       7.88868330      -0.97683787       0.00531812      -0.93504920      -1.39740259       1.03093594       0.38952259
8
Lattice="11.917342306748196 0.0 0.0 0.0 11.917342306748196 0.0 0.0 0.0 11.917342306748196" Properties=species:S:1:pos:R:3:momenta:R:3:forces:R:3 energy=-438.25882910377 free_energy=-438.25882910377 stress="-0.00066025221524399 -0.00012651579877754 -0.00019160251466621 -0.00012651579877754 -0.0010748947543762 0.00021459912127833 -0.00019160251466621 0.00021459912127833 -0.0014916241685557" pbc="T T T"
B        5.12509188       4.93596471       4.92752854       0.53041081      -0.59790093       0.11175958      -0.46464828       0.04741616       0.65241433
H        6.83011163       5.47938670       8.12280564       0.03358483       0.08409185       0.06756823       0.09080950      -1.60149952       0.28221609
H        7.81865324       6.72014771       7.37265965       0.12388595       0.22786788       0.31710704       1.31901471       0.17646030      -0.69939837
H        6.21252438       7.05441814       7.90766101      -0.00550625      -0.08927746       0.23384303      -0.21121108       0.34716563       0.04894565
H        5.13256434       4.86292417       3.79453667       0.20942133       0.14389872      -0.08428282      -0.46714442      -0.05011769      -1.56955004
H        4.09868907       4.99896464       5.53192256       0.30583870       0.18045726       0.21862571       0.51683464      -0.01793403      -0.00875980
H        6.20381302       4.93530127       5.34547978      -0.16019220      -0.00665527       0.04898228       0.42801365       0.00219332       0.95052851
N        7.01472184       6.42848166       7.88493100      -1.03740258       0.05764481      -0.91420127      -1.20676367       1.10111953       0.32109338
8
Lattice="11.917115144607807 0.0 0.0 0.0 11.917115144607807 0.0 0.0 0.0 11.917115144607807" Properties=species:S:1:pos:R:3:momenta:R:3:forces:R:3 energy=-438.26880462042 free_energy=-438.26880462042 stress="-0.00092400917162491 -1.8160281424863e-05 -0.00029176078117706 -1.8160281424863e-05 -0.0011609724438772 0.00022238022041023 -0.00029176078117706 0.00022238022041023 -0.0013236069333958" pbc="T T T"
B        5.11581105       4.93166477       4.92918368       0.50463030      -0.59203955       0.13594934      -0.51550178       0.11566209       0.34099034
H        6.82018656       5.47994458       8.12744692       0.03856519       0.00362479       0.08162911       0.11742172      -1.66268395       0.29348063
H        7.81456635       6.72979410       7.38825996       0.18360505       0.23452402       0.28528286       1.12895096       0.12492095      -0.56130305
H        6.20035038       7.04885902       7.92010302      -0.02017138      -0.06770620       0.23530655      -0.38531550       0.52068722       0.03502834
H        5.13054478       4.86825613       3.78966823       0.18489514       0.14086512      -0.15543644      -0.50395010      -0.05380989      -1.34373446
H        4.10254880       5.00610820       5.54360216       0.32597572       0.17825509       0.21788742       0.34399243      -0.04743414       0.00050275
H        6.18489286       4.93338182       5.35007108      -0.13225188      -0.00743614       0.09756547       0.68915658      -0.03328544       1.02798030
N        6.99932470       6.42715222       7.88278293      -1.08510411       0.11003919      -0.89873172      -0.86996268       1.03980836       0.18684491
8
Lattice="11.916890857963384 0.0 0.0 0.0 11.916890857963384 0.0 0.0 0.0 11.916890857963384" Properties=species:S:1:pos:R:3:momenta:R:3:forces:R:3 energy=-438.2897976689 free_energy=-438.2897976689 stress="-0.0010384586788951 0.00012545336244115 -0.00040789059343187 0.00012545336244115 -0.0010860518176643 0.00017831101620078 -0.00040789059343187 0.00017831101620078 -0.0010473605672068" pbc="T T T"
B        5.10469239       4.92685049       4.93215888       0.47831576      -0.58273411       0.14262948      -0.48010070       0.17672925      -0.05432162
H        6.80881993       5.47597143       8.13402841       0.04558252      -0.07370987       0.09462988       0.17568618      -1.48456393       0.24303264
H        7.81143393       6.73914715       7.40371868       0.22958765       0.23702561       0.26219237       0.77156766       0.01268113      -0.34205844
H        6.18554184       7.04400763       7.93383954      -0.04204076      -0.03887973       0.23602672      -0.50660202       0.64409745       0.02395405
H        5.12557069       4.87288322       3.78286245       0.15872697       0.13765656      -0.21246524      -0.53308254      -0.05497343      -1.00592051
H        4.10545693       5.01255555       5.55649688       0.33688142       0.17465889       0.21782978       0.15028261      -0.07163281       0.02363338
H        6.16593083       4.93083241       5.35835750      -0.09332910      -0.00997196       0.14871145       0.87682411      -0.06956933       1.06354063
N        6.98207791       6.42545096       7.88192520      -1.11363370       0.15605266      -0.89004400      -0.45584785       0.85064474       0.02718497
8
Lattice="11.916663315539886 0.0 0.0 0.0 11.916663315539886 0.0 0.0 0.0 11.916663315539886" Properties=species:S:1:pos:R:3:momenta:R:3:forces:R:3 energy=-438.31344860013 free_energy=-438.31344860013 stress="-0.0010025474973207 0.00027919303434537 -0.00051708510207507 0.00027919303434537 -0.00086620808874138 9.2356102173791e-05 -0.00051708510207507 9.2356102173791e-05 -0.00070076193571339" pbc="T T T"
B        5.09241762       4.92139425       4.93601299       0.45574091      -0.56995312       0.12914753      -0.34906280       0.23420627      -0.47284238
H        6.79682355       5.46776815       8.14206698       0.05589095      -0.13698199       0.10365384       0.25309528      -1.10563714       0.13868765
H        7.80905506       6.74778104       7.41919860       0.25520173       0.23285274       0.25047286       0.31595640      -0.13649450      -0.09120794
H        6.16849132       7.04001042       7.94847767      -0.06778054      -0.00579339       0.23595079      -0.54941887       0.69739187       0.01327716
H        5.11824578       4.87665290       3.77459634       0.13127200       0.13423412      -0.25084561      -0.55469708      -0.05757862      -0.60118682
H        4.10760825       5.01809715       5.57029872       0.33770741       0.16984923       0.21887720      -0.05182492      -0.09043121       0.05456273
H        6.14804995       4.92742326       5.37005515      -0.04754888      -0.01428218       0.20000069       0.96909782      -0.10632672       1.04765723
N        6.96373195       6.42319956       7.88198004      -1.12055814       0.19017330      -0.88779179      -0.03778703       0.56907735      -0.11326289
8
Lattice="11.916427038327587 0.0 0.0 0.0 11.916427038327587 0.0 0.0 0.0 11.916427038327587" Properties=species:S:1:pos:R:3:momenta:R:3:forces:R:3 energy=-438.3304987172 free_energy=-438.3304987172 stress="-0.00083303047068824 0.00041554119076272 -0.00059924652837045 0.00041554119076272 -0.00054056801506989 -1.7681790467409e-05 -0.00059924652837045 -1.7681790467409e-05 -0.00032197510411517" pbc="T T T"
B        5.07981455       4.91525447       4.94028218       0.44150165      -0.55386640       0.09593288      -0.12770419       0.29079174      -0.85560216
H        6.78517818       5.45620450       8.15093619       0.06997370      -0.17812806       0.10659889       0.33247794      -0.60018439      -0.00063921
H        7.80712254       6.75527107       7.43491948       0.25755463       0.22092468       0.25057723      -0.16272531      -0.29460203       0.14731705
H        6.14990574       7.03693086       7.96361005      -0.09316449       0.02781365       0.23506629      -0.50039023       0.67037447      -0.00059851
H        5.10931955       4.87949617       3.76549085       0.10297426       0.13046467      -0.26838599      -0.56843923      -0.06402568      -0.17567564
H        4.10930450       5.02262392       5.58470085       0.32845325       0.16407978       0.22122175      -0.24760517      -0.10454204       0.08516494
H        6.13226387       4.92301165       5.38473493       0.00005594      -0.02035477       0.24870632       0.95663940      -0.14308134       0.97564613
N        6.94516173       6.42029080       7.88255493      -1.10745540       0.20919528      -0.89033169       0.31718728       0.24934028      -0.20051155
8
Lattice="11.916177813197086 0.0 0.0 0.0 11.916177813197086 0.0 0.0 0.0 11.916177813197086" Properties=species:S:1:pos:R:3:momenta:R:3:forces:R:3 energy=-438.33525321316 free_energy=-438.33525321316 stress="-0.00056099152939058 0.00051221333549807 -0.00064161441443476 0.00051221333549807 -0.00016033669164639 -0.00013132575768494 -0.00064161441443476 -0.00013132575768494 5.6856999408115e-05" pbc="T T T"
B        5.06774486       4.90848955       4.94453244       0.43963536      -0.53475051       0.04609258       0.16300239       0.34826711      -1.15550431
H        6.77488005       5.44255105       8.15994932       0.08748321      -0.19311040       0.10235273       0.39785359      -0.05386377      -0.15129933
H        7.80529447       6.76127971       7.45109534       0.23722448       0.20155558       0.26120975      -0.60060791      -0.43685390       0.34309623
H        6.13072438       7.03473829       7.97884737      -0.11378614       0.05799310       0.23322036      -0.36329329       0.56637226      -0.02096992
H        5.09957666       4.88143952       3.75622850       0.07429780       0.12620700      -0.26521197      -0.57380911      -0.07508947       0.23142762
H        4.11088334       5.02614355       5.59942061       0.30997151       0.15762836       0.22469788      -0.42153908      -0.11553189       0.10595817
H        6.11934201       4.91755671       5.40185509       0.04433925      -0.02817344       0.29212439       0.84512714      -0.17920123       0.84897916
N        6.92724232       6.41671311       7.88328622      -1.07913329       0.21276423      -0.89508467       0.55605712      -0.05197053      -0.22375943
8
Lattice="11.915913061997353 0.0 0.0 0.0 11.915913061997353 0.0 0.0 0.0 11.915913061997353" Properties=species:S:1:pos:R:3:momenta:R:3:forces:R:3 energy=-438.32742452985 free_energy=-438.32742452985 stress="-0.00022660638410143 0.00055647969107409 -0.00064013785126163 0.00055647969107409 0.00022318276979318 -0.00023025153832873 -0.00064013785126163 -0.00023025153832873 0.00041200824602169" pbc="T T T"
B        5.05699964       4.90125196       4.94839070       0.45289612      -0.51288019      -0.01539373       0.48980689       0.40762099      -1.34209126
H        6.76680497       5.42826020       8.16843833       0.10745450      -0.18199943       0.09097598       0.43829826       0.45833012      -0.29156107
H        7.80325360       6.76561264       7.46788289       0.19758584       0.17615714       0.27994228      -0.95307387      -0.54541333       0.48025442
H        6.11200649       7.03331473       7.99383284      -0.12589175       0.08138012       0.23018007      -0.15773187       0.40116566      -0.04929336
H        5.08973799       4.88259834       3.74747474       0.04572343       0.12133856      -0.24323160      -0.57044809      -0.09032724       0.59143591
H        4.11265946       5.02877234       5.61419860       0.28392038       0.15070993       0.22869015      -0.55947902      -0.12558500       0.10742403
H        6.10972884       4.91111491       5.42079126       0.08087545      -0.03767454       0.32788365       0.65353944      -0.21386434       0.67514364
N        6.91074033       6.41255450       7.88386170      -1.04248371       0.20302416      -0.89957738       0.66010066      -0.29138538      -0.19151633
8
Lattice="11.915631944775686 0.0 0.0 0.0 11.915631944775686 0.0 0.0 0.0 11.915631944775686" Properties=species:S:1:pos:R:3:momenta:R:3:forces:R:3 energy=-438.31115818682 free_energy=-438.31115818682 stress="0.00012662864035368 0.0005453261678883 -0.00059777796285508 0.0005453261678883 0.00056604565617843 -0.00030089862294868 -0.00059777796285508 -0.00030089862294868 0.00072756698460127" pbc="T T T"
B        5.04822210       4.89376796       4.95155824       0.48231999      -0.48846831      -0.08255171       0.81428263       0.46910550      -1.40130107
H        6.76161609       5.41476447       8.17581384       0.12861228      -0.14806453       0.07346934       0.44869381       0.88232955      -0.40525965
H        7.80074354       6.76823826       7.48535299       0.14374113       0.14679500       0.30389256      -1.19384648      -0.60941976       0.55416320
H        6.09481360       7.03247531       8.00824653      -0.12696459       0.09565150       0.22571405       0.08601960       0.19871463      -0.08463450
H        5.08039113       4.88315663       3.73981810       0.01773449       0.11576175      -0.20546993      -0.55828921      -0.10858926       0.88602793
H        4.11488841       5.03070817       5.62878420       0.25256696       0.14340743       0.23218128      -0.65086762      -0.13706584       0.08162945
H        6.10352650       4.90382057       5.44086648       0.10652554      -0.04876979       0.35419859       0.40920040      -0.24605226       0.46615757
N        6.89624058       6.40798919       7.88402624      -1.00454040       0.18370552      -0.90194723       0.64289348      -0.44939714      -0.11786008
8
Lattice="11.915335256117274 0.0 0.0 0.0 11.915335256117274 0.0 0.0 0.0 11.915335256117274" Properties=species:S:1:pos:R:3:momenta:R:3:forces:R:3 energy=-438.29277973485 free_energy=-438.29277973485 stress="0.00045660970738582 0.00048307406253324 -0.00052152431104193 0.00048307406253324 0.00083460447158329 -0.00033514128645299 -0.00052152431104193 -0.00033514128645299 0.00099334472622415" pbc="T T T"
B        5.04186128       4.88630830       4.95381323       0.52710913      -0.46163044      -0.14917630       1.10103527       0.53229701      -1.33245797
H        6.75971506       5.40332193       8.18160243       0.14956482      -0.09662405       0.05144931       0.42858500       1.18507182      -0.48225062
H        7.79758640       6.76927930       7.50348149       0.08159755       0.11584677       0.33015936      -1.31023236      -0.62328608       0.56722928
H        6.08009892       7.03199685       8.02180660      -0.11607060       0.09974368       0.21967002       0.33402386      -0.01436372      -0.12400331
H        5.07194982       4.88333840       3.73373282      -0.00925170       0.10940897      -0.15551836      -0.53757895      -0.12844669       1.10509360
H        4.11774885       5.03219316       5.64291654       0.21845690       0.13565464       0.23384087      -0.69044208      -0.15200543       0.02379388
H        6.10052464       4.89585749       5.46138132       0.11959525      -0.06134297       0.36995723       0.14186330      -0.27470097       0.23629896
N        6.88411098       6.40325103       7.88357967      -0.97108479       0.15893793      -0.90093884       0.52977138      -0.52611596      -0.01746134
8
Lattice="11.91502519651585 0.0 0.0 0.0 11.91502519651585 0.0 0.0 0.0 11.91502519651585" Properties=species:S:1:pos:R:3:momenta:R:3:forces:R:3 energy=-438.27835646297 free_energy=-438.27835646297 stress="0.00072621204636494 0.00037854754265326 -0.00041979900367813 0.00037854754265326 0.0010055320955312 -0.00032975816323923 -0.00041979900367813 -0.00032975816323923 0.0012026048593622" pbc="T T T"
B        5.03815031       4.88126705       4.95500828       0.58487222      -0.43235661      -0.20936309       1.32391886       0.59605222      -1.14470414
H        6.76122596       5.39702298       8.18546544       0.16894028      -0.03407765       0.02687092       0.38046338       1.34935861      -0.51715274
H        7.79369080       6.77110023       7.52215107       0.01729848       0.08579742       0.35601773      -1.29847084      -0.58489894       0.52561498
H        6.06861440       7.03375815       8.03427092      -0.09385190       0.09383479       0.21201585       0.55490216      -0.21346148      -0.16309963
H        5.06463690       4.88548748       3.72955975      -0.03489822       0.10224715      -0.09717316      -0.50885210      -0.14844807       1.24408624
H        4.12133440       5.03558481       5.65630816       0.18409754       0.12726053       0.23214913      -0.67895914      -0.17161817      -0.06660109
H        6.10025556       4.88953949       5.48164155       0.11973669      -0.07522299       0.37465830      -0.12121769      -0.29887661      -0.00011044
N        6.87449468       6.40071128       7.88237267      -0.94628708       0.13247293      -0.89580012       0.34601476      -0.53075987       0.09543679
8
Lattice="11.91470508015102 0.0 0.0 0.0 11.91470508015102 0.0 0.0 0.0 11.91470508015102" Properties=species:S:1:pos:R:3:momenta:R:3:forces:R:3 energy=-438.27167811749 free_energy=-438.27167811749 stress="0.00090636571282968 0.00024308032915571 -0.00030103979828565 0.00024308032915571 0.0010647007894557 -0.00028550151287741 -0.00030103979828565 -0.00028550151287741 0.0013505225524638" pbc="T T T"
B        5.03710070       4.87803549       4.95506542       0.65208049      -0.40052390      -0.25779610       1.46841013       0.65852079      -0.85373571
H        6.76599925       5.39562797       8.18720723       0.18546886       0.03269909       0.00179461       0.30840333       1.36824522      -0.50782027
H        7.78905777       6.77318300       7.54115749      -0.04308463       0.05911552       0.37898531      -1.16137822      -0.49474639       0.43765501
H        6.06083968       7.03666959       8.04544017      -0.06226575       0.07912167       0.20283264       0.72351043      -0.37864846      -0.19709531
H        5.05848337       4.88894233       3.72749785      -0.05890815       0.09427233      -0.03427426      -0.47292204      -0.16724955       1.30186873
H        4.12564731       5.04022398       5.66863581       0.15170928       0.11795689       0.22558159      -0.62276205      -0.19599720      -0.18553129
H        6.10205575       4.88418712       5.50098077       0.10771918      -0.09019329       0.36829756      -0.35823565      -0.31797777      -0.23017115
N        6.86731649       6.39974984       7.88030230      -0.93276840       0.10747133      -0.88609363       0.11440432      -0.47572841       0.20676562
8
Lattice="11.91437900269915 0.0 0.0 0.0 11.91437900269915 0.0 0.0 0.0 11.91437900269915" Properties=species:S:1:pos:R:3:momenta:R:3:forces:R:3 energy=-438.27309890806 free_energy=-438.27309890806 stress="0.00097797944751435 8.9646933500355e-05 -0.00017322449443345 8.9646933500355e-05 0.001005943824096 -0.00020635994986837 -0.00017322449443345 -0.00020635994986837 0.0014332437515026" pbc="T T T"
B        5.03850943       4.87533214       4.95397313       0.72457039      -0.36601091      -0.28990522       1.53083227       0.71707062      -0.47915981
H        6.77362930       5.39788093       8.18677776       0.19805039       0.09671032      -0.02166691       0.21741175       1.24123333      -0.45416530
H        7.78378590       6.77445521       7.56022252      -0.09380086       0.03814640       0.39691776      -0.90833931      -0.35599479       0.31354849
H        6.05693600       7.03904686       8.05516442      -0.02423272       0.05756845       0.19236739       0.82150159      -0.49506454      -0.22107774
H        5.05333970       4.89236782       3.72760124      -0.08099010       0.08551269       0.02933369      -0.43088887      -0.18364124       1.27925721
H        4.13059310       5.04476302       5.67954605       0.12306759       0.10745965       0.21282150      -0.53250861      -0.22404869      -0.32489631
H        6.10512597       4.87845999       5.51878354       0.08516069      -0.10597679       0.35128915      -0.55363624      -0.33170103      -0.44306160
N        6.86229904       6.39908306       7.87731066      -0.93181553       0.08648341      -0.87182859      -0.14327042      -0.37246881       0.30189858
8
Lattice="11.914051496593384 0.0 0.0 0.0 11.914051496593384 0.0 0.0 0.0 11.914051496593384" Properties=species:S:1:pos:R:3:momenta:R:3:forces:R:3 energy=-438.27954849492 free_energy=-438.27954849492 stress="0.00093553994304089 -6.7166065908896e-05 -4.4703495784719e-05 -6.7166065908896e-05 0.00083277300652719 -9.9557851988734e-05 -4.4703495784719e-05 -9.9557851988734e-05 0.0014485017610744" pbc="T T T"
B        5.04197809       4.87372456       4.95178143       0.79808723      -0.32884383      -0.30203972       1.51580797       0.76871592      -0.04261542
H        6.78348563       5.40402764       8.18427597       0.20580893       0.15096723      -0.04140623       0.11345328       0.97570384      -0.35854561
H        7.77807424       6.77580638       7.57901455      -0.12964707       0.02504045       0.40815361      -0.55952526      -0.17644210       0.16648984
H        6.05672284       7.04116955       8.06335496       0.01653125       0.03177849       0.18110293       0.83814394      -0.55336949      -0.23065347
H        5.04889621       4.89628035       3.72977553      -0.10086434       0.07605296       0.08979982      -0.38416126      -0.19655745       1.17878528
H        4.13597726       5.04969062       5.68867297       0.09941113       0.09556789       0.19300238      -0.42109337      -0.25372359      -0.47397061
H        6.10858866       4.87288194       5.53450800       0.05429422      -0.12226871       0.32448185      -0.69766229      -0.34021405      -0.63029704
N        6.85898690       6.39928415       7.87338121      -0.94355972       0.07157368      -0.85370537      -0.40243200      -0.22962563       0.36676591
8
Lattice="11.913727100520404 0.0 0.0 0.0 11.913727100520404 0.0 0.0 0.0 11.913727100520404" Properties=species:S:1:pos:R:3:momenta:R:3:forces:R:3 energy=-438.28583314871 free_energy=-438.28583314871 stress="0.00078696307561959 -0.00021110372072527 7.5937248052121e-05 -0.00021110372072527 0.00055842810987374 2.4792690970346e-05 7.5937248052121e-05 2.4792690970346e-05 0.0013962096318629" pbc="T T T"
B        5.04695033       4.87491928       4.94859890       0.86879574      -0.28933585      -0.29166676       1.43315287       0.81038611       0.43313894
H        6.79476440       5.41512056       8.17994434       0.20821859       0.18904925      -0.05550938       0.00338088       0.58835958      -0.22611696
H        7.77221229       6.77936275       7.59718464      -0.14672418       0.02144456       0.41181298      -0.14799977       0.03042914       0.01224164
H        6.05968481       7.04459585       8.06999796       0.05589968       0.00472456       0.16976331       0.76826413      -0.54823029      -0.22181703
H        5.04471646       4.90234368       3.73378276      -0.11831130       0.06606171       0.14337649      -0.33444705      -0.20513767       1.00513769
H        4.14151481       5.05663035       5.69566850       0.08142007       0.08223575       0.16586452      -0.30168697      -0.28244772      -0.62100022
H        6.11154971       4.86913125       5.54771311       0.01776996      -0.13878124       0.28918405      -0.78510344      -0.34392199      -0.78553897
N        6.85678619       6.40207308       7.86853764      -0.96696889       0.06445227      -0.83329253      -0.63196583      -0.05465496       0.38832678
8
Lattice="11.91340994612485 0.0 0.0 0.0 11.91340994612485 0.0 0.0 0.0 11.91340994612485" Properties=species:S:1:pos:R:3:momenta:R:3:forces:R:3 energy=-438.28695758481 free_energy=-438.28695758481 stress="0.0005544926429346 -0.00032487378988509 0.0001797315936835 -0.00032487378988509 0.00020878857003258 0.00015361446626039 0.0001797315936835 0.00015361446626039 0.0012795263225337" pbc="T T T"
B        5.05277039       4.87735826       4.94458761       0.93366000      -0.24808713      -0.25752317       1.29493186       0.83945597       0.92438922
H        6.80656381       5.42865895       8.17415714       0.20518554       0.20576794      -0.06244096      -0.10513447       0.11135689      -0.06667360
H        7.76655390       6.78405279       7.61441185      -0.14317681       0.02817420       0.40798340       0.27738434       0.24390672      -0.13136152
H        6.06501441       7.04777428       8.07516817       0.08963636      -0.02044524       0.15931804       0.61322435      -0.47896636      -0.19138898
H        5.04028722       4.90897002       3.73925281      -0.13322513       0.05577282       0.18661272      -0.28364660      -0.20877431       0.76599936
H        4.14685604       5.06394639       5.70023524       0.06920033       0.06758722       0.13180007      -0.18626518      -0.30751715      -0.75464029
H        6.11316805       4.86563566       5.55808077      -0.02154278      -0.15529639       0.24710779      -0.81385119      -0.34356821      -0.90408470
N        6.85502380       6.40591307       7.86284083      -0.99961780       0.06639326      -0.81307821      -0.79232934       0.14029307       0.35482846
8
Lattice="11.913103310875254 0.0 0.0 0.0 11.913103310875254 0.0 0.0 0.0 11.913103310875254" Properties=species:S:1:pos:R:3:momenta:R:3:forces:R:3 energy=-438.28054109791 free_energy=-438.28054109791 stress="0.00027188941588387 -0.00039219990788396 0.00025845597904308 -0.00039219990788396 -0.0001768652139199 0.00027159807471287 0.00025845597904308 0.00027159807471287 0.0011057958483981" pbc="T T T"
B        5.05876105       4.88096351       4.93995868       0.99054202      -0.20588230      -0.19965434       1.11298945       0.85414445       1.40580868
H        6.81797946       5.44341572       8.16739631       0.19706261       0.19808493      -0.06132429      -0.20441006      -0.40373548       0.10398595
H        7.76147090       6.79030290       7.63045360      -0.11991791       0.04487323       0.39774450       0.65551351       0.43723000      -0.24714998
H        6.07169104       7.05078988       8.07903973       0.11379467      -0.04069866       0.15090343       0.38159290      -0.35019935      -0.13758199
H        5.03508544       4.91606780       3.74570700      -0.14563887       0.04545505       0.21662326      -0.23366050      -0.20719480       0.47347039
H        4.15163241       5.07149646       5.70215688       0.06233756       0.05189098       0.09176276      -0.08466611      -0.32645288      -0.86505855
H        6.11273377       4.86231343       5.56543194      -0.06073165      -0.17169279       0.20024163      -0.78371526      -0.34016694      -0.98241486
N        6.85302684       6.41075410       7.85638723      -1.03732363       0.07787773      -0.79619789      -0.83899232       0.33501877       0.26069181
8
Lattice="11.91280922735403 0.0 0.0 0.0 11.91280922735403 0.0 0.0 0.0 11.91280922735403" Properties=species:S:1:pos:R:3:momenta:R:3:forces:R:3 energy=-438.2681994006 free_energy=-438.2681994006 stress="-2.1267151242927e-05 -0.00040145674609856 0.00030635665370323 -0.00040145674609856 -0.00054795418071352 0.00036290915264444 0.00030635665370323 0.00036290915264444 0.00088696097591972" pbc="T T T"
B        5.06431218       4.88558127       4.93496877       1.03805864      -0.16355069      -0.11939717       0.89742947       0.85377568       1.84933689
H        6.82820884       5.45800775       8.16021551       0.18456805       0.16600261      -0.05221186      -0.28820875      -0.88664045       0.26412855
H        7.75729128       6.79841866       7.64519164      -0.08091145       0.06984540       0.38296808       0.92359940       0.58187546      -0.32248499
H        6.07858931       7.05379579       8.08189345       0.12512308      -0.05343640       0.14570440       0.09079811      -0.17343782      -0.06097807
H        5.02865692       4.92348662       3.75259372      -0.15570766       0.03537638       0.23134963      -0.18606703      -0.20056852       0.14533913
H        4.15551794       5.07908190       5.70132307       0.05999016       0.03551941       0.04712521      -0.00436454      -0.33721400      -0.94442118
H        6.10975076       4.85901343       5.56973669      -0.09695879      -0.18794526       0.15071627      -0.69562673      -0.33494591      -1.01788172
N        6.85021463       6.41647389       7.84930978      -1.07404591       0.09815741      -0.78582958      -0.73319510       0.49828275       0.11104423
8
Lattice="11.912528223586012 0.0 0.0 0.0 11.912528223586012 0.0 0.0 0.0 11.912528223586012" Properties=species:S:1:pos:R:3:momenta:R:3:forces:R:3 energy=-438.25490651003 free_energy=-438.25490651003 stress="-0.00028738464488338 -0.00034994070056289 0.0003217532640342 -0.00034994070056289 -0.00084917694315434 0.00041407121140396 0.0003217532640342 0.00041407121140396 0.00063941888321525" pbc="T T T"
B        5.06896523       4.89099792       4.92991750       1.07526793      -0.12184385      -0.01939456       0.65618406       0.83892502       2.22351099
H        6.83664678       5.47107683       8.15319285       0.16861589       0.11314826      -0.03625694      -0.35345635      -1.25799596       0.38894940
H        7.75423490       6.80853424       7.65866352      -0.03277926       0.10015918       0.36591354       1.03337229       0.65452399      -0.35288570
H        6.08460361       7.05700059       8.08411823       0.12150347      -0.05685589       0.14478905      -0.23130753       0.03122840       0.03417725
H        5.02069471       4.93103183       3.75933538      -0.16364795       0.02576899       0.22978831      -0.14169315      -0.18957713      -0.19428251
H        4.15829332       5.08646703       5.69774853       0.06099669       0.01890796      -0.00045679       0.04933813      -0.33828268      -0.98697644
H        6.10401414       4.85552763       5.57112011      -0.12750601      -0.20409853       0.10070373      -0.55141820      -0.32933558      -1.00867757
N        6.84618754       6.42288838       7.84178212      -1.10235834       0.12483823      -0.78442863      -0.45781415       0.59300395      -0.07445367
8
Lattice="11.912259267990384 0.0 0.0 0.0 11.912259267990384 0.0 0.0 0.0 11.912259267990384" Properties=species:S:1:pos:R:3:momenta:R:3:forces:R:3 energy=-438.24645782248 free_energy=-438.24645782248 stress="-0.00049861910284236 -0.00024682047072931 0.00030765834373752 -0.00024682047072931 -0.0010317186228862 0.00041752608402805 0.00030765834373752 0.00041752608402805 0.00038362139903416" pbc="T T T"
B        5.07247560       4.89696432       4.92514218       1.10126128      -0.08135701       0.09629858       0.39530267       0.81137960       2.49401760
H        6.84295092       5.48149708       8.14687594       0.15008509       0.04667816      -0.01568457      -0.40108068      -1.44874094       0.45716695
H        7.75236455       6.82058159       7.67106837       0.01630816       0.13205876       0.34871031       0.96705013       0.64424669      -0.34317125
H        6.08877409       7.06064526       8.08620106       0.10239172      -0.05033902       0.14888054      -0.54673754       0.23506601       0.13927848
H        5.01110132       4.93848603       3.76538333      -0.16963831       0.01680626       0.21218790      -0.10009032      -0.17548305      -0.51492414
H        4.15989472       5.09340556       5.69158576       0.06397142       0.00253153      -0.04913502       0.07315744      -0.32873466      -0.98919271
H        6.09566818       4.85161401       5.56986391      -0.14976977      -0.22022041       0.05236208      -0.35441072      -0.32481742      -0.95441530
N        6.84079305       6.42976917       7.83402388      -1.11455414       0.15389557      -0.79291679      -0.03167376       0.58970266      -0.26348472
8
Lattice="11.911999961779877 0.0 0.0 0.0 11.911999961779877 0.0 0.0 0.0 11.911999961779877" Properties=species:S:1:pos:R:3:momenta:R:3:forces:R:3 energy=-438.24640750298 free_energy=-438.24640750298 stress="-0.00063952722172983 -0.00011209769994559 0.00027059888443556 -0.00011209769994559 -0.0010631153447357 0.00037455202470583 0.00027059888443556 0.00037455202470583 0.00014032714951606" pbc="T T T"
B        5.07483864       4.90323004       4.92100398       1.11487632      -0.04252207       0.22205314       0.12081294       0.77383132       2.62912147
H        6.84706176       5.48857125       8.14172478       0.12964009      -0.02375821       0.00648426      -0.43573134      -1.42056451       0.45470376
H        7.75156869       6.83429497       7.68274090       0.05820241       0.16160240       0.33289947       0.73999278       0.55504701      -0.30592784
H        6.09040135       7.06496885       8.08869639       0.06915680      -0.03479457       0.15809448      -0.80979974       0.40087522       0.23880764
H        5.00002088       4.94563965       3.77027518      -0.17372336       0.00859258       0.18017700      -0.05967031      -0.15944886      -0.78655357
H        4.16043127       5.09967638       5.68312883       0.06737243      -0.01310103      -0.09689774       0.06460175      -0.30787814      -0.94840602
H        6.08523016       4.84703111       5.56640070      -0.16127843      -0.23636153       0.00781541      -0.10964647      -0.32354865      -0.85571387
N        6.83415177       6.43687189       7.82630116      -1.10422693       0.18040017      -0.81009633       0.48969481       0.48375383      -0.41240971
8
Lattice="11.911746925936733 0.0 0.0 0.0 11.911746925936733 0.0 0.0 0.0 11.911746925936733" Properties=species:S:1:pos:R:3:momenta:R:3:forces:R:3 energy=-438.25431402241 free_energy=-438.25431402241 stress="-0.00071059696145206 2.7732408392058e-05 0.00021978476703775 2.7732408392058e-05 -0.00093997377143225 0.0002957889171588 0.00021978476703775 0.0002957889171588 -6.759009366205e-05" pbc="T T T"
B        5.07627048       4.90958411       4.91785504       1.11480439      -0.00565490       0.35060372      -0.16095082       0.72952549       2.60223861
H        6.84917321       5.49215949       8.13806017       0.10768867      -0.08776648       0.02703689      -0.46218040      -1.18358418       0.38627926
H        7.75158546       6.84925944       7.69409269       0.08629999       0.18532576       0.31926510       0.40174174       0.40596208      -0.25588788
H        6.08913087       7.07016735       8.09216759       0.02528970      -0.01282882       0.17176457      -0.97810506       0.49456319       0.31705689
H        4.98782840       4.95232761       3.77368676      -0.17575426       0.00115251       0.13689118      -0.01706101      -0.14332446      -0.97660223
H        4.16016146       5.10512571       5.67279656       0.06958354      -0.02746041      -0.14161700       0.02392601      -0.27609341      -0.86552332
H        6.07356251       4.84157958       5.56128799      -0.15984584      -0.25254019      -0.03091483       0.17273273      -0.32660720      -0.71786755
N        6.82663050       6.44397515       7.81890923      -1.06806541       0.19981914      -0.83283281       1.01963561       0.30074597      -0.49084894
8
Lattice="11.91149637981972 0.0 0.0 0.0 11.91149637981972 0.0 0.0 0.0 11.91149637981972" Properties=species:S:1:pos:R:3:momenta:R:3:forces:R:3 energy=-438.26620512535 free_energy=-438.26620512535 stress="-0.00072124378148246 0.00014786883124196 0.00016481482952826 0.00014786883124196 -0.00068394598931735 0.00019847181215874 0.00016481482952826 0.00019847181215874 -0.00022258504150048" pbc="T T T"
B        5.07715830       4.91590191       4.91599543       1.10021100       0.02898342       0.47356817      -0.43986299       0.68139295       2.40358342
H        6.84967079       5.49271434       8.13602843       0.08446889      -0.13624739       0.04307518      -0.48389458      -0.78872503       0.26732590
H        7.75205665       6.86499762       7.70554186       0.09650770       0.20078645       0.30792988       0.01280162       0.22274724      -0.20643623
H        6.08501072       7.07635111       8.09710658      -0.02381665       0.01135768       0.18832621      -1.02116349       0.49008521       0.35724242
H        4.97508530       4.95847315       3.77546795      -0.17542811      -0.00552434       0.08673904       0.03139137      -0.12819718      -1.06447324
H        4.15943973       5.10971496       5.66110048       0.06899670      -0.03999899      -0.18113708      -0.04764387      -0.23412112      -0.74264139
H        6.06179976       4.83514527       5.55516552      -0.14387600      -0.26883923      -0.06205036       0.47769384      -0.33506426      -0.54957077
N        6.81877606       6.45093164       7.81214223      -1.00707147       0.20950876      -0.85663351       1.46970734       0.09194138      -0.47988259
8
Lattice="11.911244675381713 0.0 0.0 0.0 11.911244675381713 0.0 0.0 0.0 11.911244675381713" Properties=species:S:1:pos:R:3:momenta:R:3:forces:R:3 energy=-438.27676201369 free_energy=-438.27676201369 stress="-0.00068693372980322 0.0002314488465423 0.00011548078155642 0.0002314488465423 -0.00033741701108983 0.00010141041112939 0.00011548078155642 0.00010141041112939 -0.00031274874601446" pbc="T T T"
B        5.07798827       4.92218059       4.91562381       1.07135012       0.06119275       0.58250401      -0.70108108       0.63115991       2.04438834
H        6.84905125       5.49119455       8.13559103       0.06021107      -0.16317977       0.05266443      -0.50134293      -0.31113704       0.12150375
H        7.75259958       6.88106988       7.71744092       0.08773825       0.20688778       0.29859823      -0.36765205       0.03195902      -0.16638268
H        6.07849144       7.08351663       8.10384923      -0.07176586       0.03275436       0.20559205      -0.93174444       0.38102882       0.34897929
H        4.96246845       4.96412087       3.77565364      -0.17233598      -0.01148527       0.03497462       0.08893074      -0.11454871      -1.04246175
H        4.15864509       5.11355442       5.64859112       0.06416661      -0.05022232      -0.21351238      -0.14642316      -0.18344537      -0.58471970
H        6.05123100       4.82772805       5.54868729      -0.11277353      -0.28543154      -0.08437783       0.78337751      -0.34866759      -0.36496512
N        6.81122164       6.45771225       7.80624855      -0.92662575       0.20948153      -0.87695076       1.77336247      -0.08767910      -0.38150408
8
Lattice="11.910988766483337 0.0 0.0 0.0 11.910988766483337 0.0 0.0 0.0 11.910988766483337" Properties=species:S:1:pos:R:3:momenta:R:3:forces:R:3 energy=-438.28187492064 free_energy=-438.28187492064 stress="-0.00062383962611965 0.00027211676599958 8.1379812543695e-05 0.00027211676599958 4.802035267953e-05 1.995712067774e-05 8.1379812543695e-05 1.995712067774e-05 -0.00033380530266427" pbc="T T T"
B        5.07927284       4.92854949       4.91680208       1.02984245       0.09082022       0.67026342      -0.92465577       0.57866863       1.55899395
H        6.84784575       5.48889081       8.13654355       0.03522991      -0.16634272       0.05504080      -0.51270300       0.17324199      -0.02748176
H        7.75287493       6.89715288       7.73002236       0.06158000       0.20383120       0.29076797      -0.69334741      -0.14424296      -0.13977667
H        6.07036564       7.09154157       8.11251463      -0.11241955       0.04657141       0.22114264      -0.72804528       0.18276840       0.29104609
H        4.95069601       4.96944524       3.77444522      -0.16602686      -0.01678506      -0.01311828       0.15710792      -0.10209738      -0.91858421
H        4.15811384       5.11690865       5.63580249       0.05393936      -0.05774637      -0.23720908      -0.26600928      -0.12630264      -0.39946318
H        6.04316476       4.81944719       5.54244629      -0.06726208      -0.30254085      -0.09755092       1.06178009      -0.36529203      -0.18290518
N        6.80459541       6.46442600       7.80139074      -0.83496825       0.20215027      -0.89006326       1.90160113      -0.19967856      -0.21305794
8
Lattice="11.910726497104758 0.0 0.0 0.0 11.910726497104758 0.0 0.0 0.0 11.910726497104758" Properties=species:S:1:pos:R:3:momenta:R:3:forces:R:3 energy=-438.28041483303 free_energy=-438.28041483303 stress="-0.00054509180152033 0.00027221414055136 7.1108420027323e-05 0.00027221414055136 0.00042198108525429 -3.6887612605804e-05 7.1108420027323e-05 -3.6887612605804e-05 -0.00028889092921166" pbc="T T T"
B        5.08149189       4.93525048       4.91944613       0.97861172       0.11769827       0.73210089      -1.08792822       0.52160128       1.00028406
H        6.84655950       5.48721908       8.13855562       0.00994378      -0.14698026       0.05050466      -0.51533770       0.60358170      -0.16103335
H        7.75263524       6.91307631       7.74337357       0.02154271       0.19282450       0.28387965      -0.93415369      -0.28997214      -0.12698411
H        6.06165655       7.10020376       8.12298701      -0.14107572       0.04922345       0.23277990      -0.44747344      -0.07262031       0.19130961
H        4.94046435       4.97473099       3.77217088      -0.15607855      -0.02145870      -0.05302560       0.23510477      -0.08995834      -0.71415491
H        4.15809126       5.12017008       5.62321063       0.03757244      -0.06234023      -0.25124210      -0.39686395      -0.06564977      -0.19729620
H        6.03879603       4.81052274       5.53690815      -0.00955842      -0.32031159      -0.10227760       1.28138958      -0.38054279      -0.02481120
N        6.79945028       6.47130705       7.79762365      -0.74108345       0.19125480      -0.89354327       1.86031443      -0.23066232      -0.00033127
8
Lattice="11.910456701042335 0.0 0.0 0.0 11.910456701042335 0.0 0.0 0.0 11.910456701042335" Properties=species:S:1:pos:R:3:momenta:R:3:forces:R:3 energy=-438.27459939824 free_energy=-438.27459939824 stress="-0.00045899635711906 0.00023867129720106 9.0636394736645e-05 0.00023867129720106 0.00074232970595532 -6.6660543901734e-05 9.0636394736645e-05 -6.6660543901734e-05 -0.00018720793571383" pbc="T T T"
B        5.08505136       4.94259412       4.92334331       0.92160458       0.14154423       0.76624450      -1.17072503       0.45588414       0.43002030
H        6.84562982       5.48753007       8.14122086      -0.01514965      -0.10885192       0.04011213      -0.50703963       0.93943862      -0.26730483
H        7.75174918       6.92881766       7.75744062      -0.02776498       0.17571625       0.27740390      -1.07416943      -0.39523677      -0.12617422
H        6.05347838       7.10921581       8.13494101      -0.15514239       0.03889884       0.23887087      -0.13537857      -0.34618553       0.06371154
H        4.93239947       4.98033125       3.76923584      -0.14217140      -0.02550090      -0.08154956       0.31984056      -0.07698115      -0.45834214
H        4.15870752       5.12380755       5.61121116       0.01485714      -0.06394883      -0.25524425      -0.52623383      -0.00503780       0.00903155
H        6.03908658       4.80124090       5.53236342       0.05665247      -0.33865328      -0.10031518       1.41220249      -0.38795299       0.08917907
N        6.79621904       6.47867345       7.79489492      -0.65301663       0.18066907      -0.88633025       1.67690106      -0.18803893       0.22824496
8
Lattice="11.910179151771905 0.0 0.0 0.0 11.910179151771905 0.0 0.0 0.0 11.910179151771905" Properties=species:S:1:pos:R:3:momenta:R:3:forces:R:3 energy=-438.26890500435 free_energy=-438.26890500435 stress="-0.00036940193915268 0.00017920691154187 0.0001414691074309 0.00017920691154187 0.00097832087732207 -7.1747942343655e-05 0.0001414691074309 -7.1747942343655e-05 -4.2515104151607e-05" pbc="T T T"
B        5.09025471       4.95090410       4.92629312       0.86330290       0.16186624       0.77384129      -1.16198364       0.37681207      -0.09298991
H        6.84539771       5.49096038       8.14221169      -0.03950481      -0.05720781       0.02534473      -0.48660020       1.15834475      -0.34032959
H        7.75020446       6.94446878       7.77015735      -0.08127594       0.15467829       0.27087749      -1.10796120      -0.45462725      -0.13447533
H        6.04689514       7.11826312       8.14600128      -0.15420387       0.01562401       0.23849940       0.16553638      -0.60150939      -0.07577053
H        4.92701933       4.98661524       3.76417787      -0.12413884      -0.02885932      -0.09700191       0.40673190      -0.06210455      -0.18197657
H        4.15997469       5.12830321       5.59821742      -0.01375452      -0.06269947      -0.24947836      -0.63870868       0.05165569       0.20534802
H        6.04466495       4.79191604       5.52700746       0.12648461      -0.35710823      -0.09424463       1.43217417      -0.38002302       0.14483182
N        6.79518801       6.48687096       7.79116769      -0.57702119       0.17358724      -0.86856267       1.38652996      -0.09063242       0.44776807
8
Lattice="11.909894426262175 0.0 0.0 0.0 11.909894426262175 0.0 0.0 0.0 11.909894426262175" Properties=species:S:1:pos:R:3:momenta:R:3:forces:R:3 energy=-438.2678250178 free_energy=-438.2678250178 stress="-0.00027760929545462 0.00010044245076419 0.00021963856269556 0.00010044245076419 0.0011108112714272 -5.7128787464574e-05 0.00021963856269556 -5.7128787464574e-05 0.00012874530913752" pbc="T T T"
B        5.09728016       4.96046223       4.92638035       0.80805417       0.17792413       0.75836985      -1.06510585       0.28064737      -0.52278498
H        6.84608666       5.49832863       8.13955376      -0.06254676       0.00198561       0.00786019      -0.45380344       1.25056021      -0.37808871
H        7.74809554       6.96019115       7.77970931      -0.13386461       0.13198769       0.26390578      -1.03736025      -0.46610875      -0.14870807
H        6.04279764       7.12703531       8.15403845      -0.13966452      -0.01902390       0.23143908       0.42143860      -0.81025613      -0.21217842
H        4.92470210       4.99391710       3.75585598      -0.10199073      -0.03143583      -0.09910218       0.49069370      -0.04460288       0.08735175
H        4.16179889       5.13409021       5.58289227      -0.04704482      -0.05889001      -0.23480701      -0.71768730       0.10065034       0.37754920
H        6.05575177       4.78285912       5.51916990       0.19434573      -0.37478129      -0.08706099       1.33301459      -0.34999472       0.13755413
N        6.79648023       6.49621584       7.78467834      -0.51738658       0.17217724      -0.84117732       1.02408356       0.04122041       0.64226253
8
Lattice="11.90960372947636 0.0 0.0 0.0 11.90960372947636 0.0 0.0 0.0 11.90960372947636" Properties=species:S:1:pos:R:3:momenta:R:3:forces:R:3 energy=-438.27364101497 free_energy=-438.27364101497 stress="-0.00018464915238046 8.0852594669026e-06 0.00031626025209623 8.0852594669026e-06 0.0011310314331572 -2.8515431177176e-05 0.00031626025209623 -2.8515431177176e-05 0.00030902166459062" pbc="T T T"
B        5.10615948       4.97146256       4.92649269       0.75938825       0.18878940       0.72480396      -0.89916690       0.16614237      -0.83179106
H        6.84778535       5.51006815       8.13613847      -0.08367875       0.06249312      -0.01065618      -0.40917630       1.21450742      -0.38072856
H        7.74560225       6.97617358       7.78904518      -0.18058363       0.10990379       0.25615338      -0.86990175      -0.43046158      -0.16561488
H        6.04180679       7.13524856       8.16170871      -0.11426737      -0.06231554       0.21804304       0.60894838      -0.95353015      -0.33291671
H        4.92565701       5.00249339       3.74789502      -0.07593186      -0.03309855      -0.08873649       0.56699416      -0.02418211       0.32800719
H        4.16400148       5.14150007       5.56862695      -0.08299445      -0.05296784      -0.21265757      -0.74780448       0.13879979       0.51351838
H        6.07211804       4.77435517       5.51181343       0.25458365      -0.39038665      -0.08169770       1.12297048      -0.29380580       0.07361313
N        6.80004277       6.50694639       7.77844307      -0.47662262       0.17764345      -0.80550594       0.62076426       0.18915374       0.79271275
8
Lattice="11.909308712867578 0.0 0.0 0.0 11.909308712867578 0.0 0.0 0.0 11.909308712867578" Properties=species:S:1:pos:R:3:momenta:R:3:forces:R:3 energy=-438.28542983237 free_energy=-438.28542983237 stress="-9.2574406117129e-05 -9.1708433123597e-05 0.00041962386228378 -9.1708433123597e-05 0.0010395970329255 8.6019541662416e-06 0.00041962386228378 8.6019541662416e-06 0.00048012730489388" pbc="T T T"
B        5.11676058       4.98397993       4.92642193       0.71954310       0.19351753       0.67886009      -0.69475331       0.03527343      -1.01210004
H        6.85043551       5.52618907       8.13181899      -0.10229980       0.11806980      -0.02853632      -0.35379676       1.05459112      -0.34988636
H        7.74296320       6.99259988       7.79797854      -0.21689490       0.09058555       0.24740659      -0.61914606      -0.35161117      -0.18195964
H        6.04420514       7.14266238       8.16857807      -0.08166751      -0.11073036       0.19919662       0.71389956      -1.02068500      -0.42805917
H        4.92989985       5.01249348       3.74073065      -0.04638466      -0.03370279      -0.06766981       0.63178058      -0.00093177       0.52499323
H        4.16634551       5.15072464       5.55560866      -0.11888512      -0.04549667      -0.18493008      -0.71788190       0.16413997       0.60511984
H        6.09308664       4.76664633       5.50464465       0.30221987      -0.40245042      -0.08054498       0.82519365      -0.21140658      -0.03181834
N        6.80563925       6.51918890       7.77235121      -0.45578076       0.19038162      -0.76367263       0.20615929       0.33686798       0.88563014
8
Lattice="11.909011302486915 0.0 0.0 0.0 11.909011302486915 0.0 0.0 0.0 11.909011302486915" Properties=species:S:1:pos:R:3:momenta:R:3:forces:R:3 energy=-438.29917448733 free_energy=-438.29917448733 stress="-5.148405842502e-06 -0.00019097616574087 0.00051829769562058 -0.00019097616574087 0.00084533966500607 4.9146325684034e-05 0.00051829769562058 4.9146325684034e-05 0.00062495835770819" pbc="T T T"
B        5.12878196       4.99795564       4.92601057       0.68933872       0.19137339       0.62644448      -0.48590056      -0.10697022      -1.07178705
H        6.85383073       5.54627046       8.12655323      -0.11786054       0.16284294      -0.04420105      -0.28903228       0.78080187      -0.28840003
H        7.74044660       7.00962802       7.80634288      -0.23912049       0.07594613       0.23767017      -0.30507416      -0.23712528      -0.19474080
H        6.04990026       7.14909496       8.17429444      -0.04608020      -0.16033196       0.17628220       0.72851675      -1.00674607      -0.48935263
H        4.93724186       5.02394497       3.73471686      -0.01398769      -0.03309199      -0.03828214       0.68228097       0.02476428       0.66934379
H        4.16856470       5.16179661       5.54394330      -0.15158597      -0.03709244      -0.15383375      -0.62354162       0.17620214       0.64958202
H        6.11758713       4.75991634       5.49729539       0.33360787      -0.40961244      -0.08512839       0.47232053      -0.10692046      -0.15885429
N        6.81285492       6.53294010       7.76630608      -0.45451763       0.21011923      -0.71848605      -0.18682370       0.47661086       0.90802882
8
Lattice="11.90871353539086 0.0 0.0 0.0 11.90871353539086 0.0 0.0 0.0 11.90871353539086" Properties=species:S:1:pos:R:3:momenta:R:3:forces:R:3 energy=-438.30936524187 free_energy=-438.30936524187 stress="7.5595886649271e-05 -0.00027967886281012 0.00060350027048392 -0.00027967886281012 0.00056749403904338 8.8119434987476e-05 0.00060350027048392 8.8119434987476e-05 0.00072927490878722" pbc="T T T"
B        5.14177040       5.01320203       4.92515176       0.66828280       0.18199392       0.57311371      -0.30136116      -0.25390431      -1.02889367
H        6.85763489       5.56949378       8.12039642      -0.12992700       0.19168583      -0.05625853      -0.21663962       0.41319509      -0.20212682
H        7.73831751       7.02737547       7.81400418      -0.24487256       0.06744975       0.22718285       0.04257853      -0.10039606      -0.20190750
H        6.05842983       7.15443564       8.17861106      -0.01203403      -0.20704823       0.15114256       0.65154735      -0.91247794      -0.51083637
H        4.94730414       5.03675620       3.73010248       0.02045161      -0.03112651      -0.00330972       0.71670447       0.05238002       0.75660312
H        4.17039602       5.17459123       5.53364580      -0.17798250      -0.02836032      -0.12164815      -0.46864200       0.17604996       0.64979383
H        6.14426175       4.75427790       5.48937049       0.34683898      -0.41090584      -0.09599767       0.09916501       0.01247093      -0.28766283
N        6.82112588       6.54806875       7.76022257      -0.47093688       0.23632070      -0.67353222      -0.52621496       0.60948716       0.85372440
8
Lattice="11.908417311220425 0.0 0.0 0.0 11.908417311220425 0.0 0.0 0.0 11.908417311220425" Properties=species:S:1:pos:R:3:momenta:R:3:forces:R:3 energy=-438.31108766558 free_energy=-438.31108766558 stress="0.0001491449293722 -0.00034616670430509 0.0006707888160019 -0.00034616670430509 0.00023330881359883 0.00012038415494962 0.0006707888160019 0.00012038415494962 0.00078310757753464" pbc="T T T"
B        5.15515862       5.02941895       4.92378083       0.65492277       0.16541703       0.52365590      -0.15972858      -0.39843182      -0.90583668
H        6.86141847       5.59470487       8.11348316      -0.13821372       0.20076589      -0.06366950      -0.13845279      -0.01787667      -0.10002052
H        7.73680733       7.04590337       7.82086586      -0.23349486       0.06579253       0.21636204       0.38737266       0.04063965      -0.20282585
H        6.06899767       7.15865578       8.18140094       0.01594885      -0.24701060       0.12597829       0.48574035      -0.74219290      -0.48795540
H        4.95955625       5.05072795       3.72701637       0.05604893      -0.02773390       0.03439463       0.73417948       0.08128361       0.78591756
H        4.17160998       5.18884194       5.52464027      -0.19541575      -0.01986179      -0.09042173      -0.26441027       0.16585427       0.61312444
H        6.17159926       4.74976153       5.48049007       0.34177362      -0.40593172      -0.11280499      -0.26326644       0.13821791      -0.40199494
N        6.82978758       6.56433009       7.75401948      -0.50165056       0.26848596      -0.63276182      -0.78104084       0.73020989       0.72694130
8
Lattice="11.908124198066748 0.0 0.0 0.0 11.908124198066748 0.0 0.0 0.0 11.908124198066748" Properties=species:S:1:pos:R:3:momenta:R:3:forces:R:3 energy=-438.30190579083 free_energy=-438.30190579083 stress="0.00021898894860848 -0.00037928849472465 0.00071938835401464 -0.00037928849472465 -0.00012017176023396 0.00014043815894921 0.00071938835401464 0.00014043815894921 0.00078187146169147" pbc="T T T"
B        5.16832317       5.04621842       4.92186513       0.64732652       0.14201787       0.48182853      -0.06828938      -0.53436996      -0.72513434
H        6.86471350       5.62051547       8.10599842      -0.14256971       0.18819996      -0.06598819      -0.05651134      -0.46760448       0.00434988
H        7.73608299       7.06519424       7.82686716      -0.20633840       0.07065144       0.20566322       0.68780487       0.16423562      -0.19859511
H        6.08054655       7.16181312       8.18266229       0.03373306      -0.27686305       0.10313929       0.24071984      -0.50581774      -0.41942809
H        4.97337835       5.06557313       3.72546191       0.09195205      -0.02290634       0.07203207       0.73448844       0.11096951       0.75863676
H        4.17204121       5.20416735       5.51677318      -0.20198827      -0.01206007      -0.06175353      -0.02739664       0.14848360       0.54973930
H        6.19807751       4.74631108       5.47032198       0.31976791      -0.39485431      -0.13454710      -0.59082554       0.26186733      -0.49052189
N        6.83814143       6.58138840       7.74761419      -0.54188390       0.30576661      -0.59973549      -0.91796508       0.82325134       0.54247158
8
Lattice="11.907835189323492 0.0 0.0 0.0 11.907835189323492 0.0 0.0 0.0 11.907835189323492" Properties=species:S:1:pos:R:3:momenta:R:3:forces:R:3 energy=-438.28289603088 free_energy=-438.28289603088 stress="0.0002917824442021 -0.00037123698250387 0.00075046040199588 -0.00037123698250387 -0.00044906078088578 0.00014321813038231 0.00075046040199588 0.00014321813038231 0.00072691379338298" pbc="T T T"
B        5.18065351       5.06315159       4.91939497       0.64351713       0.11243397       0.45030120      -0.02507832      -0.65684976      -0.50713416
H        6.86707798       5.64543792       8.09813943      -0.14296483       0.15463523      -0.06356564       0.02713895      -0.87955140       0.09351539
H        7.73621838       7.08512594       7.83197647      -0.16673483       0.08064716       0.19544501       0.90431344       0.24883558      -0.19189783
H        6.09185482       7.16404830       8.18251550       0.03794297      -0.29401663       0.08486979      -0.06511029      -0.22012393      -0.30902144
H        4.98813513       5.08094134       3.72531969       0.12739889      -0.01665506       0.10698223       0.71797232       0.14108167       0.67787861
H        4.17161681       5.22010436       5.50983550      -0.19671747      -0.00526201      -0.03668994       0.22360377       0.12689155       0.47055445
H        6.22229343       4.74378689       5.45860204       0.28321499      -0.37827062      -0.15984421      -0.86721242       0.37603711      -0.54670844
N        6.84553004       6.59884073       7.74092121      -0.58561325       0.34651736      -0.57704534      -0.91299677       0.86585850       0.32368246
8
Lattice="11.90755052445535 0.0 0.0 0.0 11.90755052445535 0.0 0.0 0.0 11.90755052445535" Properties=species:S:1:pos:R:3:momenta:R:3:forces:R:3 energy=-438.25838209342 free_energy=-438.25838209342 stress="0.00037579999187568 -0.00032025889657106 0.00076454329160927 -0.00032025889657106 -0.00070832610215363 0.00012579409415488 0.00076454329160927 0.00012579409415488 0.00062526368638674" pbc="T T T"
B        5.19161987       5.07973792       4.91637868       0.64176131       0.07747025       0.43074609      -0.02249095      -0.76225826      -0.26939272
H        6.86815811       5.66804635       8.09007371      -0.13947087       0.10353365      -0.05763853       0.11050928      -1.19349988       0.14872755
H        7.73717143       7.10545068       7.83618365      -0.11961443       0.09351672       0.18589357       1.00769608       0.27800970      -0.18612313
H        6.10164871       7.16557163       8.18119182       0.02640127      -0.29693860       0.07300249      -0.40208007       0.08980744      -0.16778165
H        5.00324795       5.09644790       3.72635870       0.16173592      -0.00896939       0.13689755       0.68550531       0.17145650       0.54841948
H        4.17037909       5.23614529       5.50359110      -0.17952537       0.00040034      -0.01571189       0.47033954       0.10370583       0.38565991
H        6.24306570       4.74197890       5.44514640       0.23506943      -0.35705455      -0.18715084      -1.08267449       0.47474555      -0.56767506
N        6.85140817       6.61624178       7.73385644      -0.62629534       0.38809232      -0.56587987      -0.76466808       0.83790285       0.10294671
8
Lattice="11.907269614701246 0.0 0.0 0.0 11.907269614701246 0.0 0.0 0.0 11.907269614701246" Properties=species:S:1:pos:R:3:momenta:R:3:forces:R:3 energy=-438.234461732 free_energy=-438.234461732 stress="0.00047852788079581 -0.00023226303660594 0.00075947803341467 -0.00023226303660594 -0.0008603982468872 8.9287994781856e-05 0.00075947803341467 8.9287994781856e-05 0.00048885581355778" pbc="T T T"
B        5.20082563       5.09549776       4.91284529       0.64065485       0.03800499       0.42394767      -0.05115505      -0.84787463      -0.02732791
H        6.86773638       5.68714520       8.08190307      -0.13222066       0.04093980      -0.05024326       0.19163997      -1.35862292       0.15486942
H        7.73877250       7.12578999       7.83949674      -0.07077362       0.10646310       0.17699646       0.98637214       0.24486234      -0.18417617
H        6.10872163       7.16663898       8.17901261      -0.00136569      -0.28545579       0.06858226      -0.72860444       0.39082159      -0.01550781
H        5.01825030       5.11170757       3.72825700       0.19441436       0.00019437       0.15975539       0.63851820       0.20208199       0.37701121
H        4.16849711       5.25177766       5.49781005      -0.15108549       0.00493782       0.00119758       0.69699452       0.08103300       0.30342233
H        6.25950077       4.74063064       5.42986352       0.17848512      -0.33221709      -0.21487408      -1.23191751       0.55329920      -0.55289253
N        6.85539402       6.63313252       7.72634989      -0.65805278       0.42712285      -0.56560556      -0.50058967       0.73149592      -0.07656209
8
Lattice="11.906991118417604 0.0 0.0 0.0 11.906991118417604 0.0 0.0 0.0 11.906991118417604" Properties=species:S:1:pos:R:3:momenta:R:3:forces:R:3 energy=-438.21685474323 free_energy=-438.21685474323 stress="0.0006042655820711 -0.00012016904497131 0.00072980429381337 -0.00012016904497131 -0.00088345726687647 3.9981647738832e-05 0.00072980429381337 3.9981647738832e-05 0.00033310009567005" pbc="T T T"
B        5.20803399       5.10998847       4.90885809       0.63897984      -0.00507310       0.42979252      -0.10281527      -0.91155510       0.20428326
H        6.86575636       5.70191676       8.07364666      -0.12137379      -0.02542841      -0.04389697       0.26841058      -1.34746060       0.10561629
H        7.74072890       7.14565348       7.84194792      -0.02590815       0.11663714       0.16854785       0.84901151       0.15393002      -0.18746908
H        6.11205361       7.16751800       8.17635877      -0.04372077      -0.26090900       0.07149641      -0.99443484       0.64518780       0.12028006
H        5.03281560       5.12637136       3.73063235       0.22494258       0.01090129       0.17387029       0.57900610       0.23309841       0.17290692
H        4.16626222       5.26652518       5.49230599      -0.11261368       0.00844744       0.01441280       0.89088820       0.06050289       0.23030531
H        6.27102068       4.73947312       5.41277387       0.11658752      -0.30479395      -0.24141180      -1.31229713       0.60789769      -0.50309396
N        6.85729101       6.64907421       7.71837091      -0.67685201       0.46014005      -0.57340870      -0.17695974       0.55626608      -0.17290584
8
Lattice="11.906713161798923 0.0 0.0 0.0 11.906713161798923 0.0 0.0 0.0 11.906713161798923" Properties=species:S:1:pos:R:3:momenta:R:3:forces:R:3 energy=-438.20895101857 free_energy=-438.20895101857 stress="0.00075122021211136 -8.7903244970722e-07 0.00066854591324624 -8.7903244970722e-07 -0.00077770541684363 -1.1110896541248e-05 0.00066854591324624 -1.1110896541248e-05 0.00017484291780545" pbc="T T T"
B        5.21316984       5.12284425       4.90453894       0.63543906      -0.05083518       0.44719831      -0.17180433      -0.95134959       0.40954070
H        6.86232472       5.71202575       8.06525278      -0.10709255      -0.08727932      -0.04118842       0.33828910      -1.16552949       0.00657198
H        7.74264667       7.16448315       7.84361123       0.01009801       0.12152183       0.16015187       0.62259193       0.02044817      -0.19532804
H        6.11093052       7.16844797       8.17363048      -0.09662874      -0.22623466       0.08013428      -1.15055678       0.81858029       0.20990221
H        5.04675655       5.14016548       3.73308268       0.25279109       0.02320488       0.17787743       0.50959053       0.26464125      -0.05113123
H        4.16406649       5.27998931       5.48697720      -0.06572475       0.01106155       0.02451882       1.04258963       0.04326886       0.17101200
H        6.27736452       4.73826520       5.39404214       0.05246561      -0.27578249      -0.26510803      -1.32263491       0.63536651      -0.41976887
N        6.85708179       6.66368835       7.70996521      -0.68131159       0.48429778      -0.58433585       0.13321505       0.33796525      -0.16121951
8
Lattice="11.906433697497016 0.0 0.0 0.0 11.906433697497016 0.0 0.0 0.0 11.906433697497016" Properties=species:S:1:pos:R:3:momenta:R:3:forces:R:3 energy=-438.21071590615 free_energy=-438.21071590615 stress="0.00091039337171537 0.00010966526123742 0.00057043268749923 0.00010966526123742 -0.00056409130866633 -5.1035495614563e-05 0.00057043268749923 -5.1035495614563e-05 3.0131030819828e-05" pbc="T T T"
B        5.21629823       5.12775493       4.90008850       0.62854348      -0.09818978       0.47399242      -0.25493269      -0.96525606       0.57057980
H        6.85768720       5.71158798       8.05663762      -0.08961717      -0.13726434      -0.04417296       0.39837071      -0.84811124      -0.12680843
H        7.74407222       7.17566378       7.84462467       0.03390829       0.11941614       0.15139673       0.34397789      -0.13456927      -0.20562941
H        6.10504077       7.16354382       8.17120079      -0.15398619      -0.18556556       0.09157231      -1.16169301       0.88892287       0.22926594
H        5.06000052       5.14686771       3.73523290       0.27736703       0.03712071       0.17095279       0.43337484       0.29670962      -0.27877287
H        4.16236147       5.28582839       5.48183881      -0.01239059       0.01292457       0.03222022       1.14521082       0.03014210       0.12899089
H        6.27857227       4.73076992       5.37400758      -0.01071530      -0.24621104      -0.28420647      -1.26238601       0.63289534      -0.30487088
N        6.85489651       6.67063809       7.70128535      -0.67305293       0.49787566      -0.59244710       0.36136393       0.10682440      -0.03178968
8
Lattice="11.906150880191808 0.0 0.0 0.0 11.906150880191808 0.0 0.0 0.0 11.906150880191808" Properties=species:S:1:pos:R:3:momenta:R:3:forces:R:3 energy=-438.21899096295 free_energy=-438.21899096295 stress="0.0010641474887129 0.00020083216305766 0.00043568750038791 0.00020083216305766 -0.00028007257965601 -6.9003902581255e-05 0.00043568750038791 -6.9003902581255e-05 -8.7923150881504e-05" pbc="T T T"
B        5.21759877       5.12988521       4.89579525       0.61688700      -0.14579581       0.50699527      -0.35060534      -0.95152244       0.66786680
H        6.85219380       5.70652007       8.04773291      -0.06936807      -0.16991577      -0.05407406       0.44570362      -0.44977747      -0.27354406
H        7.74454357       7.18398793       7.84520812       0.04382895       0.10961002       0.14197758       0.05251892      -0.28889712      -0.21552980
H        6.09454498       7.15815666       8.16936752      -0.20837532      -0.14373452       0.10197886      -1.01926269       0.85403451       0.16892066
H        5.07256445       5.15172504       3.73678336       0.29810601       0.05264937       0.15306929       0.35377241       0.32919975      -0.49048970
H        4.16160731       5.28917850       5.47704257       0.04496323       0.01423289       0.03832755       1.19408972       0.02184113       0.10672752
H        6.27497044       4.72216295       5.35319799      -0.06957156      -0.21729562      -0.29695526      -1.13198449       0.59811853      -0.16097246
N        6.85097524       6.67505174       7.69260634      -0.65635551       0.50045069      -0.59166193       0.46200320      -0.10414270       0.19948193
8
Lattice="11.905863438115196 0.0 0.0 0.0 11.905863438115196 0.0 0.0 0.0 11.905863438115196" Properties=species:S:1:pos:R:3:momenta:R:3:forces:R:3 energy=-438.22905256615 free_energy=-438.22905256615 stress="0.0011883288358711 0.00026924704527629 0.00027178857003076 0.00026924704527629 2.9355487779013e-05 -5.9342907047943e-05 0.00027178857003076 -5.9342907047943e-05 -0.00017065441847012" pbc="T T T"
B        5.21733104       5.13144117       4.89201713       0.59945456      -0.19210606       0.54219435      -0.45704507      -0.90896351       0.68224124
H        6.84625052       5.69997959       8.03852116      -0.04699637      -0.18244295      -0.07110678       0.47788972      -0.02938212      -0.41316839
H        7.74364682       7.19127997       7.84566041       0.03994816       0.09251593       0.13181618      -0.21737916      -0.42337492      -0.22255653
H        6.08006619       7.15442415       8.16831592      -0.25258035      -0.10539431       0.10749586      -0.74494598       0.73170251       0.03745931
H        5.08452961       5.15701867       3.73754752       0.31466803       0.06977437       0.12530596       0.27402267       0.36164657      -0.66541388
H        4.16221661       5.29222188       5.47286779       0.10355514       0.01524253       0.04374586       1.18645796       0.01903988       0.10598199
H        6.26714430       4.71458347       5.33230510      -0.12059192      -0.19052687      -0.30183720      -0.93378793       0.52960803       0.00824207
N        6.84562270       6.67909433       7.68430790      -0.63728220       0.49314364      -0.57741442       0.42193763      -0.27357840       0.48862104
8
Lattice="11.905570926508918 0.0 0.0 0.0 11.905570926508918 0.0 0.0 0.0 11.905570926508918" Properties=species:S:1:pos:R:3:momenta:R:3:forces:R:3 energy=-438.23660186824 free_energy=-438.23660186824 stress="0.0012568727343261 0.00031764028300798 9.2452010865858e-05 0.00031764028300798 0.00032092999031134 -2.2358380220763e-05 9.2452010865858e-05 -2.2358380220763e-05 -0.00021432635184495" pbc="T T T"
B        5.21579902       5.13267112       4.88913616       0.57580674      -0.23555673       0.57502900      -0.57014381      -0.83754972       0.59846019
H        6.84027240       5.69322000       8.02904468      -0.02331521      -0.17485128      -0.09455052       0.49349774       0.36206030      -0.53020973
H        7.74106386       7.19744798       7.84633039       0.02389729       0.06947205       0.12108852      -0.44001321      -0.52401633      -0.22516166
H        6.06259848       7.15230602       8.16810144      -0.28104452      -0.07416432       0.10513674      -0.38342251       0.55275367      -0.14205745
H        5.09602030       5.16306417       3.73746949       0.32703655       0.08845694       0.08993113       0.19662041       0.39311313      -0.78443700
H        4.16450706       5.29518993       5.46968676       0.16045070       0.01625742       0.04952489       1.12127140       0.02239443       0.12787111
H        6.25589674       4.70812294       5.31212679      -0.16041285      -0.16760056      -0.29768972      -0.67348247       0.42753376       0.19739417
N        6.83916655       6.68297313       7.67682409      -0.62225039       0.47812744      -0.54787047       0.26080288      -0.39230558       0.78704236
8
Lattice="11.905273813857121 0.0 0.0 0.0 11.905273813857121 0.0 0.0 0.0 11.905273813857121" Properties=species:S:1:pos:R:3:momenta:R:3:forces:R:3 energy=-438.23926204691 free_energy=-438.23926204691 stress="0.001248100001786 0.00035160241829044 -8.5365967352196e-05 0.00035160241829044 0.00055952492475584 3.68215324537e-05 -8.5365967352196e-05 3.68215324537e-05 -0.00021932552467904" pbc="T T T"
B        5.21332048       5.13383137       4.88749910       0.54609417      -0.27473923       0.60068139      -0.68133694      -0.73930621       0.40937982
H        6.83464678       5.68742716       8.01938842       0.00080898      -0.14947738      -0.12302137       0.49221313       0.68704820      -0.61561163
H        7.73660476       7.20248599       7.84756950      -0.00158449       0.04241903       0.11014741      -0.59904219      -0.58227851      -0.22277305
H        6.04336100       7.15162205       8.16865385      -0.29075787      -0.05211569       0.09332759       0.01156211       0.35106678      -0.34038219
H        5.10718498       5.17017632       3.73661997       0.33545196       0.10861767       0.05017495       0.12291880       0.42217679      -0.83367597
H        4.16866905       5.29833091       5.46791470       0.21277121       0.01760943       0.05684457       0.99934912       0.03252001       0.17276234
H        6.24219829       4.70278783       5.29349300      -0.18615130      -0.15022214      -0.28375087      -0.36195905       0.29461030       0.39895296
N        6.83192684       6.68690613       7.67057658      -0.61652889       0.45798859      -0.50368871       0.01851698      -0.46360267       1.05923605
8
Lattice="11.904973390710104 0.0 0.0 0.0 11.904973390710104 0.0 0.0 0.0 11.904973390710104" Properties=species:S:1:pos:R:3:momenta:R:3:forces:R:3 energy=-438.23709930186 free_energy=-438.23709930186 stress="0.0011501904134166 0.00037618105382768 -0.00024493141199629 0.00037618105382768 0.00072100043769563 0.0001101950491187 -0.00024493141199629 0.0001101950491187 -0.00018924882009425" pbc="T T T"
B        5.21020621       5.13517226       4.88736388       0.51109251      -0.30852712       0.61439740      -0.77625879      -0.61932003       0.11941437
H        6.82971037       5.68361248       8.00964825       0.02453382      -0.11025025      -0.15484258       0.47474462       0.92159662      -0.66580706
H        7.73022439       7.20648046       7.84968118      -0.03314270       0.01358898       0.09937135      -0.68615203      -0.59419577      -0.21551292
H        6.02364067       7.15212156       8.16979655      -0.28136978      -0.03974590       0.07192422       0.39025199       0.15567373      -0.53006070
H        5.11817976       5.17865355       3.73517684       0.34025788       0.13011583       0.00975463       0.05308466       0.44703111      -0.80722082
H        4.17474900       5.30189780       5.46795921       0.25782434       0.01964656       0.06690090       0.82389083       0.04987355       0.23997592
H        6.22713299       4.69849293       5.27719257      -0.19573639      -0.13987799      -0.25973897      -0.01715206       0.13713830       0.60294459
N        6.82419957       6.69110875       7.66591480      -0.62342640       0.43509354      -0.44711222      -0.26258295      -0.49668442       1.28042900
8
Lattice="11.904671547462552 0.0 0.0 0.0 11.904671547462552 0.0 0.0 0.0 11.904671547462552" Properties=species:S:1:pos:R:3:momenta:R:3:forces:R:3 energy=-438.23227509957 free_energy=-438.23227509957 stress="0.00096425668166372 0.00039374616115843 -0.00037230964404236 0.00039374616115843 0.00079214717399085 0.00018870380369241 -0.00037230964404236 0.00018870380369241 -0.00013035174804638" pbc="T T T"
B        5.20674846       5.13692436       4.88886348       0.47233795      -0.33618273       0.61193022      -0.83495724      -0.48653246      -0.25385082
H        6.82573759       5.68254413       7.99989972       0.04709420      -0.06199673      -0.18831179       0.44258484       1.05231075      -0.68098749
H        7.72202624       7.20960565       7.85288107      -0.06719905      -0.01471294       0.08907140      -0.69920812      -0.55927479      -0.20384289
H        6.00465735       7.15354252       8.17127310      -0.25472437      -0.03628738       0.04193032       0.71411003      -0.01271921      -0.68994850
H        5.12915369       5.18876211       3.73339845       0.34176991       0.15273733      -0.02762909      -0.01357331       0.46571796      -0.70829156
H        4.18264530       5.30613698       5.47018050       0.29321054       0.02272934       0.08079386       0.60138623       0.07453404       0.32727241
H        6.21183861       4.69506590       5.26391230      -0.18822492      -0.13759951      -0.22592406       0.33495645      -0.03420107       0.79697874
N        6.81624969       6.69577974       7.66307481      -0.64428298       0.41133169      -0.38130679      -0.54709441      -0.49970907       1.43419041
8
Lattice="11.904370490480797 0.0 0.0 0.0 11.904370490480797 0.0 0.0 0.0 11.904370490480797" Properties=species:S:1:pos:R:3:momenta:R:3:forces:R:3 energy=-438.22816999504 free_energy=-438.22816999504 stress="0.00070451916147472 0.00040354605980479 -0.00045766452945388 0.00040354605980479 0.00076921564854474 0.00026347530720955 -0.00045766452945388 0.00026347530720955 -5.1012317718304e-05" pbc="T T T"
B        5.20321516       5.13928285       4.89199095       0.43226912      -0.35746502       0.59004744      -0.83440826      -0.35376977      -0.68047970
H        6.82293533       5.68470424       7.99017783       0.06783124      -0.00996077      -0.22181538       0.39780260       1.07315649      -0.66356684
H        7.71225670       7.21210946       7.85727464      -0.10021209      -0.04024940       0.07947485      -0.64090191      -0.47973574      -0.18834627
H        5.98746528       7.15564853       8.17277621      -0.21419637      -0.04012934       0.00515061       0.95690565      -0.14143511      -0.80599652
H        5.14023409       5.20071759       3.73159428       0.34019209       0.17617380      -0.05871165      -0.07804810       0.47642411      -0.54848932
H        4.19211379       5.31127467       5.47486638       0.31694398       0.02720660       0.09943007       0.34276127       0.10589329       0.43014901
H        6.19743643       4.69226103       5.25419177      -0.16409116      -0.14374704      -0.18317062       0.66121596      -0.20430383       0.96701109
N        6.80830809       6.70108549       7.66215878      -0.67878839       0.38816716      -0.30991224      -0.80804214      -0.47722358       1.51124427
8
Lattice="11.904072453065767 0.0 0.0 0.0 11.904072453065767 0.0 0.0 0.0 11.904072453065767" Properties=species:S:1:pos:R:3:momenta:R:3:forces:R:3 energy=-438.228321466 free_energy=-438.228321466 stress="0.00039572719159216 0.00040254190351102 -0.00049573728917923 0.00040254190351102 0.00065630887387712 0.00032641190360527 -0.00049573728917923 0.00032641190360527 3.9281944351664e-05" pbc="T T T"
B        5.19984611       5.14238859       4.89660334       0.39424494      -0.37274127       0.54697894      -0.75390933      -0.23643931      -1.12143055
H        6.82143946       5.69025961       7.98047126       0.08618320       0.04047777      -0.25386602       0.34294614       0.98364460      -0.61745644
H        7.70129117       7.21429180       7.86285183      -0.12885114      -0.06094826       0.07073311      -0.51783464      -0.36003044      -0.16960010
H        5.97288641       7.15824304       8.17397770      -0.16411445      -0.04915279      -0.03609788       1.10202300      -0.22369813      -0.86969497
H        5.15151073       5.21466212       3.73009475       0.33557868       0.20000751      -0.08094423      -0.14106276       0.47772381      -0.34530506
H        4.20278128       5.31749881       5.48221834       0.32763413       0.03337026       0.12338354       0.06468612       0.14226137       0.54097956
H        6.18494751       4.68978065       5.24839164      -0.12546982      -0.15781073      -0.13296051       0.92483213      -0.35481376       1.09894874
N        6.80056873       6.70714221       7.66313211      -0.72527281       0.36676687      -0.23672433      -1.02456749      -0.43096923       1.50780914
8
Lattice="11.903779435257656 0.0 0.0 0.0 11.903779435257656 0.0 0.0 0.0 11.903779435257656" Properties=species:S:1:pos:R:3:momenta:R:3:forces:R:3 energy=-438.23534997532 free_energy=-438.23534997532 stress="6.9507478771535e-05 0.00038834742397509 -0.00048540538923915 0.00038834742397509 0.00046402692773957 0.00037139268903459 -0.00048540538923915 0.00037139268903459 0.00013081886958222" pbc="T T T"
B        5.19684755       5.14630693       4.90243884       0.36231644      -0.38296796       0.48279357      -0.58097051      -0.14932988      -1.53303781
H        6.82130912       5.69903995       7.97072688       0.10169816       0.08404082      -0.28309687       0.28099668       0.78815363      -0.54701715
H        7.68961023       7.21647624       7.86949353      -0.15023419      -0.07502887       0.06292505      -0.34274233      -0.20840746      -0.14871628
H        5.96146433       7.16116875       8.17455857      -0.10937242      -0.06100239      -0.07917405       1.14043300      -0.25612846      -0.87634342
H        5.16301895       5.23063975       3.72922086       0.32785122       0.22369791      -0.09270056      -0.20264028       0.46916620      -0.11974500
H        4.21416921       5.32493643       5.49234050       0.32468041       0.04139006       0.15273946      -0.21163953       0.18075790       0.64895951
H        6.17519649       4.68730319       5.24667087      -0.07616121      -0.17835068      -0.07737747       1.09209425      -0.46772929       1.18092818
N        6.79318337       6.71399698       7.66583248      -0.78084224       0.34815966      -0.16552798      -1.17780270      -0.36013828       1.42334324
8
Lattice="11.903492987593406 0.0 0.0 0.0 11.903492987593406 0.0 0.0 0.0 11.903492987593406" Properties=species:S:1:pos:R:3:momenta:R:3:forces:R:3 energy=-438.25004488827 free_energy=-438.25004488827 stress="-0.00024188217399464 0.00035961205106417 -0.00043030450739308 0.00035961205106417 0.00021000701435549 0.00039314953279453 -0.00043030450739308 0.00039314953279453 0.00021625851967667" pbc="T T T"
B        5.19438172       5.15100900       4.90914225       0.34068206      -0.38964631       0.39962133      -0.32030905      -0.10300545      -1.87318116
H        6.82251924       5.71053019       7.96085841       0.11403226       0.11575800      -0.30832041       0.21532303       0.49974551      -0.45929754
H        7.67776285       7.21897885       7.87698528      -0.16205585      -0.08108278       0.05608364      -0.13196738      -0.03514072      -0.12698162
H        5.95342491       7.16430010       8.17424009      -0.05532511      -0.07317210      -0.12116021       1.06649431      -0.23789634      -0.82342761
H        5.17472386       5.24857486       3.72925290       0.31688901       0.24660991      -0.09329490      -0.26205236       0.45068894       0.10799514
H        4.22573014       5.33362975       5.50522635       0.30862198       0.05123544       0.18689091      -0.45918763       0.21688962       0.73949923
H        6.16871649       4.68451414       5.24897192      -0.02141432      -0.20304030      -0.01902811       1.13988296      -0.52808521       1.20549264
N        6.78625269       6.72161157       7.66998550      -0.84147129       0.33324785      -0.10009924      -1.24919945      -0.26744192       1.26102198
8
Lattice="11.903214027470208 0.0 0.0 0.0 11.903214027470208 0.0 0.0 0.0 11.903214027470208" Properties=species:S:1:pos:R:3:momenta:R:3:forces:R:3 energy=-438.27092259859 free_energy=-438.27092259859 stress="-0.00050973775317959 0.00031904053831067 -0.00033744653800294 0.00031904053831067 -8.2097843615973e-05 0.00038890937321767 -0.00033744653800294 0.00038890937321767 0.00029103984250764" pbc="T T T"
B        5.19255488       5.15636446       4.91629485       0.33297481      -0.39461383       0.30172418       0.00564632      -0.10010589      -2.10603849
H        6.82495636       5.72389214       7.95075299       0.12299359       0.13148636      -0.32866880       0.14924434       0.14128420      -0.36251651
H        7.66631300       7.22207645       7.88503451      -0.16302539      -0.07834556       0.05017103       0.09159381       0.14539795      -0.10668768
H        5.94864800       7.16754193       8.17281332      -0.00755216      -0.08313634      -0.15899614       0.87945506      -0.16968621      -0.71061344
H        5.18651255       5.26826636       3.73040071       0.30266508       0.26811111      -0.08299952      -0.31790352       0.42331393       0.31969618
H        4.23690103       5.34351997       5.52074207       0.28134319       0.06261730       0.22444519      -0.65110018       0.24526156       0.79642388
H        6.16567677       4.68113757       5.25501749       0.03269775      -0.22899562       0.03916135       1.06240565      -0.52887876       1.17122409
N        6.77981827       6.72985748       7.67522442      -0.90210179       0.32277901      -0.04407058      -1.21876904      -0.15932520       1.02806315
8
Lattice="11.902942722440725 0.0 0.0 0.0 11.902942722440725 0.0 0.0 0.0 11.902942722440725" Properties=species:S:1:pos:R:3:momenta:R:3:forces:R:3 energy=-438.29461197515 free_energy=-438.29461197515 stress="-0.0007124389239565 0.00027228881348259 -0.00021683287601396 0.00027228881348259 -0.00038204248249187 0.0003579787626657 -0.00021683287601396 0.0003579787626657 0.0003544932221108" pbc="T T T"
B        5.19140455       5.16215023       4.92344531       0.34142901      -0.39974361       0.19516406       0.35941359      -0.13446088      -2.20649218
H        6.82841978       5.73803135       7.94026975       0.12856267       0.12857715      -0.34379048       0.08533862      -0.25072043      -0.26705453
H        7.65577473       7.22598041       7.89328861      -0.15311653      -0.06685517       0.04506469       0.30107632       0.31645399      -0.09079673
H        5.94665323       7.17083708       8.17016295       0.02839670      -0.08848476      -0.18965709       0.58491097      -0.05503286      -0.54108918
H        5.19819518       5.28940173       3.73277977       0.28534763       0.28766845      -0.06292795      -0.36845010       0.38869409       0.50097627
H        4.24716799       5.35444359       5.53860947       0.24611415       0.07496450       0.26323887      -0.76468881       0.26030259       0.80432023
H        6.16585619       4.67696231       5.26432516       0.08019212      -0.25322813       0.09427450       0.87280092      -0.47230754       1.08285332
N        6.77385746       6.73852495       7.68111257      -0.95688873       0.31704934      -0.00063807      -1.06805679      -0.05144584       0.73971739
8
Lattice="11.902678409635666 0.0 0.0 0.0 11.902678409635666 0.0 0.0 0.0 11.902678409635666" Properties=species:S:1:pos:R:3:momenta:R:3:forces:R:3 energy=-438.31707639374 free_energy=-438.31707639374 stress="-0.00083612592215207 0.00022584072183188 -8.0491661503286e-05 0.00022584072183188 -0.00065441853229749 0.00030237850129914 -8.0491661503286e-05 0.00030237850129914 0.00040941027819561" pbc="T T T"
B        5.19089511       5.16807745       4.93013992       0.36635571      -0.40657543       0.08711439       0.69817292      -0.19309865      -2.16268639
H        6.83263414       5.75171585       7.92923338       0.13086052       0.10659917      -0.35397295       0.02458174      -0.62686560      -0.18411595
H        7.64654686       7.23081918       7.90135305      -0.13374324      -0.04755632       0.04052061       0.46874321       0.46075523      -0.08249294
H        5.94661821       7.17418189       8.16628092       0.04752986      -0.08714523      -0.21047003       0.19914200       0.09770141      -0.32399468
H        5.20951881       5.31159103       3.73639749       0.26531359       0.30492201      -0.03485925      -0.41191716       0.34888370       0.64166275
H        4.25613154       5.36614549       5.55839588       0.20722639       0.08746387       0.30051925      -0.78704199       0.25752410       0.75206909
H        6.16867886       4.67185923       5.27624284       0.11611131      -0.27313476       0.14375494       0.59934642      -0.36887354       0.94994551
N        6.76828924       6.74734673       7.68716964      -0.99957178       0.31547930       0.02794099      -0.78645820       0.03042401       0.41988773
8
Lattice="11.902419575136207 0.0 0.0 0.0 11.902419575136207 0.0 0.0 0.0 11.902419575136207" Properties=species:S:1:pos:R:3:momenta:R:3:forces:R:3 energy=-438.33519353948 free_energy=-438.33519353948 stress="-0.00087306554698262 0.00018361202118713 5.8079220693327e-05 0.00018361202118713 -0.00086205735512955 0.00022761288737817 5.8079220693327e-05 0.00022761288737817 0.00046088639747743" pbc="T T T"
B        5.19092641       5.17383009       4.93595159       0.40611780      -0.41602697      -0.01500668       0.98491221      -0.26035927      -1.97671982
H        6.83727199       5.76373610       7.91742851       0.13004756       0.06783378      -0.36012073      -0.03424270      -0.93074297      -0.12343316
H        7.63886126       7.23663131       7.90881043      -0.10765363      -0.02222216       0.03616282       0.57091692       0.56340000      -0.08429342
H        5.94744007       7.17764000       8.16126623       0.04613713      -0.07768331      -0.21952074      -0.24571992       0.27279673      -0.07720147
H        5.22019314       5.33441240       3.74115335       0.24309040       0.31970854      -0.00101043      -0.44675092       0.30620670       0.73559212
H        4.26355831       5.37830563       5.57951802       0.16933770       0.09916394       0.33325489      -0.71844054       0.23467146       0.63595331
H        6.17330420       4.66578827       5.29000151       0.13716214      -0.28683736       0.18565377       0.27796290      -0.23424046       0.78473584
N        6.76299306       6.75603018       7.69290226      -1.02410257       0.31622555       0.04082672      -0.38156670       0.05679246       0.10050417
8
Lattice="11.902163903831847 0.0 0.0 0.0 11.902163903831847 0.0 0.0 0.0 11.902163903831847" Properties=species:S:1:pos:R:3:momenta:R:3:forces:R:3 energy=-438.34796882273 free_energy=-438.34796882273 stress="-0.0008191448039083 0.00014412764937308 0.00018424191257657 0.00014412764937308 -0.00097197312175517 0.00014325713170245 0.00018424191257657 0.00014325713170245 0.00051469328937832" pbc="T T T"
B        5.19135529       5.17910591       4.94050969       0.45760285      -0.42829479      -0.10433733       1.19629872      -0.32211122      -1.66339820
H        6.84198183       5.77308032       7.90460458       0.12620139       0.01727738      -0.36356622      -0.09426135      -1.11060953      -0.09031881
H        7.63275534       7.24336790       7.91524499      -0.07854429       0.00678756       0.03152128       0.59312871       0.61480431      -0.09711970
H        5.94784698       7.18134137       8.15530876       0.02265673      -0.05967697      -0.21611216      -0.69838340       0.44552258       0.17120832
H        5.22992438       5.35745837       3.74685514       0.21928126       0.33205153       0.03618503      -0.47177830       0.26317475       0.78011524
H        4.26940856       5.39057317       5.60126766       0.13673766       0.10911414       0.35852289      -0.57226893       0.19234188       0.46111828
H        6.17874759       4.65879601       5.30477943       0.14191309      -0.29331049       0.21871717      -0.05560686      -0.08545358       0.59995737
N        6.75783672       6.76428993       7.69784054      -1.02566136       0.31624642       0.03893632       0.11125737       0.00875806      -0.17980919
8
Lattice="11.901908423962265 0.0 0.0 0.0 11.901908423962265 0.0 0.0 0.0 11.901908423962265" Properties=species:S:1:pos:R:3:momenta:R:3:forces:R:3 energy=-438.35670547731 free_energy=-438.35670547731 stress="-0.00067250667301933 0.00010004953200808 0.00028298213683547 0.00010004953200808 -0.00096264489629894 6.251684096352e-05 0.00028298213683547 6.251684096352e-05 0.00057560564599288" pbc="T T T"
B        5.19202453       5.18365087       4.94353370       0.51695581      -0.44295496      -0.17517284       1.32473798      -0.36843576      -1.24735344
H        6.84641506       5.77908860       7.89050016       0.11924229      -0.03801458      -0.36575818      -0.15908478      -1.13354535      -0.08346115
H        7.62807364       7.25090292       7.92027694      -0.05046918       0.03686206       0.02610623       0.53356997       0.61264929      -0.11977454
H        5.94655794       7.18545448       8.14865731      -0.02149068      -0.03410159      -0.20117848      -1.09116683       0.58350963       0.38511589
H        5.23845086       5.38037419       3.75325112       0.19450919       0.34211877       0.07425209      -0.48629199       0.22217259       0.77560847
H        4.27383478       5.40260055       5.62286309       0.11275377       0.11648902       0.37387537      -0.37148390       0.13383628       0.24058254
H        6.18400332       4.65100550       5.31977248       0.13061581      -0.29233804       0.24233282      -0.37132801       0.06207090       0.40728968
N        6.75270413       6.77187567       7.70158254      -1.00191810       0.31207729       0.02509405       0.62876805      -0.10947226      -0.38396363
8
Lattice="11.901649766107829 0.0 0.0 0.0 11.901649766107829 0.0 0.0 0.0 11.901649766107829" Properties=species:S:1:pos:R:3:momenta:R:3:forces:R:3 energy=-438.36385913522 free_energy=-438.36385913522 stress="-0.00043496277847725 4.0884505517473e-05 0.00034095916506378 4.0884505517473e-05 -0.00082989666070598 1.0973827250329e-07 0.00034095916506378 1.0973827250329e-07 0.00064599836538741" pbc="T T T"
B        5.19279100       5.18728198       4.94486991       0.58026403      -0.45918157      -0.22331763       1.37536575      -0.39425696      -0.75926297
H        6.85024695       5.78154827       7.87488977       0.10894553      -0.09015174      -0.36791023      -0.23072073      -0.99578810      -0.09508582
H        7.62449640       7.25904956       7.92360673      -0.02719906       0.06548501       0.01950104       0.40335740       0.56205338      -0.14910920
H        5.94247499       7.19012980       8.14157549      -0.08144587      -0.00355205      -0.17745949      -1.35237785       0.65300290       0.52786533
H        5.24557252       5.40288245       3.76007428       0.16937771       0.35015448       0.11081205      -0.49008350       0.18519549       0.72513166
H        4.27715337       5.41407167       5.64352222       0.09941766       0.12066932       0.37760767      -0.14322631       0.06435828      -0.00759974
H        6.18814720       4.64260020       5.33426471       0.10481848      -0.28437211       0.25641282      -0.64724481       0.19615190       0.21660070
N        6.74751468       6.77859304       7.70384350      -0.95401296       0.30100288       0.00372421       1.09081215      -0.27089019      -0.48725032
8
Lattice="11.901384532503776 0.0 0.0 0.0 11.901384532503776 0.0 0.0 0.0 11.901384532503776" Properties=species:S:1:pos:R:3:momenta:R:3:forces:R:3 energy=-438.37114992243 free_energy=-438.37114992243 stress="-0.00011689296486782 -4.2016867042843e-05 0.00034984848602059 -4.2016867042843e-05 -0.00058917725670733 -3.1575198507964e-05 0.00034984848602059 -3.1575198507964e-05 0.00072464947739635" pbc="T T T"
B        5.19354642       5.18989648       4.94452350       0.64403122      -0.47596746      -0.24618820       1.36068558      -0.39848653      -0.23223846
H        6.85319062       5.78070742       7.85764397       0.09503842      -0.13187614      -0.37072106      -0.30802736      -0.72394886      -0.11405030
H        7.62158762       7.26758076       7.92506125      -0.01168115       0.09053909       0.01145566       0.22427591       0.47433886      -0.18082513
H        5.93487320       7.19542737       8.13429479      -0.14926751       0.02796576      -0.14920425      -1.42748435       0.62960814       0.57352836
H        5.25116892       5.42479311       3.76708975       0.14444835       0.35644041       0.14370056      -0.48343919       0.15379522       0.63422899
H        4.27979691       5.42472118       5.66254350       0.09739116       0.12129559       0.36891829       0.08628199      -0.01003184      -0.26361016
H        6.19040780       4.63380377       5.34769033       0.06693520      -0.27035517       0.26128442      -0.86928277       0.30819358       0.03578964
N        6.74222939       6.78431606       7.70449977      -0.88678396       0.28194529      -0.01994381       1.42058913      -0.43558329      -0.48167930
8
Lattice="11.9011097611512 0.0 0.0 0.0 11.9011097611512 0.0 0.0 0.0 11.9011097611512" Properties=species:S:1:pos:R:3:momenta:R:3:forces:R:3 energy=-438.37819021133 free_energy=-438.37819021133 stress="0.00026256090018683 -0.00015009219350917 0.00030943772198882 -0.00015009219350917 -0.00027059963689201 -2.5057761990276e-05 0.00030943772198882 -2.5057761990276e-05 0.00080713696160774" pbc="T T T"
B        5.19422742       5.19146950       4.94267474       0.70540305      -0.49225501      -0.24282188       1.29545308      -0.38142490       0.30179734
H        6.85500618       5.77720726       7.83878232       0.07738403      -0.15781060      -0.37428076      -0.38666843      -0.36438837      -0.12863158
H        7.61885253       7.27625232       7.92462786      -0.00567674       0.11053591       0.00195473       0.01986859       0.36237990      -0.21058832
H        5.92353839       7.20125614       8.12697806      -0.21526267       0.05570139      -0.12136558      -1.29606925       0.50644917       0.51649589
H        5.25520483       5.44600307       3.77413170       0.12022536       0.36127811       0.17112599      -0.46705529       0.12896430       0.51088915
H        4.28225723       5.43434583       5.67937646       0.10615688       0.11827720       0.34792231       0.29567973      -0.08371071      -0.50919547
H        6.19020631       4.62485744       5.35967558       0.01987535      -0.25156442       0.25761187      -1.02996443       0.39216584      -0.12913021
N        6.73684569       6.78899152       7.70361370      -0.80805204       0.25578127      -0.04085270       1.56984578      -0.56377651      -0.37931532
8
Lattice="11.900823290997362 0.0 0.0 0.0 11.900823290997362 0.0 0.0 0.0 11.900823290997362" Properties=species:S:1:pos:R:3:momenta:R:3:forces:R:3 energy=-438.38277195725 free_energy=-438.38277195725 stress="0.00066627435496749 -0.0002762826810338 0.00022815693422002 -0.0002762826810338 8.322824948695e-05 1.8067436672824e-05 0.00022815693422002 1.8067436672824e-05 0.0008854356993807" pbc="T T T"
B        5.19481062       5.19204176       4.93966555       0.76223066      -0.50709948      -0.21382847       1.19301637      -0.34511285       0.81190186
H        6.85550403       5.77195132       7.81849439       0.05611313      -0.16517243      -0.37822914      -0.46004239       0.02646386      -0.13182240
H        7.61579702       7.28482802       7.92246048      -0.00959801       0.12473626      -0.00881621      -0.18134210       0.24210489      -0.23477368
H        5.90879655       7.20735069       8.11970395      -0.27001614       0.07523075      -0.09857522      -0.98555799       0.30093116       0.37398107
H        5.25771968       5.46648628       3.78111935       0.09716445       0.36499527       0.19177426      -0.44210678       0.11046427       0.36547773
H        4.28502627       5.44280646       5.69366059       0.12427981       0.11180706       0.31559190       0.46921969      -0.15146402      -0.72885302
H        6.18716565       4.61599527       5.37004837      -0.03318731      -0.22947617       0.24634479      -1.12586034       0.44505254      -0.27335318
N        6.73138074       6.79263370       7.70142560      -0.72699305       0.22489414      -0.05494188       1.53109475      -0.63270364      -0.20779199
8
Lattice="11.900524246518685 0.0 0.0 0.0 11.900524246518685 0.0 0.0 0.0 11.900524246518685" Properties=species:S:1:pos:R:3:momenta:R:3:forces:R:3 energy=-438.38275806571 free_energy=-438.38275806571 stress="0.0010524675393838 -0.00040581011071965 0.0001208186376006 -0.00040581011071965 0.00042991814852293 9.0292929943316e-05 0.0001208186376006 9.0292929943316e-05 0.0009514972322951" pbc="T T T"
B        5.19530555       5.19170685       4.93595987       0.81306609      -0.51961818      -0.16123764       1.06407051      -0.29001451       1.27059288
H        6.85454947       5.76596200       7.79712358       0.03167851      -0.15374813      -0.38197562      -0.52148566       0.39870389      -0.12054865
H        7.61197543       7.29310139       7.91885458      -0.02276900       0.13305601      -0.02052905      -0.35837406       0.12603191      -0.25112530
H        5.89144107       7.21329901       8.11247487      -0.30621956       0.08332358      -0.08424063      -0.55461599       0.04530307       0.17831087
H        5.25881469       5.48628320       3.78804938       0.07566163       0.36791933       0.20490911      -0.41002006       0.09696205       0.21024374
H        4.28854881       5.45002854       5.70523060       0.14971533       0.10230006       0.27358360       0.59715045      -0.20936684      -0.91117264
H        6.18110665       4.60742286       5.37881773      -0.08902085      -0.20573791       0.22865816      -1.15650912       0.46469219      -0.39317428
N        6.72585984       6.79531642       7.69831592      -0.65217908       0.19239666      -0.05978933       1.33558870      -0.63754110      -0.00419411
8
Lattice="11.900213107579143 0.0 0.0 0.0 11.900213107579143 0.0 0.0 0.0 11.900213107579143" Properties=species:S:1:pos:R:3:momenta:R:3:forces:R:3 energy=-438.37818592946 free_energy=-438.37818592946 stress="0.0013775804922964 -0.00052074671971026 4.5340127100851e-06 -0.00052074671971026 0.00073120128734667 0.00017963006341918 4.5340127100851e-06 0.00017963006341918 0.00099862929907722" pbc="T T T"
B        5.19574226       5.19059727       4.93208277       0.85701522      -0.52899406      -0.08836272       0.91654591      -0.21532189       1.65320153
H        6.85206315       5.76024570       7.77511707       0.00482332      -0.12555443      -0.38493705      -0.56554124       0.71331570      -0.09620202
H        7.60702794       7.30091455       7.91419778      -0.04354927       0.13602158      -0.03278346      -0.49484849       0.02458704      -0.25862233
H        5.87257047       7.21860869       8.10524096      -0.31992665       0.07854769      -0.08005840      -0.07607949      -0.22212811      -0.03422670
H        5.25863393       5.50548563       3.79497215       0.05603498       0.37031746       0.21045524      -0.37236922       0.08593716       0.05862008
H        4.29318516       5.45599824       5.71408929       0.18007736       0.09035385       0.22403591       0.67409914      -0.25440718      -1.04812365
H        6.17203154       4.59929856       5.38612826      -0.14445091      -0.18207022       0.20590179      -1.12297540       0.44973929      -0.48558289
N        6.72030659       6.79716021       7.69474411      -0.59014759       0.16124355      -0.05477122       1.03489640      -0.58808835       0.19595821
8
Lattice="11.899891690844946 0.0 0.0 0.0 11.899891690844946 0.0 0.0 0.0 11.899891690844946" Properties=species:S:1:pos:R:3:momenta:R:3:forces:R:3 energy=-438.3719535409 free_energy=-438.3719535409 stress="0.0016046536484407 -0.00060424233228226 -0.00010498178596953 -0.00060424233228226 0.00095741537326188 0.00027277548715834 -0.00010498178596953 0.00027277548715834 0.0010227012804753" pbc="T T T"
B        5.19615979       5.18887289       4.92855549       0.89355273      -0.53434730       0.00041734       0.75629725      -0.11890828       1.93831325
H        6.84801954       5.75568908       7.75296248      -0.02350906      -0.08417631      -0.38667021      -0.58857662       0.94413606      -0.06281835
H        7.60070524       7.30817155       7.90891182      -0.06966848       0.13459834      -0.04516461      -0.58035532      -0.05472335      -0.25723314
H        5.85339892       7.22278743       8.09792764      -0.31065121       0.06124797      -0.08606900       0.38330659      -0.46747468      -0.23293527
H        5.25734628       5.52421906       3.80196405       0.03850911       0.37230928       0.20899884      -0.33070932       0.07384158      -0.07594470
H        4.29918645       5.46075759       5.72036476       0.21282399       0.07668520       0.16936816       0.69773718      -0.28431538      -1.13436447
H        6.16010534       4.59172014       5.39220651      -0.19643680      -0.16022185       0.17953490      -1.02732510       0.39931136      -0.54812710
N        6.71473860       6.79831874       7.69118272      -0.54478432       0.13374109      -0.04078518       0.68245212      -0.49942955       0.36564332
8
Lattice="11.899562928603343 0.0 0.0 0.0 11.899562928603343 0.0 0.0 0.0 11.899562928603343" Properties=species:S:1:pos:R:3:momenta:R:3:forces:R:3 energy=-438.36864273405 free_energy=-438.36864273405 stress="0.0017076769327258 -0.00064327853140194 -0.00019521761684676 -0.00064327853140194 0.0010887251882997 0.0003572334600228 -0.00019521761684676 0.0003572334600228 0.0010219523477622" pbc="T T T"
B        5.19659779       5.18671332       4.92583902       0.92231732      -0.53461052       0.09986873       0.58824215       0.00198994       2.10862941
H        6.84244517       5.75299140       7.73112845      -0.05226512      -0.03414405      -0.38690983      -0.58876001       1.07605098      -0.02568407
H        7.59288272       7.31484651       7.90340042      -0.09850689       0.13002325      -0.05727152      -0.60986700      -0.10716489      -0.24758487
H        5.83509003       7.22541427       8.09045708      -0.28072284       0.03316847      -0.10103875       0.77322610      -0.66628074      -0.39679293
H        5.25513157       5.54262340       3.80910585       0.02321746       0.37377596       0.20171103      -0.28639024       0.05647247      -0.18156191
H        4.30668021       5.46440032       5.72426739       0.24534924       0.06208469       0.11214108       0.66752505      -0.29732723      -1.16643106
H        6.14564034       4.58471642       5.39731218      -0.24209184      -0.14193243       0.15107018      -0.87268853       0.31299654      -0.57900200
N        6.70916774       6.79896770       7.68806078      -0.51747129       0.11144178      -0.01975502       0.32216756      -0.38533126       0.48859305
8
Lattice="11.89923054535411 0.0 0.0 0.0 11.89923054535411 0.0 0.0 0.0 11.89923054535411" Properties=species:S:1:pos:R:3:momenta:R:3:forces:R:3 energy=-438.37229749248 free_energy=-438.37229749248 stress="0.0016728394116163 -0.0006297045407523 -0.00025695448746308 -0.0006297045407523 0.0011147856142572 0.00042239888290689 -0.00025695448746308 0.00042239888290689 0.00099606708290599" pbc="T T T"
B        5.19709213       5.18431401       4.92429211       0.94297378      -0.52847099       0.20409648       0.41760632       0.14949914       2.15245122
H        6.83541838       5.75262590       7.71001846      -0.08033939       0.01951957      -0.38556030      -0.56572972       1.10239195       0.00956359
H        7.58356775       7.32098754       7.89801030      -0.12730380       0.12366664      -0.06872876      -0.58300737      -0.13054896      -0.23069834
H        5.81863753       7.22619069       8.08276057      -0.23441305      -0.00301540      -0.12291218       1.06089993      -0.80376158      -0.51385744
H        5.25217236       5.56083346       3.81646998       0.01022545       0.37430419       0.19020945      -0.24042500       0.02967013      -0.24950055
H        4.31566280       5.46706957       5.72605712       0.27500817       0.04739594       0.05499915       0.58402918      -0.29204718      -1.14225200
H        6.12908585       4.57824300       5.40170177      -0.27869063      -0.12889557       0.12203525      -0.66395113       0.19130033      -0.57743068
N        6.70360366       6.79929710       7.68572270      -0.50760878       0.09527811       0.00586224      -0.01405099      -0.25580770       0.55796146
8
Lattice="11.89889869707519 0.0 0.0 0.0 11.89889869707519 0.0 0.0 0.0 11.89889869707519" Properties=species:S:1:pos:R:3:momenta:R:3:forces:R:3 energy=-438.38436801219 free_energy=-438.38436801219 stress="0.0014978415752149 -0.0005600879317359 -0.0002833615436134 -0.0005600879317359 0.0010340051866515 0.00046011711568818 -0.0002833615436134 0.00046011711568818 0.00094497468967596" pbc="T T T"
B        5.19767435       5.18188384       4.92414385       0.95523202      -0.51445160       0.30676134       0.25105874       0.32341603       2.06577885
H        6.82707084       5.75481989       7.68993746      -0.10660950       0.07160888      -0.38270078      -0.52034265       1.02326540       0.03764160
H        7.57290187       7.32671722       7.89300549      -0.15332802       0.11692170      -0.07919055      -0.50360672      -0.12521539      -0.20788316
H        5.80478936       7.22497261       8.07478391      -0.17719872      -0.04407522      -0.14917584       1.22734485      -0.87247629      -0.57855411
H        5.24865122       5.57896152       3.82411479      -0.00043454       0.37319893       0.17642384      -0.19335286      -0.00961138      -0.27589403
H        4.32599683       5.46895760       5.72602441       0.29916571       0.03350770       0.00064137       0.44865014      -0.26740136      -1.06092973
H        6.11101972       4.57218147       5.40560514      -0.30375127      -0.12269523       0.09393134      -0.40870284       0.03631047      -0.54425471
N        6.69805886       6.79950610       7.68440254      -0.51317046       0.08575149       0.03345306      -0.30306142      -0.11794226       0.57356348
8
Lattice="11.89857161666893 0.0 0.0 0.0 11.89857161666893 0.0 0.0 0.0 11.89857161666893" Properties=species:S:1:pos:R:3:momenta:R:3:forces:R:3 energy=-438.40272527048 free_energy=-438.40272527048 stress="0.0011904591437223 -0.00043593956748929 -0.00026944165572293 -0.00043593956748929 0.00085279060517948 0.00046400513521751 -0.00026944165572293 0.00046400513521751 0.00087002906702192" pbc="T T T"
B        5.19837455       5.17964236       4.92547903       0.95913846      -0.49117756       0.40147989       0.09794828       0.51944846       1.85400160
H        6.81758911       5.75954908       7.67106713      -0.12999719       0.11713268      -0.37861733      -0.45426711       0.84430405       0.05393815
H        7.56115570       7.33222909       7.88855203      -0.17419672       0.11105165      -0.08837068      -0.37856845      -0.09330942      -0.18056036
H        5.79400269       7.22178717       8.06648899      -0.11522446      -0.08655931      -0.17713239       1.26109579      -0.86930766      -0.58871614
H        5.24475192       5.59708547       3.83208262      -0.00873078       0.36966748       0.16228226      -0.14561301      -0.06321345      -0.26073425
H        4.33741592       5.47030566       5.72448073       0.31521545       0.02136648      -0.04812709       0.26501478      -0.22316269      -0.92412311
H        6.09213346       4.56634253       5.40921117      -0.31519195      -0.12476787       0.06820307      -0.11952789      -0.14616559      -0.48337499
N        6.69255442       6.79979900       7.68421043      -0.53103996       0.08304776       0.06049712      -0.52532235       0.02176734       0.53891218
8
Lattice="11.898253260438972 0.0 0.0 0.0 11.898253260438972 0.0 0.0 0.0 11.898253260438972" Properties=species:S:1:pos:R:3:momenta:R:3:forces:R:3 energy=-438.42212380556 free_energy=-438.42212380556 stress="0.00076933535675144 -0.0002624246634226 -0.00021130548870308 -0.0002624246634226 0.00058792866901244 0.00043174690819935 -0.00021130548870308 0.00043174690819935 0.00077156116782871" pbc="T T T"
B        5.19923137       5.17781598       4.92823901       0.95541678      -0.45773697       0.48238187      -0.03003973       0.72784624       1.53426616
H        6.80721666       5.76655484       7.65345097      -0.14952724       0.15150992      -0.37386585      -0.37084449       0.58120581       0.05513430
H        7.54871338       7.33777817       7.88471234      -0.18791994       0.10719482      -0.09606165      -0.22081897      -0.04100595      -0.15104067
H        5.78642504       7.21683646       8.05785584      -0.05515813      -0.12687785      -0.20402383       1.15888661      -0.79514406      -0.54522256
H        5.24066644       5.61524747       3.84039742      -0.01463029       0.36294288       0.14966663      -0.09701050      -0.12973025      -0.21144593
H        4.34953989       5.47140391       5.72175987       0.32085701       0.01191745      -0.08862122       0.03791407      -0.15969287      -0.73488991
H        6.07320929       4.56047509       5.41266182      -0.31173617      -0.13616638       0.04605464       0.18697136      -0.34740681      -0.40142548
N        6.68713029       6.80038179       7.68513324      -0.55726051       0.08698230       0.08467365      -0.66183066       0.15472181       0.46055223
8
Lattice="11.89794695486397 0.0 0.0 0.0 11.89794695486397 0.0 0.0 0.0 11.89794695486397" Properties=species:S:1:pos:R:3:momenta:R:3:forces:R:3 energy=-438.43593585093 free_energy=-438.43593585093 stress="0.00026118389588456 -4.9666195973144e-05 -0.00010742206435578 -4.9666195973144e-05 0.00026430297570066 0.00036328579507877 -0.00010742206435578 0.00036328579507877 0.00065307800720971" pbc="T T T"
B        5.20029950       5.17662889       4.93223232       0.94571624      -0.41400643       0.54486249      -0.11925934       0.93352527       1.13525901
H        6.79624937       5.77537000       7.63698770      -0.16443753       0.17116412      -0.36922513      -0.27414972       0.25711846       0.03961225
H        7.53604858       7.34366494       7.88144733      -0.19325944       0.10617189      -0.10217569      -0.04496602       0.02417631      -0.12139681
H        5.78188252       7.21049083       8.04888769      -0.00376873      -0.16157387      -0.22720987       0.92073782      -0.65296519      -0.45022207
H        5.23659855       5.63345549       3.84905927      -0.01809667       0.35249557       0.14005355      -0.04758806      -0.20626567      -0.13772293
H        4.36189837       5.47258359       5.71821286       0.31424520       0.00604264      -0.11843203      -0.22322745      -0.07936127      -0.50123933
H        6.05507567       4.55428201       5.41604194      -0.29319128      -0.15740067       0.02828359       0.48774795      -0.55294345      -0.30944092
N        6.68185135       6.80145469       7.68704118      -0.58710943       0.09688740       0.10395782      -0.69436642       0.26839465       0.34495503
8
Lattice="11.897655087369387 0.0 0.0 0.0 11.897655087369387 0.0 0.0 0.0 11.897655087369387" Properties=species:S:1:pos:R:3:momenta:R:3:forces:R:3 energy=-438.43863840749 free_energy=-438.43863840749 stress="-0.00029766766612457 0.00018755446717683 4.0021949611721e-05 0.00018755446717683 -8.3236009356848e-05 0.0002626452892739 4.0021949611721e-05 0.0002626452892739 0.00052085066045651" pbc="T T T"
B        5.20166051       5.17629171       4.93715906       0.93259948      -0.36083951       0.58619956      -0.15704017       1.11729855       0.69628702
H        6.78502873       5.78537495       7.62143909      -0.17426365       0.17405837      -0.36559745      -0.16960622      -0.09341687       0.00828750
H        7.52369000       7.35020938       7.87862553      -0.18986087       0.10838562      -0.10678260       0.13119626       0.09225782      -0.09406817
H        5.77989171       7.20326952       8.03961694       0.03247905      -0.18752899      -0.24434669       0.55598092      -0.45028993      -0.30949417
H        5.23277010       5.65168849       3.85803815      -0.01910192       0.33809358       0.13440342       0.00259896      -0.28798773      -0.05178645
H        4.37396509       5.47420376       5.71420339       0.29423462       0.00444464      -0.13573445      -0.50428594       0.01324474      -0.23611065
H        6.03855424       4.54744571       5.41936991      -0.26069353      -0.18818495       0.01506131       0.75607156      -0.74390204      -0.22156227
N        6.67681655       6.80320252       7.68970636      -0.61526074       0.11137554       0.11675914      -0.60934005       0.34576273       0.20061602
8
Lattice="11.89737879462926 0.0 0.0 0.0 11.89737879462926 0.0 0.0 0.0 11.89737879462926" Properties=species:S:1:pos:R:3:momenta:R:3:forces:R:3 energy=-438.4282203908 free_energy=-438.4282203908 stress="-0.000861875194988 0.00042963313271724 0.00022307332341726 0.00042963313271724 -0.00041238192879762 0.00013828033492177 0.00022307332341726 0.00013828033492177 0.0003848041181415" pbc="T T T"
B        5.20343013       5.17698701       4.94264430       0.91928544      -0.30009092       0.60598724      -0.13573796       1.25892128       0.26411395
H        6.77393000       5.79587417       7.60645266      -0.17888024       0.16015619      -0.36382293      -0.06345879      -0.42673333      -0.03461509
H        7.51217999       7.35771775       7.87603929      -0.17831292       0.11373831      -0.11010188       0.28907210       0.15225218      -0.07137504
H        5.77969101       7.19580801       8.03011045       0.04804739      -0.20225325      -0.25360082       0.08860210      -0.20134952      -0.13426001
H        5.22942421       5.66990095       3.86726834      -0.01763201       0.31982847       0.13307045       0.05332994      -0.36900592       0.03391471
H        4.38519880       5.47662970       5.71009649       0.26058618       0.00752003      -0.13956579      -0.78542726       0.11077859       0.04169457
H        6.02439766       4.53966105       5.42258629      -0.21674152      -0.22728329       0.00580692       0.96474404      -0.89857792      -0.15325159
N        6.67216427       6.80578186       7.69282793      -0.63621254       0.12822053       0.12200465      -0.40584971       0.36826595       0.03840199
8
Lattice="11.897117722841704 0.0 0.0 0.0 11.897117722841704 0.0 0.0 0.0 11.897117722841704" Properties=species:S:1:pos:R:3:momenta:R:3:forces:R:3 energy=-438.40762121916 free_energy=-438.40762121916 stress="-0.0013780821449563 0.00065284768757348 0.0004265093640187 0.00065284768757348 -0.00067801816148996 3.2183873941824e-06 0.0004265093640187 3.2183873941824e-06 0.00025803209586963" pbc="T T T"
B        5.20575883       5.17885367       4.94827895       0.90917463      -0.23445951       0.60627492      -0.05713398       1.34129346      -0.11223504
H        6.76334459       5.80618982       7.59160023      -0.17849995       0.13165293      -0.36447655       0.03798281      -0.69548243      -0.08138038
H        7.50202863       7.36644561       7.87342795      -0.16006636       0.12163207      -0.11248210       0.41169381       0.19374195      -0.05512549
H        5.78030090       7.18880925       8.02046942       0.03917973      -0.20423567      -0.25393347      -0.43587205       0.07049941       0.05690198
H        5.22682347       5.68802572       3.87664830      -0.01368990       0.29808065       0.13583506       0.10419857      -0.44326604       0.10829704
H        4.39508909       5.48020377       5.70624116       0.21415930       0.01523266      -0.13007273      -1.04156516       0.20320187       0.30808331
H        6.01322581       4.53067211       5.42554566      -0.16501565      -0.27247470      -0.00080483       1.09094300      -0.99581885      -0.11824849
N        6.66807073       6.80930653       7.69606397      -0.64511603       0.14444573       0.11926001      -0.10579137       0.32217443      -0.12772345
8
Lattice="11.89686990058777 0.0 0.0 0.0 11.89686990058777 0.0 0.0 0.0 11.89686990058777" Properties=species:S:1:pos:R:3:momenta:R:3:forces:R:3 energy=-438.38442559003 free_energy=-438.38442559003 stress="-0.0017880514693997 0.00083145553027341 0.00062811079913291 0.00083145553027341 -0.00083938044799456 -0.00012587506806315 0.00062811079913291 -0.00012587506806315 0.00015492929039014" pbc="T T T"
B        5.20882216       5.18197213       4.95366577       0.90520173      -0.16716696       0.59134298       0.06486174       1.35455943      -0.38828517
H        6.75365650       5.81575891       7.57643233      -0.17360892       0.09288707      -0.36768688       0.12933309      -0.85775259      -0.12175200
H        7.49366734       7.37656232       7.87050841      -0.13727950       0.13100886      -0.11433329       0.48629573       0.20862857      -0.04630474
H        5.78062323       7.18297665       8.01082030       0.00498333      -0.19336662      -0.24540217      -0.94701230       0.33243522       0.23798652
H        5.22524032       5.70597367       3.88604960      -0.00729591       0.27347634       0.14196053       0.15464642      -0.50534875       0.16265200
H        4.40320256       5.48521030       5.70294863       0.15699787       0.02703442      -0.10861652      -1.24472443       0.27872919       0.53612462
H        6.00546807       4.52030758       5.42801834      -0.10995361      -0.32072291      -0.00665127       1.12123223      -1.01932965      -0.12522700
N        6.66473722       6.81383371       7.69906915      -0.63894294       0.15676653       0.10884845       0.23895458       0.20636837      -0.28054409
8
Lattice="11.896631785169852 0.0 0.0 0.0 11.896631785169852 0.0 0.0 0.0 11.896631785169852" Properties=species:S:1:pos:R:3:momenta:R:3:forces:R:3 energy=-438.36841998884 free_energy=-438.36841998884 stress="-0.0020354751018347 0.0009415054605554 0.00080173210174712 0.0009415054605554 -0.00086835473278993 -0.00023121145996379 0.00080173210174712 -0.00023121145996379 8.8239495205767e-05" pbc="T T T"
B        5.21280109       5.18635468       4.95846842       0.90906209      -0.10149894       0.56710538       0.20521979       1.29854688      -0.53131434
H        6.74521763       5.82421984       7.56054725      -0.16484412       0.04970962      -0.37297644       0.20702066      -0.88746594      -0.14511568
H        7.48740649       7.38812186       7.86701506      -0.11246704       0.14050527      -0.11605685       0.50647550       0.19267686      -0.04490602
H        5.77959019       7.17893119       8.00129770      -0.05164454      -0.17117028      -0.22932653      -1.35595688       0.54629958       0.37928701
H        5.22494121       5.72363308       3.89533409       0.00151621       0.24674191       0.15034470       0.20400911      -0.55100199       0.19118735
H        4.40922530       5.49184073       5.70047377       0.09231662       0.04182325      -0.07776041      -1.36836081       0.32572258       0.70034813
H        6.00132389       4.50850993       5.42971039      -0.05619432      -0.36840491      -0.01386100       1.05482905      -0.96148489      -0.17546429
N        6.66236661       6.81935547       7.70153778      -0.61766537       0.16225652       0.09190617       0.54973346       0.03702442      -0.40142733
8
Lattice="11.896398535383023 0.0 0.0 0.0 11.896398535383023 0.0 0.0 0.0 11.896398535383023" Properties=species:S:1:pos:R:3:momenta:R:3:forces:R:3 energy=-438.36742878199 free_energy=-438.36742878199 stress="-0.0020764734291097 0.00096618660505214 0.00092313403251761 0.00096618660505214 -0.00075574343659924 -0.00029740671242122 0.00092313403251761 -0.00029740671242122 6.5846930040927e-05" pbc="T T T"
B        5.21785054       5.19193919       4.96245597       0.92055543      -0.04038860       0.54022401       0.33300657       1.18238765      -0.52636087
H        6.73832184       5.83146168       7.54366610      -0.15284948       0.00862113      -0.37918961       0.26962035      -0.78110120      -0.14331056
H        7.48340269       7.40104306       7.86274278      -0.08821506       0.14856680      -0.11800194       0.47261748       0.14593796      -0.05038379
H        5.77634729       7.17712201       7.99202201      -0.12355325      -0.14077617      -0.20823044      -1.57509187       0.67785509       0.45496908
H        5.22616222       5.74086375       3.90437653       0.01268751       0.21859844       0.15958469       0.25161243      -0.57734259       0.19117735
H        4.41299584       5.50015896       5.69899869       0.02429588       0.05799363      -0.04102327      -1.39297120       0.33529060       0.78217308
H        6.00074168       4.49535547       5.43029990      -0.00799060      -0.41161821      -0.02441162       0.90392551      -0.82528138      -0.26239559
N        6.66112796       6.82579444       7.70324599      -0.58486599       0.15901273       0.07037896       0.74000778      -0.15547044      -0.47435222
8
Lattice="11.89616451460576 0.0 0.0 0.0 11.89616451460576 0.0 0.0 0.0 11.89616451460576" Properties=species:S:1:pos:R:3:momenta:R:3:forces:R:3 energy=-438.38310713591 free_energy=-438.38310713591 stress="-0.0018945579588861 0.00090039679224434 0.00097644965140298 0.00090039679224434 -0.00051636752739335 -0.00031613531381816 0.00097644965140298 -0.00031613531381816 8.725670884962e-05" pbc="T T T"
B        5.22406565       5.19858988       4.96553879       0.93744094       0.01379062       0.51722769       0.41996680       1.02163497      -0.37877878
H        6.73318210       5.83763356       7.52569909      -0.13818074      -0.02439573      -0.38465616       0.31773920      -0.56126199      -0.11311091
H        7.48163647       7.41510303       7.85758543      -0.06678449       0.15371810      -0.12034074       0.39350086       0.07407492      -0.06021196
H        5.77044268       7.17774904       7.98307833      -0.20010312      -0.10647212      -0.18537287      -1.54950484       0.70868731       0.45382917
H        5.22908240       5.75749701       3.91308619       0.02611216       0.18973516       0.16814016       0.29650749      -0.58292924       0.16251622
H        4.41452804       5.51007689       5.69862444      -0.04218744       0.07358349      -0.00253610      -1.31128611       0.30358060       0.77449818
H        6.00342173       4.48106148       5.42948866       0.03117198      -0.44652238      -0.03980291       0.69040484      -0.62386407      -0.37352882
N        6.66111888       6.83300751       7.70408869      -0.54741035       0.14661822       0.04664812       0.74557041      -0.33605686      -0.49474302
8
Lattice="11.895924081945726 0.0 0.0 0.0 11.895924081945726 0.0 0.0 0.0 11.895924081945726" Properties=species:S:1:pos:R:3:momenta:R:3:forces:R:3 energy=-438.40935555494 free_energy=-438.40935555494 stress="-0.001505389980431 0.00075405562455541 0.00095908804918703 0.00075405562455541 -0.00018145059336542 -0.00028651363400101 0.00095908804918703 -0.00028651363400101 0.00014535372592935" pbc="T T T"
B        5.23145183       5.20610516       4.96778204       0.95621227       0.05930050       0.50392373       0.44713736       0.83404559      -0.11360291
H        6.72990801       5.84310030       7.50676985      -0.12135897      -0.04466657      -0.38762358       0.35298518      -0.26536113      -0.05695898
H        7.48190842       7.42995525       7.85155709      -0.05005830       0.15473028      -0.12313275       0.28028389      -0.01565816      -0.07359198
H        5.76194366       7.18072179       7.97450266      -0.26899857      -0.07299614      -0.16418073      -1.27674668       0.64293135       0.38162909
H        5.23379700       5.77334664       3.92142142       0.04161098       0.16095479       0.17449757       0.33800064      -0.56804158       0.10823544
H        4.41401566       5.52134785       5.69936343      -0.10207442       0.08655802       0.03347673      -1.13075825       0.23323778       0.68392778
H        6.00883810       4.46596883       5.42704814       0.05887816      -0.46994382      -0.06079581       0.44148076      -0.37716337      -0.49324112
N        6.66233137       6.84079710       7.70409552      -0.51414744       0.12615523       0.02311790       0.55111237      -0.47938822      -0.46742630
8
Lattice="11.89567229454339 0.0 0.0 0.0 11.89567229454339 0.0 0.0 0.0 11.89567229454339" Properties=species:S:1:pos:R:3:momenta:R:3:forces:R:3 energy=-438.4350134556 free_energy=-438.4350134556 stress="-0.00095920386061088 0.00054883399545951 0.00088105067260209 0.00054883399545951 0.00020452351683273 -0.00021627164903112 0.00088105067260209 -0.00021627164903112 0.00022648410366312" pbc="T T T"
B        5.23991799       5.21424009       4.96939284       0.97331277       0.09512741       0.50491386       0.40952259       0.63594269       0.23074836
H        6.72849875       5.84837313       7.48719038      -0.10294341      -0.04957437      -0.38680768       0.37748257       0.05975764       0.01779505
H        7.48385709       7.44517067       7.84478493      -0.03933484       0.15091305      -0.12642291       0.14808409      -0.11318032      -0.08834975
H        5.75143965       7.18568021       7.96628099      -0.31921826      -0.04450308      -0.14753806      -0.81202173       0.50555900       0.26100419
H        5.24030949       5.78823797       3.92939130       0.05893852       0.13320108       0.17742695       0.37521217      -0.53449518       0.03333820
H        4.41181521       5.53359312       5.70114279      -0.15087226       0.09516741       0.06331584      -0.87209096       0.13261303       0.52874757
H        6.01629607       4.45050162       5.42284988       0.07397795      -0.47996939      -0.08736212       0.18367564      -0.10806641      -0.60652103
N        6.66464285       6.84893535       7.70342123      -0.49378125       0.09974712       0.00172287       0.19457086      -0.57420339      -0.40952629
8
Lattice="11.895405648144118 0.0 0.0 0.0 11.895405648144118 0.0 0.0 0.0 11.895405648144118" Properties=species:S:1:pos:R:3:momenta:R:3:forces:R:3 energy=-438.44949674436 free_energy=-438.44949674436 stress="-0.00032644814731292 0.00031246064785688 0.00076058664018096 0.00031246064785688 0.00059544985519373 -0.00011820217128963 0.00076058664018096 -0.00011820217128963 0.00031550374511364" pbc="T T T"
B        5.24928832       5.22273166       4.97068009       0.98593668       0.12102673       0.52309221       0.31418646       0.44025841       0.61012129
H        6.72885256       5.85401606       7.46739594      -0.08350099      -0.03879630      -0.38165244       0.39315223       0.37018994       0.10104759
H        7.48700345       7.46028979       7.83747598      -0.03520793       0.14219895      -0.13025669       0.01175843      -0.20849669      -0.10278306
H        5.73990872       7.19207407       7.95836413      -0.34350869      -0.02371984      -0.13718489      -0.24424438       0.33169682       0.12081911
H        5.24853995       5.80203138       3.93704151       0.07782828       0.10742973       0.17613728       0.40749694      -0.48554421      -0.05514527
H        4.40840220       5.54634695       5.70381646      -0.18537577       0.09823614       0.08437040      -0.56383217       0.01360023       0.33386449
H        6.02500900       4.43511586       5.41686809       0.07658484      -0.47615571      -0.11881832      -0.06094623       0.16180450      -0.70128798
N        6.66783127       6.85718791       7.70231003      -0.49265270       0.06987316      -0.01647780      -0.25219789      -0.62197882      -0.34062148
8
Lattice="11.89512244636443 0.0 0.0 0.0 11.89512244636443 0.0 0.0 0.0 11.89512244636443" Properties=species:S:1:pos:R:3:momenta:R:3:forces:R:3 energy=-438.44776598277 free_energy=-438.44776598277 stress="0.000318533444165 7.2031518252059e-05 0.0006181444750368 7.2031518252059e-05 0.00095081343673767 -6.9506594363373e-06 0.0006181444750368 -6.9506594363373e-06 0.00039910112860754" pbc="T T T"
B        5.25932624       5.23132064       4.97200090       0.99226724       0.13742612       0.55938194       0.17577556       0.25666015       0.98222413
H        6.73079068       5.86055578       7.44786767      -0.06353508      -0.01402005      -0.37229279       0.40154999       0.63092427       0.18215254
H        7.49080772       7.47486876       7.82987394      -0.03756385       0.12906428      -0.13466114      -0.11549098      -0.29259348      -0.11540496
H        5.72851089       7.19926792       7.95069131      -0.33936459      -0.01163905      -0.13354115       0.33407715       0.15484178      -0.01309873
H        5.25834587       5.81463368       3.94443114       0.09802781       0.08442469       0.17030442       0.43438185      -0.42558453      -0.14886619
H        4.40431473       5.55910710       5.70718496      -0.20399439       0.09526234       0.09536452      -0.23608791      -0.11122001       0.12493327
H        6.03417577       4.42025368       5.40916129       0.06783198      -0.45928613      -0.15404329      -0.27655097       0.41451180      -0.76942794
N        6.67160753       6.86533223       7.70104779      -0.51353969       0.03880348      -0.03132937      -0.71196416      -0.62966807      -0.27638565
8
Lattice="11.894822846570158 0.0 0.0 0.0 11.894822846570158 0.0 0.0 0.0 11.894822846570158" Properties=species:S:1:pos:R:3:momenta:R:3:forces:R:3 energy=-438.43194363468 free_energy=-438.43194363468 stress="0.00091073997790787 -0.00015030753177142 0.00047187265640268 -0.00015030753177142 0.0012396291778184 0.0001035743377498 0.00047187265640268 0.0001035743377498 0.00046786703604406" pbc="T T T"
B        5.26976133       5.23976635       4.97370986       0.99142920       0.14525472       0.61286272       0.01127762       0.09260792       1.31145580
H        6.73408569       5.86841039       7.42906329      -0.04344419       0.02162394      -0.35940248       0.40391000       0.81794411       0.25162845
H        7.49472457       7.48851332       7.82221971      -0.04568852       0.11238870      -0.13962304      -0.22302846      -0.35810664      -0.12495056
H        5.71838289       7.20663626       7.94321089      -0.30851846      -0.00776362      -0.13594476       0.84853261      -0.00016750      -0.12300262
H        5.26954643       5.82599742       3.95161196       0.11931791       0.06468507       0.16005262       0.45557582      -0.35977203      -0.23876558
H        4.40009828       5.57137848       5.71101850      -0.20665243       0.08635220       0.09626245       0.08451964      -0.23079805      -0.07603259
H        6.04304293       4.40630952       5.39984585       0.04951047      -0.43097847      -0.19169654      -0.45332990       0.63660762      -0.80659682
N        6.67565163       6.87316829       7.69991747      -0.55581188       0.00838598      -0.04332303      -1.12247671      -0.60384374      -0.22596967
8
Lattice="11.894508638730429 0.0 0.0 0.0 11.894508638730429 0.0 0.0 0.0 11.894508638730429" Properties=species:S:1:pos:R:3:momenta:R:3:forces:R:3 energy=-438.40954007835 free_energy=-438.40954007835 stress="0.0014007950189276 -0.00033866820684566 0.00033563181569215 -0.00033866820684566 0.0014411957549074 0.00020164281818804 0.00033563181569215 0.00020164281818804 0.00051670722445971" pbc="T T T"
B        5.28031234       5.24785473       4.97611978       0.98328696       0.14578897       0.68113583      -0.16374693      -0.04557767       1.57082736
H        6.73848668       5.87784221       7.41136542      -0.02351381       0.06415633      -0.34401895       0.40128108       0.91747043       0.30193185
H        7.49824761       7.50090011       7.81472272      -0.05842517       0.09331138      -0.14507441      -0.30308092      -0.39959990      -0.13038325
H        5.71048297       7.21363001       7.93589162      -0.25566921      -0.01060747      -0.14305906       1.24982534      -0.11838433      -0.19951617
H        5.28194345       5.83611174       3.95861702       0.14151371       0.04838593       0.14591693       0.47091790      -0.29354651      -0.31578261
H        4.39626103       5.58270473       5.71507846      -0.19444480       0.07206359       0.08797762       0.37741997      -0.33675143      -0.25269089
H        6.05094576       4.39360853       5.38907085       0.02373662      -0.39332511      -0.23037910      -0.58622127       0.81874960      -0.81139178
N        6.67964277       6.88052344       7.69916592      -0.61635297      -0.01990682      -0.05327075      -1.44282497      -0.54935927      -0.19295476
8
Lattice="11.894182877886148 0.0 0.0 0.0 11.894182877886148 0.0 0.0 0.0 11.894182877886148" Properties=species:S:1:pos:R:3:momenta:R:3:forces:R:3 energy=-438.38996552655 free_energy=-438.38996552655 stress="0.0017552656469393 -0.00048260735356951 0.00021896760625813 -0.00048260735356951 0.0015440896549512 0.00027825926371231 0.00021896760625813 0.00027825926371231 0.00054410965520544" pbc="T T T"
B        5.29070267       5.25540133       4.97947494       0.96810167       0.14053847       0.76068151      -0.33688856      -0.15216223       1.74184002
H        6.74373762       5.88893118       7.39504942      -0.00392600       0.10922503      -0.32736105       0.39464429       0.92416993       0.32758510
H        7.50094012       7.51178725       7.80754402      -0.07432851       0.07310349      -0.15086762      -0.35066595      -0.41357453      -0.13091738
H        5.70549759       7.21981262       7.92872496      -0.18717502      -0.01817049      -0.15321739       1.51014671      -0.19248347      -0.23938441
H        5.29533501       5.84498847       3.96545792       0.16443890       0.03539204       0.12878327       0.48028207      -0.23207615      -0.37164905
H        4.39324276       5.59268680       5.71913314      -0.16922270       0.05323043       0.07203482       0.62838351      -0.42350452      -0.39438718
H        6.05732967       4.38239563       5.37699925      -0.00728458      -0.34860666      -0.26870268      -0.67336810       0.95472873      -0.78441452
N        6.68327958       6.88725306       7.69898255      -0.69050125      -0.04488276      -0.06206869      -1.65041482      -0.47129634      -0.17694069
8
Lattice="11.893849476472308 0.0 0.0 0.0 11.893849476472308 0.0 0.0 0.0 11.893849476472308" Properties=species:S:1:pos:R:3:momenta:R:3:forces:R:3 energy=-438.381086842 free_energy=-438.381086842 stress="0.0019540581452454 -0.00057549926860732 0.00012801993209363 -0.00057549926860732 0.0015447857487159 0.00032734437720785 0.00012801993209363 0.00032734437720785 0.00055105079365932" pbc="T T T"
B        5.30066761       5.26225074       4.98393289       0.94611573       0.13116756       0.84702982      -0.49892287      -0.22198236       1.81352135
H        6.74958790       5.90156241       7.38026731       0.01520581       0.15236976      -0.31067694       0.38497115       0.83977611       0.32526024
H        7.50245352       7.52101723       7.80078896      -0.09172244       0.05312545      -0.15675738      -0.36342026      -0.39839151      -0.12604219
H        5.70379506       7.22487436       7.92172259      -0.11019824      -0.02821121      -0.16463216       1.61583342      -0.21970298      -0.24288107
H        5.30951968       5.85264735       3.97212689       0.18785390       0.02528145       0.10982416       0.48346547      -0.17969274      -0.39971582
H        4.39139596       5.60099126       5.72296621      -0.13322183       0.03081838       0.05027175       0.82837359      -0.48781544      -0.49503190
H        6.06175820       4.37283225       5.36379746      -0.04138521      -0.29906220      -0.30525882      -0.71480543       1.04041458      -0.72754710
N        6.68629152       6.89323839       7.69948626      -0.77257757      -0.06564297      -0.07047902      -1.73451214      -0.37667493      -0.17515344
8
Lattice="11.893512814382019 0.0 0.0 0.0 11.893512814382019 0.0 0.0 0.0 11.893512814382019" Properties=species:S:1:pos:R:3:momenta:R:3:forces:R:3 energy=-438.38681213286 free_energy=-438.38681213286 stress="0.0019877058585174 -0.00061326345612468 6.6498990763486e-05 -0.00061326345612468 0.0014464724487413 0.00034584395398244 6.6498990763486e-05 0.00034584395398244 0.00053993372057055" pbc="T T T"
B        5.30995501       5.26827382       4.98955093       0.91733074       0.11946116       0.93482291      -0.64322335      -0.25119844       1.78125611
H        6.75579507       5.91541972       7.36704016       0.03379415       0.18936547      -0.29507813       0.37303850       0.67259905       0.29398566
H        7.50253947       7.52851782       7.79450437      -0.10891823       0.03466386      -0.16238932      -0.34140684      -0.35431625      -0.11565427
H        5.70539773       7.22863684       7.91491162      -0.03215792      -0.03843392      -0.17548821       1.56130066      -0.19950279      -0.21207960
H        5.32429147       5.85910115       3.97860119       0.21138113       0.01748291       0.09037467       0.48033469      -0.13915600      -0.39564263
H        4.39097334       5.60735260       5.72637896      -0.08892478       0.00588862       0.02471018       0.97205535      -0.52801207      -0.55165706
H        6.06391415       4.36499499       5.34963218      -0.07639681      -0.24691524      -0.33852605      -0.71170258       1.07298910      -0.64354117
N        6.68844388       6.89838217       7.70071747      -0.85606480      -0.08161673      -0.07908991      -1.69017023      -0.27516679      -0.18413560
8
Lattice="11.893177385036543 0.0 0.0 0.0 11.893177385036543 0.0 0.0 0.0 11.893177385036543" Properties=species:S:1:pos:R:3:momenta:R:3:forces:R:3 energy=-438.4061182646 free_energy=-438.4061182646 stress="0.0018564595548166 -0.00059382343101049 3.615752663823e-05 -0.00059382343101049 0.0012592351282162 0.00033408627145357 3.615752663823e-05 0.00033408627145357 0.00051376221856326" pbc="T T T"
B        5.31833361       5.27337363       4.99627907       0.88172856       0.10732726       1.01810343      -0.76427930      -0.23771950       1.64636513
H        6.76213236       5.93000750       7.35525770       0.05172912       0.21640474      -0.28157648       0.35937241       0.43861941       0.23594975
H        7.50105664       7.53430454       7.78867811      -0.12420040       0.01900182      -0.16733497      -0.28752397      -0.28373034      -0.10004419
H        5.70997538       7.23105942       7.90832931       0.03924872      -0.04651276      -0.18401328       1.34717181      -0.13293682      -0.15031918
H        5.33944080       5.86435640       3.98484807       0.23449423       0.01134317       0.07191188       0.47056269      -0.11151013      -0.35826343
H        4.39212075       5.61158481       5.72919582      -0.03903560      -0.02040528      -0.00251524       1.05619923      -0.54347823      -0.56319401
H        6.06361079       4.35887284       5.33467104      -0.11014226      -0.19448030      -0.36693489      -0.66598524       1.05072324      -0.53595791
N        6.68954851       6.90261237       7.70263494      -0.93379699      -0.09272641      -0.08830310      -1.51566788      -0.17995752      -0.20154476
8
Lattice="11.89284745184026 0.0 0.0 0.0 11.89284745184026 0.0 0.0 0.0 11.89284745184026" Properties=species:S:1:pos:R:3:momenta:R:3:forces:R:3 energy=-438.43355794366 free_energy=-438.43355794366 stress="0.0015705759984475 -0.00051780817488029 3.6929910894331e-05 -0.00051780817488029 0.00099944428810973 0.00029594501855858 3.6929910894331e-05 0.00029594501855858 0.00047603766895262" pbc="T T T"
B        5.32560450       5.27749303       5.00396058       0.83982156       0.09676388       1.09104219      -0.85685993      -0.18203100       1.41580053
H        6.76839632       5.94469115       7.34467789       0.06886693       0.23057150      -0.27110194       0.34387877       0.16119130       0.15696489
H        7.49797599       7.53848663       7.78323794      -0.13600487       0.00733678      -0.17118974      -0.20686668      -0.19076596      -0.07990041
H        5.71684238       7.23224548       7.90201521       0.09629406      -0.05020474      -0.18862508       0.98163153      -0.02307513      -0.06242828
H        5.35476126       5.86841874       3.99083224       0.25663426       0.00624627       0.05597216       0.45375182      -0.09591431      -0.28973179
H        4.39487146       5.61359345       5.73127064       0.01347147      -0.04681111      -0.02917239       1.07899897      -0.53430356      -0.52986958
H        6.06079976       4.35436082       5.31907539      -0.14048382      -0.14432426      -0.38909834      -0.58057159       0.97337133      -0.40924436
N        6.68947324       6.90588682       7.70511665      -0.99858303      -0.09958156      -0.09848085      -1.21411466      -0.10741532      -0.22694566
8
Lattice="11.892526723469574 0.0 0.0 0.0 11.892526723469574 0.0 0.0 0.0 11.892526723469574" Properties=species:S:1:pos:R:3:momenta:R:3:forces:R:3 energy=-438.46115955983 free_energy=-438.46115955983 stress="0.001153138626721 -0.00038980798063543 6.6506502214266e-05 -0.00038980798063543 0.0006897845418954 0.00023890788977046 6.6506502214266e-05 0.00023890788977046 0.00043053895628072" pbc="T T T"
B        5.33161735       5.28062454       5.01234411       0.79300250       0.08974472       1.14873075      -0.91553652      -0.08806342       1.10128953
H        6.77441897       5.95876827       7.33494004       0.08502547       0.23039920      -0.26438718       0.32538683      -0.12895732       0.06699974
H        7.49337849       7.54126820       7.77805457      -0.14314328       0.00063803      -0.17370085      -0.10725270      -0.08178147      -0.05635581
H        5.72498599       7.23244290       7.89600362       0.13192440      -0.04753669      -0.18816012       0.48677145       0.12295728       0.04418676
H        5.37006642       5.87130604       3.99652310       0.27732037       0.00168088       0.04397807       0.42962920      -0.08966802      -0.19526160
H        4.39914823       5.61338744       5.73249706       0.06542600      -0.07204741      -0.05301407       1.03967614      -0.50102147      -0.45274056
H        6.05557581       4.35125852       5.30298878      -0.16546839      -0.09918430      -0.40405117      -0.45974997       0.84275409      -0.26870205
N        6.68815213       6.90819982       7.70796815      -1.04407061      -0.10367095      -0.11001331      -0.79875644      -0.07471934      -0.26150019
8
Lattice="11.892218025232463 0.0 0.0 0.0 11.892218025232463 0.0 0.0 0.0 11.892218025232463" Properties=species:S:1:pos:R:3:momenta:R:3:forces:R:3 energy=-438.48128188411 free_energy=-438.48128188411 stress="0.0006423373650914 -0.00021995730041325 0.00011994612011527 -0.00021995730041325 0.00035791479527854 0.00017347451344727 0.00011994612011527 0.00017347451344727 0.00038137713345852" pbc="T T T"
B        5.33628636       5.28281676       5.02110721       0.74343416       0.08799910       1.18756653      -0.93432892       0.03650345       0.71862265
H        6.78007902       5.97155794       7.32559969       0.09996786       0.21622349      -0.26172775       0.30142417      -0.39664212      -0.02046383
H        7.48744445       7.54293959       7.77295140      -0.14495857      -0.00049481      -0.17478794       0.00123469       0.03506281      -0.03098628
H        5.73313783       7.23203191       7.89031713       0.14082314      -0.03709872      -0.18203934      -0.09408396       0.29146280       0.15848176
H        5.38520814       5.87306204       4.00190089       0.29619944      -0.00269712       0.03705101       0.39812147      -0.08875350      -0.08243502
H        4.40477358       5.61108378       5.73282266       0.11364185      -0.09489366      -0.07189054       0.93858326      -0.44464869      -0.33371632
H        6.04817459       4.34927843       5.28653080      -0.18348926      -0.06170411      -0.41134314      -0.30970012       0.66369150      -0.12038808
N        6.68559349       6.90958601       7.71094012      -1.06559559      -0.10729931      -0.12337246      -0.30054771      -0.09508720      -0.30652379
8
Lattice="11.891923004962955 0.0 0.0 0.0 11.891923004962955 0.0 0.0 0.0 11.891923004962955" Properties=species:S:1:pos:R:3:momenta:R:3:forces:R:3 energy=-438.48947306577 free_energy=-438.48947306577 stress="9.209062759979e-05 -2.4933033375149e-05 0.00018953769308697 -2.4933033375149e-05 3.408424359145e-05 0.00011183149379925 0.00018953769308697 0.00011183149379925 0.0003328374218451" pbc="T T T"
B        5.33960332       5.28417603       5.02988655       0.69376563       0.09277913       1.20527234      -0.90697002       0.18017288       0.28692407
H        6.78530913       5.98249403       7.31618288       0.11335742       0.19020339      -0.26277078       0.26844518      -0.60746385      -0.09027715
H        7.48043682       7.54385973       7.76772236      -0.14139622       0.00407704      -0.17451105       0.10690666       0.15031681      -0.00561666
H        5.73989763       7.23149340       7.88496097       0.12063392      -0.01840933      -0.17039544      -0.69122514       0.46014482       0.26557044
H        5.40009260       5.87376894       4.00696204       0.31303213      -0.00702202       0.03588229       0.35947389      -0.08848886       0.03972996
H        4.41148618       5.60690550       5.73226593       0.15508790      -0.11425552      -0.08384002       0.77784633      -0.36689607      -0.17596594
H        6.03896393       4.34806328       5.26979949      -0.19340298      -0.03414493      -0.41099645      -0.13897380       0.44491444       0.02910029
N        6.68188391       6.91012131       7.71375275      -1.06104446      -0.11319032      -0.13907630       0.22582316      -0.17113670      -0.36155811
8
Lattice="11.89164191439733 0.0 0.0 0.0 11.89164191439733 0.0 0.0 0.0 11.89164191439733" Properties=species:S:1:pos:R:3:momenta:R:3:forces:R:3 energy=-438.48605461923 free_energy=-438.48605461923 stress="-0.00043173241819635 0.00017267881009789 0.00026537207662102 0.00017267881009789 -0.00025216608613183 6.5897603773951e-05 0.00026537207662102 6.5897603773951e-05 0.00028896218085523" pbc="T T T"
B        5.34164799       5.28486279       5.03831252       0.64689417       0.10466909       1.20078839      -0.82792040       0.32787750      -0.17201630
H        6.79009836       5.99120687       7.30625137       0.12471454       0.15602164      -0.26645361       0.22262121      -0.73453126      -0.12869617
H        7.47268115       7.54443167       7.76215617      -0.13302329       0.01399229      -0.17303465       0.19748532       0.25400015       0.01788611
H        5.74391395       7.23135430       7.87991610       0.07309215       0.00771468      -0.15416242      -1.21227547       0.59887076       0.34826751
H        5.41469288       5.87355733       4.01172582       0.32766123      -0.01120356       0.04068220       0.31436069      -0.08418100       0.16180504
H        4.41896076       5.60117377       5.73093522       0.18702527      -0.12920663      -0.08716099       0.56258720      -0.27054960       0.01531163
H        6.02842919       4.34721024       5.25288206      -0.19461115      -0.01814420      -0.40341704       0.04121531       0.19979042       0.17299072
N        6.67718726       6.90992144       7.71612496      -1.03170832      -0.12380614      -0.15755297       0.70382828      -0.28972803      -0.42268889
8
Lattice="11.891373525844388 0.0 0.0 0.0 11.891373525844388 0.0 0.0 0.0 11.891373525844388" Properties=species:S:1:pos:R:3:momenta:R:3:forces:R:3 energy=-438.47535325407 free_energy=-438.47535325407 stress="-0.00086099146984457 0.00034762334920034 0.00033677816671991 0.00034762334920034 -0.00047556617865075 4.5350729686672e-05 0.00033677816671991 4.5350729686672e-05 0.00025275707744951" pbc="T T T"
B        5.34259491       5.28508273       5.04604501       0.60579395       0.12344773       1.17414694      -0.69420742       0.46182032      -0.63431439
H        6.79449034       5.99757895       7.29546782       0.13340334       0.11828490      -0.27113638       0.16101313      -0.76408848      -0.12662254
H        7.46454295       7.54507325       7.75606393      -0.12099276       0.02840254      -0.17061112       0.26106893       0.33626432       0.03780090
H        5.74411028       7.23211133       7.87513107       0.00456145       0.03895957      -0.13505614      -1.55974280       0.67512613       0.39080414
H        5.42905744       5.87261162       4.01624246       0.33997622      -0.01494945       0.05120396       0.26395400      -0.07150365       0.27464821
H        4.42683057       5.59429420       5.72904639       0.20715463      -0.13903311      -0.08050744       0.30236511      -0.15987241       0.23199562
H        6.01715263       4.34630028       5.23587146      -0.18714170      -0.01449496      -0.38929539       0.21730746      -0.05380015       0.30495260
N        6.67173812       6.90913877       7.71780621      -0.98270120      -0.14058054      -0.17893962       1.05051744      -0.42240934      -0.48270510
8
Lattice="11.891115242609084 0.0 0.0 0.0 11.891115242609084 0.0 0.0 0.0 11.891115242609084" Properties=species:S:1:pos:R:3:momenta:R:3:forces:R:3 energy=-438.46273352079 free_energy=-438.46273352079 stress="-0.0011409105301345 0.00047659512760549 0.00039408587091118 0.00047659512760549 -0.00061915989540673 5.521229910733e-05 0.00039408587091118 5.521229910733e-05 0.00022616220855127" pbc="T T T"
B        5.34271517       5.28507251       5.05280573       0.57323980       0.14799900       1.12635664      -0.50815149       0.56323194      -1.07452557
H        6.79857750       6.00176197       7.28364756       0.13871369       0.08170651      -0.27488643       0.08305951      -0.69987643      -0.08266159
H        7.45640285       7.54618361       7.74930450      -0.10687559       0.04607924      -0.16748854       0.28931694       0.38981326       0.05304778
H        5.73991355       7.23414572       7.87051552      -0.07462585       0.07165940      -0.11530033      -1.66252200       0.66439448       0.38421879
H        5.44331241       5.87116936       4.02059972       0.34990595      -0.01777953       0.06680369       0.20980705      -0.04738259       0.37077115
H        4.43471239       5.58673605       5.72693213       0.21382994      -0.14327600      -0.06301771       0.01351225      -0.04129326       0.46152672
H        6.00578464       4.34493163       5.21888426      -0.17168483      -0.02300397      -0.36951457       0.37385968      -0.29365191       0.41972159
N        6.66583036       6.90795689       7.71860576      -0.92244523      -0.16334902      -0.20306242       1.20341227      -0.53376822      -0.53360617
8
Lattice="11.89086345386251 0.0 0.0 0.0 11.89086345386251 0.0 0.0 0.0 11.89086345386251" Properties=species:S:1:pos:R:3:momenta:R:3:forces:R:3 energy=-438.45136124135 free_energy=-438.45136124135 stress="-0.0012411884111114 0.00054474044400921 0.00043009521926912 0.00054474044400921 -0.00067498924725857 9.6574142404599e-05 0.00043009521926912 9.6574142404599e-05 0.00020913809313211" pbc="T T T"
B        5.34236343       5.28507630       5.05839951       0.55152490       0.17632387       1.05935417      -0.27988094       0.61521666      -1.46602734
H        6.80248764       6.00414348       7.27078059       0.13994409       0.05042413      -0.27582613      -0.00908734      -0.55871044      -0.00204760
H        7.44863015       7.54810976       7.74180205      -0.09254603       0.06549564      -0.16392483       0.27598679       0.40856870       0.06323528
H        5.73140379       7.23764803       7.86593939      -0.15202942       0.10141438      -0.09727198      -1.50015332       0.55904629       0.32950852
H        5.45765082       5.86950911       4.02492406       0.35738909      -0.01909400       0.08652109       0.15387269      -0.00937611       0.44339110
H        4.44223330       5.57899925       5.72503100       0.20633761      -0.14181153      -0.03451540      -0.28127718       0.07696453       0.68721349
H        5.99499839       4.34275370       5.20207107      -0.14961143      -0.04236426      -0.34504026       0.49634395      -0.49710863       0.51410514
N        6.65979611       6.90657746       7.71841153      -0.86095566      -0.19035520      -0.22936273       1.14609784      -0.59329216      -0.57079045
8
Lattice="11.890614028237406 0.0 0.0 0.0 11.890614028237406 0.0 0.0 0.0 11.890614028237406" Properties=species:S:1:pos:R:3:momenta:R:3:forces:R:3 energy=-438.44107251212 free_energy=-438.44107251212 stress="-0.0011629698270822 0.00054763069089608 0.00044023529050486 0.00054763069089608 -0.00064563235995247 0.00016605603823284 0.00044023529050486 0.00016605603823284 0.00020098629877374" pbc="T T T"
B        5.34195819       5.28532442       5.06272539       0.54213818       0.20572815       0.97613919      -0.02889121       0.60570417      -1.78237237
H        6.80637048       6.00528809       7.25702865       0.13653775       0.02747599      -0.27242116      -0.11051473      -0.36770504       0.10379335
H        7.44155067       7.55111326       7.73355338      -0.08004189       0.08490804      -0.16013350       0.22057488       0.39064233       0.06875836
H        5.71934382       7.24258223       7.86124394      -0.21575587       0.12397299      -0.08300491      -1.11351650       0.37287210       0.23769461
H        5.47231704       5.86793949       4.02937009       0.36240762      -0.01818904       0.10910154       0.09833290       0.04349922       0.48789677
H        4.44906335       5.57157903       5.72385637       0.18514888      -0.13491723       0.00430679      -0.55268567       0.18496052       0.88801167
H        5.98544116       4.33950077       5.18561921      -0.12287303      -0.07026524      -0.31685472       0.57263124      -0.64328878       0.58714908
N        6.65398662       6.90520807       7.71719710      -0.80752254      -0.21868538      -0.25719864       0.91528099      -0.58561051      -0.59388521
8
Lattice="11.890362898287442 0.0 0.0 0.0 11.890362898287442 0.0 0.0 0.0 11.890362898287442" Properties=species:S:1:pos:R:3:momenta:R:3:forces:R:3 energy=-438.43000233492 free_energy=-438.43000233492 stress="-0.0009334153880035 0.00049095385687786 0.0004220115306351 0.00049095385687786 -0.00054259791230232 0.00025756724236735 0.0004220115306351 0.00025756724236735 0.00020082665096669" pbc="T T T"
B        5.34194384       5.28600852       5.06577472       0.54542540       0.23310663       0.88088476       0.21708221       0.52988472      -1.99958404
H        6.81037516       6.00585111       7.24269035       0.12820905       0.01449377      -0.26377378      -0.21463160      -0.15705084       0.22060118
H        7.43541237       7.55534420       7.72462122      -0.07127527       0.10259544      -0.15629712       0.12792964       0.33806602       0.07063067
H        5.70504705       7.24869688       7.85626019      -0.25700659       0.13616050      -0.07385489      -0.58656974       0.13562412       0.12560587
H        5.48757796       5.86677944       4.03410271       0.36504598      -0.01434246       0.13313328       0.04557140       0.11112445       0.50163346
H        4.45495053       5.56492081       5.72393970       0.15221926      -0.12335009       0.05169718      -0.76854010       0.27257298       1.04103130
H        5.97767249       4.33501870       5.16974373      -0.09387985      -0.10353741      -0.28591874       0.59568770      -0.71741928       0.64010206
N        6.64874503       6.90404263       7.71501441      -0.76871875      -0.24510460      -0.28597428       0.58389920      -0.51200228      -0.60587993
8
Lattice="11.890106560791656 0.0 0.0 0.0 11.890106560791656 0.0 0.0 0.0 11.890106560791656" Properties=species:S:1:pos:R:3:momenta:R:3:forces:R:3 energy=-438.4171313388 free_energy=-438.4171313388 stress="-0.00059498242928352 0.00038723813616167 0.0003744897045895 0.00038723813616167 -0.00038398214065625 0.00036354402422643 0.0003744897045895 0.00036354402422643 0.0002081712565281" pbc="T T T"
B        5.34274142       5.28726127       5.06761986       0.56037323       0.25535384       0.77886090       0.42677647       0.39126585      -2.09943054
H        6.81462283       6.00648775       7.22814923       0.11501263       0.01170174      -0.24970682      -0.31431749       0.04526615       0.33414025
H        7.43035314       7.56082738       7.71511909      -0.06780998       0.11704356      -0.15255448       0.00789472       0.25679415       0.07029749
H        5.69013279       7.25557697       7.85083173      -0.27141693       0.13639569      -0.07035648      -0.01581537      -0.11750711       0.01054266
H        5.50368678       5.86633859       4.03927483       0.36553552      -0.00686564       0.15714539      -0.00209420       0.19217287       0.48412369
H        4.45975342       5.55937656       5.72576027       0.11099121      -0.10832119       0.10485647      -0.89964447       0.33142173       1.12535333
H        5.97210405       4.32927918       5.15467227      -0.06522399      -0.13854102      -0.25312118       0.56502760      -0.71365836       0.67568137
N        6.64437525       6.90324179       7.71197635      -0.74746264      -0.26675267      -0.31529914       0.23190910      -0.38521320      -0.61049207
8
Lattice="11.88984241398517 0.0 0.0 0.0 11.88984241398517 0.0 0.0 0.0 11.88984241398517" Properties=species:S:1:pos:R:3:momenta:R:3:forces:R:3 energy=-438.40350400769 free_energy=-438.40350400769 stress="-0.00019496382594319 0.00025218420460354 0.00029855170523981 0.00025218420460354 -0.00019166444316703 0.00047579300142908 0.00029855170523981 0.00047579300142908 0.00022294822765565" pbc="T T T"
B        5.34469670       5.28914390       5.06839833       0.58460185       0.26973878       0.67600869       0.57256336       0.20060147      -2.07316894
H        6.81917806       6.00777412       7.21381941       0.09733303       0.01811002      -0.23069832      -0.40300000       0.21679413       0.43224259
H        7.42637835       7.56746374       7.70519417      -0.07065455       0.12711562      -0.14898584      -0.12617228       0.15587957       0.06924486
H        5.67625118       7.26271429       7.84483522      -0.25900501       0.12471222      -0.07229873       0.51576091      -0.35542168      -0.09366160
H        5.52084425       5.86690106       4.04500720       0.36423596       0.00484258       0.17972173      -0.04267242       0.28412872       0.43724441
H        4.46346406       5.55517171       5.72967705       0.06606839      -0.09135555       0.16016052      -0.92659396       0.35685518       1.12664802
H        5.96895342       4.32237867       5.14063114      -0.03935466      -0.17162532      -0.21921339       0.48666434      -0.63595862       0.69711635
N        6.64111003       6.90291736       7.70823610      -0.74324231      -0.28153113      -0.34496665      -0.07732071      -0.22248711      -0.60982380
8
Lattice="11.889568914535593 0.0 0.0 0.0 11.889568914535593 0.0 0.0 0.0 11.889568914535593" Properties=species:S:1:pos:R:3:momenta:R:3:forces:R:3 energy=-438.39157123417 free_energy=-438.39157123417 stress="0.00022077251178673 0.00010207248041141 0.00019769239089017 0.00010207248041141 1.1275794764088e-05 0.00058578442136532 0.00019769239089017 0.00058578442136532 0.00024511297595891" pbc="T T T"
B        5.34803625       5.29164304       5.06829602       0.61464305       0.27415274       0.57828931       0.63745040      -0.02661089      -1.92449594
H        6.82402552       6.01014935       7.20009980       0.07582177       0.03181683      -0.20771596      -0.47528655       0.34170864       0.50580032
H        7.42335452       7.57504600       7.69501289      -0.08013594       0.13215227      -0.14559772      -0.25937075       0.04619611       0.06871610
H        5.66485129       7.26957423       7.83819455      -0.22315663       0.10241141      -0.07892322       0.95034673      -0.55581181      -0.17794765
H        5.53916440       5.86871473       4.05137437       0.36156145       0.02124430       0.19959644      -0.07480531       0.38328084       0.36537263
H        4.46621439       5.55238956       5.73587755       0.02259287      -0.07406459       0.21356315      -0.84498979       0.34914766       1.04093807
H        5.96822138       4.31452292       5.12783622      -0.01829057      -0.19955040      -0.18476738       0.37162943      -0.49669677       0.70728470
N        6.63908420       6.90312394       7.70396846      -0.75306547      -0.28815965      -0.37482200      -0.30607459      -0.04072719      -0.60380000
8
Lattice="11.889285595945806 0.0 0.0 0.0 11.889285595945806 0.0 0.0 0.0 11.889285595945806" Properties=species:S:1:pos:R:3:momenta:R:3:forces:R:3 energy=-438.38371409225 free_energy=-438.38371409225 stress="0.00061029325387758 -4.7613643276599e-05 7.85412171959e-05 -4.7613643276599e-05 0.00020276711036017 0.00068479720407406 7.85412171959e-05 0.00068479720407406 0.000274255096846" pbc="T T T"
B        5.35284089       5.29467554       5.06753087       0.64645952       0.26721678       0.49101535       0.61898773      -0.27283943      -1.67035363
H        6.82905885       6.01388057       7.18734028       0.05132699       0.05032018      -0.18203752      -0.52719279       0.41048198       0.54891864
H        7.42102221       7.58328444       7.68475039      -0.09586598       0.13199832      -0.14232011      -0.37719762      -0.06094300       0.06953885
H        5.65702677       7.27564790       7.83088739      -0.16937012       0.07161011      -0.08913471       1.25433853      -0.70521712      -0.23743767
H        5.55865151       5.87198463       4.05839821       0.35789236       0.04260290       0.21573555      -0.09804115       0.48471162       0.27543420
H        4.46826339       5.55097482       5.74435191      -0.01449880      -0.05790702       0.26107732      -0.66675422       0.31333285       0.87591499
H        5.96969579       4.30600115       5.11648718      -0.00344450      -0.21977723      -0.15019075       0.23366410      -0.31374847       0.70820509
N        6.63831907       6.90385803       7.69935532      -0.77253874      -0.28605887      -0.40461299      -0.43910636       0.14520318      -0.59098234
8
Lattice="11.888992997172979 0.0 0.0 0.0 11.888992997172979 0.0 0.0 0.0 11.888992997172979" Properties=species:S:1:pos:R:3:momenta:R:3:forces:R:3 energy=-438.38114715454 free_energy=-438.38114715454 stress="0.00093655363705188 -0.00018292956417904 -4.9546494299156e-05 -0.00018292956417904 0.00036355122543832 0.000764259108588 -4.9546494299156e-05 0.000764259108588 0.00030950725244391" pbc="T T T"
B        5.35904017       5.29809896       5.06633635       0.67607976       0.24832078       0.41833101       0.52864061      -0.52048165      -1.33894412
H        6.83408532       6.01904705       7.17581713       0.02484504       0.07078297      -0.15510935      -0.55612338       0.41898335       0.55862755
H        7.41902698       7.59183854       7.67458132      -0.11678808       0.12698276      -0.13902124      -0.46701829      -0.15493413       0.07206838
H        5.65343556       7.28048944       7.82294474      -0.10427652       0.03488003      -0.10165620       1.41141143      -0.79669050      -0.27012991
H        5.57919267       5.87686817       4.06604825       0.35351576       0.06891080       0.22742582      -0.11298404       0.58234497       0.17674075
H        4.46996601       5.55075287       5.75489376      -0.04114636      -0.04401076       0.29923348      -0.41692286       0.25773484       0.64920130
H        5.97297919       4.29715446       5.10676085       0.00442674      -0.23061640      -0.11579821       0.08685592      -0.10709297       0.70096496
N        6.63872150       6.90506284       7.69457372      -0.79670371      -0.27523174      -0.43392425      -0.47521619       0.32209284      -0.56986459
8
Lattice="11.88869253299821 0.0 0.0 0.0 11.88869253299821 0.0 0.0 0.0 11.88869253299821" Properties=species:S:1:pos:R:3:momenta:R:3:forces:R:3 energy=-438.38360263482 free_energy=-438.38360263482 stress="0.0011686281917694 -0.00029205290933134 -0.00017584193915399 -0.00029205290933134 0.00047868449410249 0.00081650440042425 -0.00017584193915399 0.00081650440042425 0.00034973772900758" pbc="T T T"
B        5.36642715       5.30172552       5.06494293       0.70016888       0.21761812       0.36285779       0.38741443      -0.75279900      -0.96535451
H        6.83884578       6.02553922       7.16571343      -0.00251375       0.09022236      -0.12851246      -0.56080450       0.36782479       0.53462018
H        7.41696326       7.60035093       7.66466904      -0.14123038       0.11791760      -0.13557314      -0.51913074      -0.22674313       0.07620855
H        5.65427270       7.28374335       7.81444434      -0.03512499      -0.00490875      -0.11515930       1.41552840      -0.82732530      -0.27578418
H        5.60056664       5.88346967       4.07424819       0.34860449       0.09980772       0.23439807      -0.12133850       0.66919159       0.08034121
H        4.47172928       5.55145905       5.76712398      -0.05460557      -0.03307683       0.32544771      -0.12744286       0.19185361       0.38437475
H        5.97753351       4.28834160       5.09879985       0.00520003      -0.23124653      -0.08188018      -0.05611368       0.10398638       0.68597109
N        6.64009728       6.90663644       7.68978390      -0.82055063      -0.25628874      -0.46209281      -0.41926856       0.47731981      -0.53996078
8
Lattice="11.888386315556618 0.0 0.0 0.0 11.888386315556618 0.0 0.0 0.0 11.888386315556618" Properties=species:S:1:pos:R:3:momenta:R:3:forces:R:3 energy=-438.38952376655 free_energy=-438.38952376655 stress="0.001283603905945 -0.00036602148299407 -0.00028999189052689 -0.00036602148299407 0.00053853267219866 0.00083572805092189 -0.00028999189052689 0.00083572805092189 0.00039414779432765" pbc="T T T"
B        5.37468602       5.30533611       5.06355742       0.71650312       0.17610720       0.32561965       0.22022836      -0.95438247      -0.58585486
H        6.84304287       6.03306713       7.15710006      -0.02957789       0.10580799      -0.10378056      -0.54146370       0.26168137       0.47865877
H        7.41442424       7.60848135       7.65515023      -0.16715889       0.10596984      -0.13185896      -0.52700785      -0.26938068       0.08108789
H        5.65927141       7.28516653       7.80549747       0.03064627      -0.04478852      -0.12830665       1.26651866      -0.79640156      -0.25556371
H        5.62246358       5.89183181       4.08288885       0.34325110       0.13455679       0.23691275      -0.12579505       0.73786033      -0.00188858
H        4.47396207       5.55277067       5.78053057      -0.05367646      -0.02538581       0.33827021       0.16961374       0.12443746       0.10603825
H        5.98273315       4.27990497       5.09269798      -0.00070839      -0.22174271      -0.04878996      -0.18528209       0.30286417       0.66317860
N        6.64217360       6.90843967       7.68511646      -0.83932964      -0.23044338      -0.48851679      -0.27744640       0.59806408      -0.50133656
8
Lattice="11.888076927730852 0.0 0.0 0.0 11.888076927730852 0.0 0.0 0.0 11.888076927730852" Properties=species:S:1:pos:R:3:momenta:R:3:forces:R:3 energy=-438.39646772193 free_energy=-438.39646772193 stress="0.0012695365598217 -0.00039954193207124 -0.00038405387070562 -0.00039954193207124 0.00054008742968608 0.0008190761995211 -0.00038405387070562 0.0008190761995211 0.00044216523327874" pbc="T T T"
B        5.38343105       5.30869817       5.06234175       0.72414493       0.12558855       0.30605960       0.05042334      -1.11149013      -0.23327630
H        6.84637484       6.04118870       7.14992721      -0.05517625       0.11502864      -0.08235894      -0.49964285       0.11016512       0.39574688
H        7.41104690       7.61593640       7.64611927      -0.19228446       0.09265106      -0.12783517      -0.48820843      -0.27844758       0.08588630
H        5.66773458       7.28464349       7.79623335       0.08560190      -0.08175498      -0.13984206       0.97036113      -0.70603198      -0.21154324
H        5.64451538       5.90193129       4.09184357       0.33745803       0.17203199       0.23583643      -0.13000402       0.78116577      -0.05915351
H        4.47703003       5.55434090       5.79451643      -0.03860415      -0.02085627       0.33742822       0.44713271       0.06223724      -0.16376178
H        5.98792227       4.27214053       5.08848301      -0.01244896      -0.20294796      -0.01693040      -0.29319405       0.47636027       0.63270678
N        6.64463031       6.91030766       7.68065790      -0.84873462      -0.19962225      -0.51269227      -0.05672222       0.67196032      -0.45672999
8
Lattice="11.887767141726714 0.0 0.0 0.0 11.887767141726714 0.0 0.0 0.0 11.887767141726714" Properties=species:S:1:pos:R:3:momenta:R:3:forces:R:3 energy=-438.40165175132 free_energy=-438.40165175132 stress="0.0011273299988417 -0.00039180555831432 -0.00045323724814825 -0.00039180555831432 0.00048651735038559 0.00076713179463021 -0.00045323724814825 0.00076713179463021 0.00049364182035196" pbc="T T T"
B        5.39224180       5.31157882       5.06139391       0.72338456       0.06856701       0.30226905      -0.10298271      -1.21274356       0.06686228
H        6.84856174       6.04934084       7.14401988      -0.07824397       0.11594927      -0.06544808      -0.43841273      -0.07328805       0.29295379
H        7.40654842       7.62249374       7.63761153      -0.21428974       0.07967674      -0.12355391      -0.40355538      -0.25192352       0.08922677
H        5.67857370       7.28219361       7.78678065       0.12276965      -0.11296355      -0.14867969       0.54165369      -0.56172458      -0.14750354
H        5.66632032       5.91367133       4.10098649       0.33114205       0.21079420       0.23257791      -0.13766935       0.79308494      -0.08306224
H        4.48121872       5.55582438       5.80844431      -0.01082628      -0.01913221       0.32371436       0.68531168       0.00972906      -0.40788432
H        5.99246189       4.26527340       5.08610369      -0.02886118      -0.17634206       0.01327369      -0.37513806       0.61489993       0.59480009
N        6.64712712       6.91205702       7.67643792      -0.84510499      -0.16640211      -0.53433555       0.23187791       0.68859327      -0.40896781
8
Lattice="11.887459623569754 0.0 0.0 0.0 11.887459623569754 0.0 0.0 0.0 11.887459623569754" Properties=species:S:1:pos:R:3:momenta:R:3:forces:R:3 energy=-438.4028615019 free_energy=-438.4028615019 stress="0.00087378054589227 -0.00034715177288075 -0.00049633272607085 -0.00034715177288075 0.0003877612525233 0.0006845035684353 -0.00049633272607085 0.0006845035684353 0.00054841009855691" pbc="T T T"
B        5.40069518       5.31375783       5.06073629       0.71549306       0.00807083       0.31135393      -0.22650647      -1.24982928       0.29819962
H        6.84936383       6.05688448       7.13908878      -0.09792784       0.10745504      -0.05383176      -0.36246507      -0.27077567       0.18013163
H        7.40074822       7.62801764       7.62959276      -0.23105669       0.06879872      -0.11916173      -0.27802627      -0.19106054       0.08960995
H        5.69037381       7.27796654       7.77725050       0.13633989      -0.13602677      -0.15400562       0.01087600      -0.37531022      -0.06940629
H        5.68746509       5.92687974       4.11020912       0.32413032       0.24920205       0.22891875      -0.15192824       0.76966196      -0.06939526
H        4.48671140       5.55689843       5.82167701       0.02739153      -0.01968323       0.29874246       0.87152488      -0.03059213      -0.61435301
H        5.99576863       4.25944198       5.08542434      -0.04859746      -0.14385952       0.04142199      -0.42847312       0.71196016       0.54994611
N        6.64932796       6.91349404       7.67242216      -0.82578210      -0.13379516      -0.55344962       0.56703571       0.64277930      -0.36142341
8
Lattice="11.88715660537743 0.0 0.0 0.0 11.88715660537743 0.0 0.0 0.0 11.88715660537743" Properties=species:S:1:pos:R:3:momenta:R:3:forces:R:3 energy=-438.39971045603 free_energy=-438.39971045603 stress="0.00054254627224879 -0.0002752132523513 -0.00051523943117242 -0.0002752132523513 0.0002596178678576 0.00057937870529368 -0.00051523943117242 0.00057937870529368 0.00060578113992964" pbc="T T T"
B        5.40839096       5.31503870       5.06031372       0.70238638      -0.05257939       0.32986479      -0.31202296      -1.21821589       0.45349802
H        6.84859084       6.06315817       7.13475613      -0.11366712       0.08942059      -0.04774536      -0.27776436      -0.46108572       0.06921019
H        7.39357545       7.63246549       7.62195647      -0.24086286       0.06162566      -0.11488843      -0.12069858      -0.10058765       0.08556651
H        5.70149157       7.27222094       7.76772246       0.12261398      -0.14939417      -0.15538735      -0.56920216      -0.16716835       0.01427225
H        5.70754141       5.94131158       4.11943414       0.31616589       0.28554413       0.22676886      -0.17487303       0.70963739      -0.01877613
H        4.49358116       5.55727843       5.83361033       0.07331265      -0.02188886       0.26466102       0.99898035      -0.05763971      -0.77564717
H        5.99734241       4.25469111       5.08622919      -0.07023018      -0.10770716       0.06717528      -0.45215352       0.76353992       0.49886762
N        6.65091872       6.91442308       7.66851287      -0.78970469      -0.10485751      -0.57028964       0.91044517       0.53813664      -0.31705340
8
Lattice="11.886859584587354 0.0 0.0 0.0 11.886859584587354 0.0 0.0 0.0 11.886859584587354" Properties=species:S:1:pos:R:3:momenta:R:3:forces:R:3 energy=-438.39469001927 free_energy=-438.39469001927 stress="0.00018256088164234 -0.00018973222053586 -0.00051382477995045 -0.00018973222053586 0.00012214986491962 0.00046249891159196 -0.00051382477995045 0.00046249891159196 0.00066403567522904" pbc="T T T"
B        5.41497185       5.31525925       5.06000269       0.68626822      -0.11000292       0.35419438      -0.35579602      -1.11751819       0.53332478
H        6.84610497       6.06753843       7.13059578      -0.12523084       0.06278946      -0.04679877      -0.19097805      -0.62163225      -0.02697720
H        7.38506474       7.63588572       7.61453154      -0.24255140       0.05942536      -0.11102190       0.05515514       0.01079869       0.07586044
H        5.71020104       7.26528422       7.75823481       0.08110833      -0.15275902      -0.15286257      -1.12129057       0.03350750       0.09297212
H        5.72615903       5.95665790       4.12862478       0.30691962       0.31815949       0.22789311      -0.20710403       0.61474049       0.06342113
H        4.50179484       5.55673030       5.84370095       0.12400101      -0.02509471       0.22389165       1.06482118      -0.07111721      -0.88744390
H        5.99678645       4.25097387       5.08823658      -0.09232553      -0.07020931       0.09026859      -0.44627049       0.76760036       0.44247253
N        6.65161910       6.91465713       7.66455902      -0.73815795      -0.08215387      -0.58524977       1.20427652       0.38972042      -0.27788653
8
Lattice="11.886569093680706 0.0 0.0 0.0 11.886569093680706 0.0 0.0 0.0 11.886569093680706" Properties=species:S:1:pos:R:3:momenta:R:3:forces:R:3 energy=-438.39295236388 free_energy=-438.39295236388 stress="-0.00014855285717231 -0.00010554543448439 -0.00049632472814284 -0.00010554543448439 -3.0987495756796e-06 0.00034544136308209 -0.00049632472814284 0.00034544136308209 0.00072001159261663" pbc="T T T"
B        5.42014097       5.31430339       5.05963031       0.66929128      -0.16094200       0.38085099      -0.35719762      -0.95161620       0.54385221
H        6.84182305       6.06950365       7.12618373      -0.13269377       0.02953263      -0.04997800      -0.10855802      -0.73148349      -0.09650301
H        7.37534419       7.63840795       7.60709990      -0.23565922       0.06292181      -0.10786653       0.23249214       0.13028366       0.05977439
H        5.71489348       7.25749571       7.74878015       0.01547246      -0.14733739      -0.14695737      -1.55223508       0.19286815       0.15580862
H        5.74295806       5.97256005       4.13778894       0.29600099       0.34550869       0.23365500      -0.24751942       0.48958609       0.16800672
H        4.51122491       5.55508314       5.85149178       0.17646254      -0.02863802       0.17893602       1.06848380      -0.07104044      -0.94737363
H        5.99382438       4.24816114       5.09112069      -0.11347773      -0.03369666       0.11049379      -0.41181294       0.72378773       0.38180987
N        6.65119064       6.91403234       7.66037539      -0.67536008      -0.06720979      -0.59869224       1.37861495       0.22302106      -0.24526413
8
Lattice="11.886284609803619 0.0 0.0 0.0 11.886284609803619 0.0 0.0 0.0 11.886284609803619" Properties=species:S:1:pos:R:3:momenta:R:3:forces:R:3 energy=-438.40007142078 free_energy=-438.40007142078 stress="-0.00039648204728432 -3.4023417419935e-05 -0.00046568129351311 -3.4023417419935e-05 -9.6781027900303e-05 0.00023859597400147 -0.00046568129351311 0.00023859597400147 0.00076893419756623" pbc="T T T"
B        5.42368024       5.31211608       5.05899950       0.65330302      -0.20237854       0.40657601      -0.31750236      -0.72861835       0.49447450
H        6.83572357       6.06869811       7.12115218      -0.13635465      -0.00751248      -0.05573169      -0.03570647      -0.77492724      -0.13046621
H        7.36461964       7.64022690       7.59942167      -0.22051224       0.07210039      -0.10568982       0.39176388       0.24151232       0.03739172
H        5.71431726       7.24914472       7.73930738      -0.06628036      -0.13583071      -0.13859470      -1.77540513       0.28154538       0.19441194
H        5.75762467       5.98862924       4.14697723       0.28297397       0.36619417       0.24481776      -0.29351964       0.34124860       0.28344924
H        4.52166497       5.55224520       5.85663739       0.22765076      -0.03184930       0.13228947       1.01068243      -0.05746650      -0.95414584
H        5.98831942       4.24605771       5.09453657      -0.13231273      -0.00044626       0.12765593      -0.35067756       0.63352607       0.31804440
N        6.64944538       6.91242814       7.65576773      -0.60843969      -0.06015589      -0.61079638       1.37158365       0.06781324      -0.22079616
8
Lattice="11.886004663065053 0.0 0.0 0.0 11.886004663065053 0.0 0.0 0.0 11.886004663065053" Properties=species:S:1:pos:R:3:momenta:R:3:forces:R:3 energy=-438.41850411607 free_energy=-438.41850411607 stress="-0.00052527002031569 2.1016137442788e-05 -0.00042283696834776 2.1016137442788e-05 -0.00014576322534073 0.00014877789030526 -0.00042283696834776 0.00014877789030526 0.00080468514991547" pbc="T T T"
B        5.42547302       5.30872176       5.05791508       0.63976885      -0.23165744       0.42840432      -0.23924733      -0.46122975       0.39520859
H        6.82786176       6.06499072       7.11523747      -0.13666531      -0.04488434      -0.06215994       0.02459987      -0.74527757      -0.12544881
H        7.35315640       7.64158116       7.59126269      -0.19831620       0.08604253      -0.10468567       0.51412305       0.32718397       0.00976918
H        5.70781352       7.24042236       7.72972962      -0.15265319      -0.12194718      -0.12893367      -1.74151182       0.28607003       0.20562420
H        5.76991569       6.00447391       4.15627505       0.26745331       0.37902876       0.26144151      -0.34168816       0.17818407       0.39813013
H        4.53284826       5.54822416       5.85893140       0.27442941      -0.03403824       0.08648871       0.89370919      -0.03044563      -0.90753172
H        5.98029764       4.24442350       5.09814427      -0.14748272       0.02734640       0.14155669      -0.26607983       0.50116714       0.25258929
N        6.64626008       6.90979197       7.65055834      -0.54652472      -0.05978706      -0.62155729       1.15606605      -0.05183472      -0.20655815
8
Lattice="11.885727169579855 0.0 0.0 0.0 11.885727169579855 0.0 0.0 0.0 11.885727169579855" Properties=species:S:1:pos:R:3:momenta:R:3:forces:R:3 energy=-438.44512166025 free_energy=-438.44512166025 stress="-0.00052456271434658 6.6130403827088e-05 -0.00036470111687832 6.6130403827088e-05 -0.00014357267321303 8.1530653788674e-05 -0.00036470111687832 8.1530653788674e-05 0.00082021686526921" pbc="T T T"
B        5.42552922       5.30424259       5.05620638       0.63006560      -0.24673605       0.44384443      -0.12452784      -0.16376568       0.25911899
H        6.81838736       6.05851859       7.10831125      -0.13414801      -0.07896970      -0.06730055       0.07126398      -0.64359318      -0.08152531
H        7.34125543       7.64272780       7.58241776      -0.17118251       0.10296908      -0.10496917       0.58081320       0.36766185      -0.02105055
H        5.69547385       7.23140744       7.71993598      -0.23091818      -0.10958481      -0.11913711      -1.45359356       0.21218056       0.19248133
H        5.77969483       6.01973980       4.16579119       0.24925849       0.38322873       0.28297788      -0.38704589       0.01130455       0.49845881
H        4.54447174       5.54314821       5.85833372       0.31366476      -0.03452152       0.04415991       0.71871605       0.00985616      -0.80723566
H        5.96996909       4.24299937       5.10163115      -0.15780439       0.04768035       0.15201868      -0.16183730       0.33096419       0.18621036
N        6.64159673       6.90616425       7.64460641      -0.49894896      -0.06398089      -0.63108383       0.75512801      -0.12170563      -0.20880873
8
Lattice="11.88544983709976 0.0 0.0 0.0 11.88544983709976 0.0 0.0 0.0 11.88544983709976" Properties=species:S:1:pos:R:3:momenta:R:3:forces:R:3 energy=-438.47199712832 free_energy=-438.47199712832 stress="-0.00041655819124789 0.00011239516302657 -0.00028957561036798 0.00011239516302657 -9.4325765011464e-05 3.4755476362682e-05 -0.00028957561036798 3.4755476362682e-05 0.00080937861853274" pbc="T T T"
B        5.42400402       5.29890629       5.05374015       0.62571244      -0.24653869       0.45113190       0.02227950       0.14311066       0.09513161
H        6.80755806       6.04969172       7.10038451      -0.12938216      -0.10649466      -0.06943008       0.10639360      -0.48467075      -0.00787307
H        7.32922537       7.64391541       7.57272314      -0.14201777       0.12038575      -0.10658097       0.58500087       0.35387592      -0.05242314
H        5.67814324       7.22209203       7.70980556      -0.28993421      -0.10192270      -0.11018280      -0.97654871       0.08694113       0.16264210
H        5.78696783       6.03415379       4.17564427       0.22858340       0.37868014       0.30842455      -0.42602744      -0.15077908       0.57671006
H        4.55622447       5.53727633       5.85498401       0.34249031      -0.03265189       0.00797675       0.49277692       0.06275716      -0.65665388
H        5.95773129       4.24153443       5.10472705      -0.16240284       0.05893951       0.15898636      -0.04460310       0.13496723       0.12055139
N        6.63552342       6.90169241       7.63781606      -0.47308113      -0.07033361      -0.63994694       0.23903584      -0.14443263      -0.22861029
8
Lattice="11.885170724384087 0.0 0.0 0.0 11.885170724384087 0.0 0.0 0.0 11.885170724384087" Properties=species:S:1:pos:R:3:momenta:R:3:forces:R:3 energy=-438.490144436 free_energy=-438.490144436 stress="-0.00023975648755608 0.00017214596001994 -0.00019499272122388 0.00017214596001994 -6.848402749892e-06 6.3837763369726e-06 -0.00019499272122388 6.3837763369726e-06 0.00076765711950068" pbc="T T T"
B        5.42120149       5.29304099       5.05042544       0.62835984      -0.23118535       0.44936143       0.19633140       0.43880500      -0.08418181
H        6.79574165       6.03915972       7.09158873      -0.12292439      -0.12504520      -0.06732466       0.13299252      -0.28786944       0.08494981
H        7.31735727       7.64535827       7.56206151      -0.11408237       0.13546741      -0.10948058       0.52582907       0.28139039      -0.08157607
H        5.65726724       7.21244035       7.69922353      -0.32250168      -0.10075386      -0.10270276      -0.40066706      -0.05739419       0.12533369
H        5.79190379       6.04756039       4.18594720       0.20599124       0.36599928       0.33650262      -0.45437289      -0.29854353       0.62484656
H        4.56781346       5.53099536       5.84919760       0.35859177      -0.02786571      -0.01957099       0.22375823       0.12670558      -0.46110282
H        5.94415214       4.23981246       5.10721327      -0.16085493       0.06013730       0.16255877       0.07826853      -0.07424261       0.05635110
N        6.62822850       6.89663075       7.63013564      -0.47262226      -0.07671778      -0.64919013      -0.30418534      -0.12855221      -0.26698988
8
Lattice="11.884888521240516 0.0 0.0 0.0 11.884888521240516 0.0 0.0 0.0 11.884888521240516" Properties=species:S:1:pos:R:3:momenta:R:3:forces:R:3 energy=-438.49367352783 free_energy=-438.49367352783 stress="-3.846513154214e-05 0.00025186762486432 -8.1537215523502e-05 0.00025186762486432 0.00010611742703472 -7.4181512045601e-06 -8.1537215523502e-05 -7.4181512045601e-06 0.00069386901884877" pbc="T T T"
B        5.41755950       5.28705466       5.04621246       0.63954060      -0.20199750       0.43848317       0.38983322       0.70161538      -0.26456802
H        6.78340624       6.02774397       7.08214246      -0.11520904      -0.13338566      -0.06039556       0.15480011      -0.07644658       0.18427172
H        7.30590896       7.64721625       7.55036211      -0.09040973       0.14553594      -0.11353971       0.41272985       0.15630465      -0.10619855
H        5.63464434       7.20245206       7.68809721      -0.32622101      -0.10634126      -0.09692753       0.18221156      -0.19140589       0.08864654
H        5.79483329       6.05993672       4.19679132       0.18229494       0.34639098       0.36577069      -0.46861209      -0.42394411       0.63799023
H        4.57897956       5.52480017       5.84144352       0.36039792      -0.01973271      -0.03646039      -0.07539628       0.19870783      -0.23071698
H        5.92993268       4.23767227       5.10892388      -0.15323079       0.05109351       0.16294889       0.19798816      -0.28033247      -0.00592048
N        6.62002079       6.89132367       7.62155208      -0.49721481      -0.08156403      -0.66002552      -0.79611224      -0.08616870      -0.31888491
8
Lattice="11.884602702452405 0.0 0.0 0.0 11.884602702452405 0.0 0.0 0.0 11.884602702452405" Properties=species:S:1:pos:R:3:momenta:R:3:forces:R:3 energy=-438.4820338862 free_energy=-438.4820338862 stress="0.00014903641303989 0.00034994140002688 4.6647905055238e-05 0.00034994140002688 0.00023090372682173 -1.023592265357e-05 4.6647905055238e-05 -1.023592265357e-05 0.00059104196346993" pbc="T T T"
B        5.41361695       5.28140078       5.04108991       0.66037553      -0.16135500       0.41930655       0.59087404       0.91116659      -0.42804770
H        6.77109788       6.01634827       7.07231342      -0.10649490      -0.13148991      -0.04868465       0.17533520       0.12695785       0.27814708
H        7.29509963       7.64958363       7.53759880      -0.07333256       0.14848546      -0.11856354       0.26223998      -0.00700482      -0.12474231
H        5.61216582       7.19220357       7.67636922      -0.30289870      -0.11772980      -0.09275245       0.70005046      -0.29506866       0.05831249
H        5.79622445       6.07138406       4.20823348       0.15844328       0.32146000       0.39470027      -0.46597461      -0.52023637       0.61349411
H        4.58950307       5.51925696       5.83230929       0.34722379      -0.00801673      -0.04140312      -0.38649872       0.27390500       0.01878071
H        5.91585325       4.23501908       5.10974207      -0.14007230       0.03250859       0.16040944       0.30532510      -0.46517858      -0.06622319
N        6.61131186       6.88617402       7.61208509      -0.54330977      -0.08391371      -0.67345779      -1.18402439      -0.02903219      -0.37334738
8
Lattice="11.884313480846544 0.0 0.0 0.0 11.884313480846544 0.0 0.0 0.0 11.884313480846544" Properties=species:S:1:pos:R:3:momenta:R:3:forces:R:3 energy=-438.4597315345 free_energy=-438.4597315345 stress="0.00029584772134981 0.00045756375785878 0.00018200127078374 0.00045756375785878 0.0003546099265392 -4.5682286278635e-06 0.00018200127078374 -4.5682286278635e-06 0.00046675864079376" pbc="T T T"
B        5.40996800       5.27653496       5.03508425       0.69129916      -0.11246507       0.39356716       0.78259746       1.05073038      -0.55245971
H        6.75940658       6.00586467       7.06238494      -0.09686620      -0.12037798      -0.03277436       0.19739618       0.30310799       0.35684222
H        7.28510925       7.65248594       7.52378743      -0.06421986       0.14307521      -0.12433917       0.09441670      -0.18905551      -0.13647194
H        5.59160020       7.18185601       7.66402596      -0.25724861      -0.13323842      -0.08986329       1.10645412      -0.35817458       0.03769655
H        5.79664330       6.08210226       4.22028752       0.13544051       0.29305429       0.42172919      -0.44443102      -0.58207356       0.55066172
H        4.59920423       5.51495351       5.82245519       0.31940571       0.00725083      -0.03409715      -0.68630253       0.34542433       0.26588583
H        5.90270914       4.23182754       5.10959432      -0.12233899       0.00594276       0.15515763       0.39164903      -0.61090421      -0.12489303
N        6.60258139       6.88160195       7.60178412      -0.60553023      -0.08336538      -0.68996561      -1.44214171       0.03294371      -0.41588724
8
Lattice="11.884021641548296 0.0 0.0 0.0 11.884021641548296 0.0 0.0 0.0 11.884021641548296" Properties=species:S:1:pos:R:3:momenta:R:3:forces:R:3 energy=-438.43429622303 free_energy=-438.43429622303 stress="0.00038640951090796 0.0005618432701305 0.00031456935834742 0.0005618432701305 0.00046587401053739 8.4134607708688e-06 0.00031456935834742 8.4134607708688e-06 0.00033252763385086" pbc="T T T"
B        5.40720850       5.27286954       5.02826190       0.73178957      -0.05906170       0.36399044       0.94381437       1.10952593      -0.61290097
H        6.74892469       5.99708739       7.05263081      -0.08626496      -0.10185019      -0.01365325       0.22288742       0.43751202       0.41347748
H        7.27607825       7.65588299       7.50898336      -0.06342948       0.12903237      -0.13068036      -0.07068759      -0.36894587      -0.14127733
H        5.57444022       7.17163574       7.65110221      -0.19557950      -0.15089146      -0.08785236       1.37637400      -0.37775120       0.02845552
H        5.79670478       6.09235460       4.23291943       0.11428431       0.26313327       0.44528000      -0.40276643      -0.60564262       0.45060023
H        4.60794339       5.51244213       5.81255972       0.27838406       0.02569801      -0.01542742      -0.94825162       0.40476894       0.48475376
H        5.89124292       4.22813865       5.10844386      -0.10131573      -0.02630645       0.14731055       0.45015513      -0.70239492      -0.18245519
N        6.59433158       6.87800072       7.59072870      -0.67784938      -0.07995786      -0.70933767      -1.56754301       0.09374501      -0.43925537
8
Lattice="11.883728336866973 0.0 0.0 0.0 11.883728336866973 0.0 0.0 0.0 11.883728336866973" Properties=species:S:1:pos:R:3:momenta:R:3:forces:R:3 energy=-438.41366515606 free_energy=-438.41366515606 stress="0.00041329260249982 0.00064937174635778 0.00043355804858809 0.00064937174635778 0.0005549767408504 2.8575211715165e-05 0.00043355804858809 2.8575211715165e-05 0.00020173087755522" pbc="T T T"
B        5.40588024       5.27073336       5.02073349       0.78011746      -0.00507515       0.33427264       1.05166015       1.08437440      -0.58550131
H        6.74020314       5.99064381       7.04329979      -0.07451415      -0.07821052       0.00745034       0.25289163       0.52052751       0.44409619
H        7.26810478       7.65967550       7.49328113      -0.07039930       0.10697351      -0.13741325      -0.21560408      -0.52731536      -0.13954486
H        5.56180480       7.16180233       7.63768464      -0.12483512      -0.16868487      -0.08625838       1.49865556      -0.35500874       0.03129762
H        5.79702101       6.10243021       4.24604369       0.09592354       0.23363112       0.46375136      -0.34073105      -0.58892678       0.31627167
H        4.61562356       5.51218220       5.80325960       0.22668038       0.04655005       0.01247560      -1.14604983       0.44290643       0.64868412
H        5.88208177       4.22405284       5.10628418      -0.07846633      -0.06142158       0.13686182       0.47696014      -0.72974806      -0.23933673
N        6.58703727       6.87569713       7.57903037      -0.75438577      -0.07396982      -0.73098540      -1.57248908       0.14692391      -0.45576940
8
Lattice="11.883434909796907 0.0 0.0 0.0 11.883434909796907 0.0 0.0 0.0 11.883434909796907" Properties=species:S:1:pos:R:3:momenta:R:3:forces:R:3 energy=-438.40361355554 free_energy=-438.40361355554 stress="0.00037366002472945 0.00070897952882772 0.0005292519147365 0.00070897952882772 0.00061368746172033 5.6026989968684e-05 0.0005292519147365 5.6026989968684e-05 8.6905437130403e-05" pbc="T T T"
B        5.40641686       5.27034069       5.01265637       0.83319612       0.04569143       0.30896037       1.08612133       0.98025331      -0.45302249
H        6.73371049       5.98694507       7.03460851      -0.06131998      -0.05202994       0.02927164       0.28778407       0.54692990       0.44746506
H        7.26123986       7.66371406       7.47681741      -0.08379812       0.07824620      -0.14428171      -0.32663179      -0.64793901      -0.13225247
H        5.55437657       7.15261741       7.62391634      -0.05207539      -0.18467652      -0.08450454       1.46998173      -0.29315035       0.04621320
H        5.79815223       6.11260920       4.25951856       0.08124040       0.20633900       0.47553329      -0.25932185      -0.53220474       0.15272383
H        4.62219505       5.51448763       5.79509018       0.16775495       0.06860694       0.04639528      -1.25852572       0.45195925       0.73521221
H        5.87568572       4.21972085       5.10313392      -0.05526020      -0.09632345       0.12374206       0.47173362      -0.68999900      -0.29555208
N        6.58109776       6.87491995       7.56683134      -0.82961183      -0.06598289      -0.75457088      -1.46749480       0.18103062      -0.47792784
8
Lattice="11.88314276964556 0.0 0.0 0.0 11.88314276964556 0.0 0.0 0.0 11.88314276964556" Properties=species:S:1:pos:R:3:momenta:R:3:forces:R:3 energy=-438.40566995335 free_energy=-438.40566995335 stress="0.00026718316310793 0.00073344925562874 0.0005948897376089 0.00073344925562874 0.00063545754460996 9.0273928845425e-05 0.0005948897376089 9.0273928845425e-05 -2.2422233276829e-06" pbc="T T T"
B        5.40909753       5.27176889       5.00423443       0.88659044       0.08975470       0.29300778       1.03528669       0.80973102      -0.21080269
H        6.72979671       5.98615325       7.02673850      -0.04633932      -0.02602793       0.05057939       0.32725973       0.51545253       0.42445549
H        7.25548168       7.66781145       7.45977396      -0.10163043       0.04486564      -0.15086794      -0.39390772      -0.71826456      -0.12092507
H        5.55235589       7.14432039       7.61000024       0.01560918      -0.19695286      -0.08186033       1.29190693      -0.19658392       0.07242959
H        5.80056412       6.12313404       4.27314253       0.07102855       0.18285750       0.47910033      -0.16122112      -0.43887936      -0.03250267
H        4.62766109       5.51948277       5.78843204       0.10578287       0.09033250       0.08235810      -1.27438491       0.42707657       0.73141284
H        5.87230891       4.21533132       5.09903335      -0.03303777      -0.12784619       0.10793511       0.43766002      -0.58759419      -0.35046822
N        6.57679694       6.87577524       7.55430023      -0.89792690      -0.05704729      -0.77973879      -1.26027055       0.18732096      -0.50496609
8
Lattice="11.882853296184136 0.0 0.0 0.0 11.882853296184136 0.0 0.0 0.0 11.882853296184136" Properties=species:S:1:pos:R:3:momenta:R:3:forces:R:3 energy=-438.41645208327 free_energy=-438.41645208327 stress="9.6572883719123e-05 0.00072017974900943 0.00062795044237164 0.00072017974900943 0.00061658524198203 0.0001299965852044 0.00062795044237164 0.0001299965852044 -5.9905189732756e-05" pbc="T T T"
B        5.41401228       5.27494423       4.99571183       0.93527757       0.12432124       0.29130815       0.89949065       0.59202460       0.12937888
H        6.72866046       5.98815863       7.01982808      -0.02929131      -0.00287425       0.07024785       0.37013590       0.42934849       0.37805919
H        7.25077286       7.67176077       7.44237259      -0.12154402       0.00939113      -0.15677527      -0.41159144      -0.73004419      -0.10760507
H        5.55542353       7.13710823       7.59619367       0.07119600      -0.20375760      -0.07760861       0.97273052      -0.07106832       0.10858436
H        5.80459263       6.13418761       4.28665963       0.06591433       0.16458729       0.47322047      -0.05083044      -0.31615775      -0.22918979
H        4.63208044       5.52707244       5.78347086       0.04523973       0.10999159       0.11600870      -1.19549230       0.36785858       0.63764961
H        5.87197467       4.21109252       5.09404152      -0.01299923      -0.15311831       0.08948443       0.38072105      -0.43409643      -0.40289828
N        6.57427308       6.87822861       7.54162496      -0.95374315      -0.04858321      -0.80578484      -0.96276494       0.15982788      -0.52583995
8
Lattice="11.88256772937637 0.0 0.0 0.0 11.88256772937637 0.0 0.0 0.0 11.88256772937637" Properties=species:S:1:pos:R:3:momenta:R:3:forces:R:3 energy=-438.42894126052 free_energy=-438.42894126052 stress="-0.00013040522840006 0.00067049734996927 0.00062983619577761 0.00067049734996927 0.00055738879953507 0.00017254698042269 0.00062983619577761 0.00017254698042269 -8.4511330190597e-05" pbc="T T T"
B        5.42105517       5.27964742       4.98735996       0.97471601       0.14753989       0.30786693       0.69209613       0.35066105       0.53927136
H        6.73033522       5.99258621       7.01396576      -0.01004617       0.01490716       0.08722789       0.41451147       0.29552540       0.31237996
H        7.24700368       7.67536096       7.42485398      -0.14096413      -0.02517513      -0.16178328      -0.37746233      -0.67892907      -0.09471541
H        5.56274388       7.13111981       7.58278908       0.10810773      -0.20371703      -0.07119925       0.53116896       0.07485765       0.15237003
H        5.81042671       6.14588457       4.29977865       0.06628990       0.15259665       0.45736520       0.06512085      -0.17583519      -0.42466965
H        4.63556405       5.53694067       5.78018092      -0.00957151       0.12592598       0.14322995      -1.03605364       0.27861763       0.46757052
H        5.87447689       4.20720677       5.08822951       0.00391836      -0.16987689       0.06857516       0.30876677      -0.24543082      -0.45088471
N        6.57350844       6.88210550       7.52900172      -0.99239315      -0.04226441      -0.83166657      -0.59471621       0.09683996      -0.52387379
8
Lattice="11.88228704227023 0.0 0.0 0.0 11.88228704227023 0.0 0.0 0.0 11.88228704227023" Properties=species:S:1:pos:R:3:momenta:R:3:forces:R:3 energy=-438.43546553765 free_energy=-438.43546553765 stress="-0.00039662291384158 0.00058836402869089 0.00060505261419222 0.00058836402869089 0.00046393537776057 0.00021490270783333 0.00060505261419222 0.00021490270783333 -7.7776345691535e-05" pbc="T T T"
B        5.42994192       5.28553310       4.97945593       1.00186109       0.15884161       0.34511058       0.43684919       0.11195549       0.97953803
H        6.73469412       5.99882481       7.00918144       0.01135541       0.02523437       0.10067239       0.45737580       0.12596196       0.23353085
H        7.24402820       7.67844453       7.40744780      -0.15735655      -0.05567820      -0.16598212      -0.29334616      -0.56531913      -0.08476071
H        5.57302182       7.12642338       7.57008610       0.12112571      -0.19609865      -0.06236719       0.00359251       0.22925496       0.20055758
H        5.81810676       6.15826293       4.31220094       0.07222626       0.14739865       0.43192861       0.17837760      -0.03373936      -0.60487256
H        4.63825884       5.54857775       5.77834012      -0.05516339       0.13682833       0.16076485      -0.81938217       0.16733297       0.24457010
H        5.87940960       4.20384251       5.08167003       0.01713258      -0.17678738       0.04548967       0.22994439      -0.03975323      -0.49232486
N        6.57433596       6.88710448       7.51661993      -1.01110133      -0.03983330      -0.85616492      -0.18887899       0.00160757      -0.49159448
8
Lattice="11.882011760142323 0.0 0.0 0.0 11.882011760142323 0.0 0.0 0.0 11.882011760142323" Properties=species:S:1:pos:R:3:momenta:R:3:forces:R:3 energy=-438.43129239425 free_energy=-438.43129239425 stress="-0.00067270435218286 0.00047893123302751 0.00055922472649201 0.00047893123302751 0.0003485387215453 0.00025423753978669 0.00055922472649201 0.00025423753978669 -4.3915896269879e-05" pbc="T T T"
B        5.44025098       5.29216280       4.97225917       1.01553501       0.15906181       0.40349926       0.16215436      -0.09748233       1.40735362
H        6.74147617       6.00608288       7.00544582       0.03470635       0.02673690       0.11006582       0.49476659      -0.06299707       0.14938299
H        7.24168879       7.68090073       7.39034351      -0.16847147      -0.07916172      -0.16974642      -0.16546698      -0.39485568      -0.07995055
H        5.58462907       7.12300759       7.55836309       0.10748403      -0.18099808      -0.05115482      -0.55171343       0.37620222       0.24858893
H        5.82753933       6.17127511       4.32364867       0.08339407       0.14870999       0.39818602       0.27980554       0.09159074      -0.75574252
H        4.64032297       5.56132938       5.77757283      -0.08931729       0.14189901       0.16663613      -0.57207178       0.04375450      -0.00409038
H        5.88622064       4.20111103       5.07442551       0.02646728      -0.17352480       0.02057248       0.15163849       0.16549922      -0.52516430
N        6.57646462       6.89282426       7.50464735      -1.00969810      -0.04278210      -0.87832895       0.20614881      -0.12016331      -0.43728685
8
Lattice="11.881741774024428 0.0 0.0 0.0 11.881741774024428 0.0 0.0 0.0 11.881741774024428" Properties=species:S:1:pos:R:3:momenta:R:3:forces:R:3 energy=-438.41700984469 free_energy=-438.41700984469 stress="-0.00091744319007419 0.00034796778745276 0.00049744423884749 0.00034796778745276 0.00022939733719102 0.00028866245025216 0.00049744423884749 0.00028866245025216 1.1330609363841e-05" pbc="T T T"
B        5.45147502       5.29904288       4.96598903       1.01627180       0.15035107       0.48163307      -0.10437706      -0.25321703       1.78398524
H        6.75032252       6.01346053       7.00267870       0.05962909       0.01896289       0.11537834       0.52196017      -0.25134812       0.06954271
H        7.23984121       7.68268937       7.37366923      -0.17256633      -0.09319217      -0.17358953      -0.00530557      -0.17953091      -0.08187617
H        5.59579145       7.12077222       7.54785283       0.06786968      -0.15941967      -0.03785897      -1.05595168       0.49700858       0.29043500
H        5.83852021       6.18477572       4.33388894       0.09905270       0.15534617       0.35813433       0.36066354       0.18157993      -0.86526356
H        4.64190056       5.57445415       5.77740608      -0.11118655       0.14086377       0.16025826      -0.31903841      -0.08249674      -0.25271877
H        5.89427477       4.19905240       5.06653846       0.03211021      -0.16064239      -0.00576303       0.07979718       0.35534120      -0.54769713
N        6.57951353       6.89879641       7.49321524      -0.99106722      -0.05223138      -0.89798360       0.52744627      -0.26294122      -0.37587061
8
Lattice="11.881476187342553 0.0 0.0 0.0 11.881476187342553 0.0 0.0 0.0 11.881476187342553" Properties=species:S:1:pos:R:3:momenta:R:3:forces:R:3 energy=-438.39836382293 free_energy=-438.39836382293 stress="-0.00108407954212 0.00020237667954386 0.00042329985453914 0.00020237667954386 0.0001285190182591 0.00031755301440635 0.00042329985453914 0.00031755301440635 8.1699347355517e-05" pbc="T T T"
B        5.46307253       5.30566208       4.96080814       1.00584626       0.13593753       0.57666301      -0.33965019      -0.33573329       2.07973013
H        6.76081335       6.02002999       7.00076682       0.08556270       0.00249857       0.11714993       0.53386431      -0.41722307       0.00441355
H        7.23837181       7.68384267       7.35748197      -0.16861844      -0.09613279      -0.17800989       0.16992525       0.06149659      -0.09094437
H        5.60481993       7.11951846       7.53872398       0.00698133      -0.13321281      -0.02299475      -1.42213373       0.57348090       0.31918587
H        5.85076047       6.19851030       4.34275221       0.11810708       0.16531154       0.31423664       0.41398238       0.22092503      -0.92538549
H        4.64310438       5.58717959       5.77732527      -0.12109698       0.13390354       0.14225025      -0.08044186      -0.20324273      -0.48064820
H        5.90291425       4.19763352       5.05802681       0.03452038      -0.13931209      -0.03302629       0.01874214       0.51807427      -0.55873946
N        6.58304663       6.90451884       7.48240709      -0.96119376      -0.06890518      -0.91570571       0.70966447      -0.41408305      -0.32196501
8
Lattice="11.881213266565847 0.0 0.0 0.0 11.881213266565847 0.0 0.0 0.0 11.881213266565847" Properties=species:S:1:pos:R:3:momenta:R:3:forces:R:3 energy=-438.38349250896 free_energy=-438.38349250896 stress="-0.0011317598586895 5.1425460857247e-05 0.00033894167194799 5.1425460857247e-05 6.8215361608404e-05 0.00034147322396505 0.00033894167194799 0.00034147322396505 0.00016110155279529" pbc="T T T"
B        5.47451319       5.31152792       4.95681545       0.98661330       0.11974827       0.68469127      -0.52739781      -0.33356970       2.27664249
H        6.77249932       6.02491907       6.99958933       0.11173831      -0.02104828       0.11644162       0.52564289      -0.53960731      -0.03654029
H        7.23720210       7.68445452       7.34177200      -0.15650456      -0.08740480      -0.18335408       0.33769513       0.30195638      -0.10560227
H        5.61035255       7.11894431       7.53106952      -0.06673798      -0.10485437      -0.00728530      -1.57779258       0.59276789       0.32842148
H        5.86391228       6.21211063       4.35014374       0.13920217       0.17600458       0.26908183       0.43570154       0.20067413      -0.93329986
H        4.64401117       5.59875165       5.77682125      -0.12019116       0.12150357       0.11406683       0.12917281      -0.31226305      -0.67331661
H        5.91151072       4.19675875       5.04888691       0.03432390      -0.11106821      -0.06066217      -0.02871303       0.64535197      -0.55772274
N        6.58660495       6.90949016       7.47225620      -0.92836135      -0.09281072      -0.93241780       0.70819873      -0.55301742      -0.28315662
8
Lattice="11.880950556872422 0.0 0.0 0.0 11.880950556872422 0.0 0.0 0.0 11.880950556872422" Properties=species:S:1:pos:R:3:momenta:R:3:forces:R:3 energy=-438.37890132339 free_energy=-438.37890132339 stress="-0.001038276671156 -9.2399131247703e-05 0.00024589598568514 -9.2399131247703e-05 6.7053793290798e-05 0.00036133521701962 0.00024589598568514 0.00036133521701962 0.0002439406360466" pbc="T T T"
B        5.48531585       5.31620433       4.95404907       0.96077669       0.10591858       0.80095164      -0.65897677      -0.24489828       2.36872769
H        6.78492556       6.02739454       6.99904557       0.13713671      -0.04921339       0.11464109       0.49356816      -0.60172693      -0.04678155
H        7.23627992       7.68465843       7.32648207      -0.13713724      -0.06772795      -0.18969535       0.47217333       0.51058282      -0.12214840
H        5.61156052       7.11865498       7.52490264      -0.14236968      -0.07710127       0.00834196      -1.48985866       0.55187253       0.31391433
H        5.87759378       6.22510328       4.35604791       0.16080947       0.18447022       0.22505731       0.42527715       0.12006466      -0.89169088
H        4.64467064       5.60847902       5.77542761      -0.11007495       0.10428071       0.07762698       0.30025834      -0.40519074      -0.82167257
H        5.91950800       4.19629213       5.03910501       0.03221978      -0.07764674      -0.08805887      -0.06103779       0.73191088      -0.54472768
N        6.58973911       6.91324846       7.46275429      -0.90130320      -0.12293149      -0.94864360       0.52013177      -0.66045583      -0.25860311
8
Lattice="11.88068517840418 0.0 0.0 0.0 11.88068517840418 0.0 0.0 0.0 11.88068517840418" Properties=species:S:1:pos:R:3:momenta:R:3:forces:R:3 energy=-438.38657350891 free_energy=-438.38657350891 stress="-0.00080828349145452 -0.00021415321997243 0.00014637901638239 -0.00021415321997243 0.00013554227362959 0.00037754771474064 0.00014637901638239 0.00037754771474064 0.00032484743614402" pbc="T T T"
B        5.49508363       5.31935271       4.95249487       0.93010817       0.09836423       0.91997058      -0.73209548      -0.07767720       2.35965757
H        6.79765327       6.02694316       6.99907787       0.16045611      -0.07880190       0.11328436       0.43598589      -0.59443062      -0.02410972
H        7.23556016       7.68459771       7.31153483      -0.11256695      -0.03932331      -0.19672452       0.54855299       0.65603637      -0.13521418
H        5.60827119       7.11819732       7.52015728      -0.20844320      -0.05255420       0.02282554      -1.17790255       0.45897438       0.27517495
H        5.89141780       6.23694048       4.36052790       0.18130964       0.18777865       0.18410386       0.38572418      -0.01289848      -0.80826713
H        4.64512502       5.61577952       5.77275107      -0.09264676       0.08293899       0.03511386       0.42688989      -0.47902676      -0.92071314
H        5.92646079       4.19608747       5.02867354       0.02892316      -0.04095606      -0.11455545      -0.07762549       0.77491894      -0.52041272
N        6.59204771       6.91541605       7.45386688      -0.88709597      -0.15738807      -0.96426635       0.19146805      -0.72262780      -0.24664333
8
Lattice="11.88041426907406 0.0 0.0 0.0 11.88041426907406 0.0 0.0 0.0 11.88041426907406" Properties=species:S:1:pos:R:3:momenta:R:3:forces:R:3 energy=-438.40381118182 free_energy=-438.40381118182 stress="-0.00047276115606017 -0.00029927883959781 4.4253413508174e-05 -0.00029927883959781 0.00027347888120222 0.00038925548270961 4.4253413508174e-05 0.00038925548270961 0.00039871347349749" pbc="T T T"
B        5.50354321       5.32077624       4.95209623       0.89622942       0.10043340       1.03596560      -0.74897846       0.15194370       2.25950457
H        6.81028824       6.02334807       6.99968748       0.18028273      -0.10638946       0.11377568       0.35399442      -0.51860235       0.02862226
H        7.23498206       7.68439199       7.29685945      -0.08590661      -0.00578527      -0.20389428       0.54914326       0.71409173      -0.13903138
H        5.60097798       7.11712187       7.51669455      -0.25533781      -0.03329452       0.03504892      -0.70727532       0.33096613       0.21600012
H        5.90503229       6.24706184       4.36371972       0.19920287       0.18345269       0.14780576       0.32299841      -0.18352534      -0.69372649
H        4.64543221       5.62023502       5.76849784      -0.07001619       0.05832449      -0.01108195       0.50570558      -0.53182396      -0.96845021
H        5.93207501       4.19602227       5.01760388       0.02515320      -0.00305800      -0.13948268      -0.07877020       0.77405467      -0.48595351
N        6.59322451       6.91574819       7.44554556      -0.88956482      -0.19358785      -0.97876539      -0.19590933      -0.73192675      -0.24782606
8
Lattice="11.880135458790374 0.0 0.0 0.0 11.880135458790374 0.0 0.0 0.0 11.880135458790374" Properties=species:S:1:pos:R:3:momenta:R:3:forces:R:3 energy=-438.42542582576 free_energy=-438.42542582576 stress="-8.0169742311983e-05 -0.00033738991455677 -5.4521323349854e-05 -0.00033738991455677 0.00046873192760403 0.00039474345839019 -5.4521323349854e-05 0.00039474345839019 0.00046038400416143" pbc="T T T"
B        5.51057790       5.32045142       4.95276264       0.86118524       0.11459953       1.14377907      -0.71413895       0.42199815       2.08218768
H        6.82251617       6.01672128       7.00093264       0.19533156      -0.12873498       0.11730562       0.25161867      -0.38478409       0.10421079
H        7.23445138       7.68410998       7.28240407      -0.06099585       0.02829454      -0.21050928       0.46862562       0.67458648      -0.12912065
H        5.59071653       7.11505265       7.51431284      -0.27706218      -0.02060257       0.04408558      -0.16547045       0.18762535       0.14331141
H        5.91816724       6.25496862       4.36582262       0.21333910       0.16995045       0.11732437       0.24457571      -0.37296507      -0.56047123
H        4.64568408       5.62163665       5.76249039      -0.04455563       0.03148933      -0.05838204       0.53484674      -0.56232335      -0.96468140
H        5.93623964       4.19602548       5.00592862       0.02162973       0.03386228      -0.16226122      -0.06547191       0.73115208      -0.44303199
N        6.59310223       6.91416976       7.43773319      -0.90881499      -0.22870933      -0.99212226      -0.55294544      -0.68773666      -0.26312146
8
Lattice="11.879847272631405 0.0 0.0 0.0 11.879847272631405 0.0 0.0 0.0 11.879847272631405" Properties=species:S:1:pos:R:3:momenta:R:3:forces:R:3 energy=-438.44648754408 free_energy=-438.44648754408 stress="0.00031556836792979 -0.00032499105436713 -0.00014227597713592 -0.00032499105436713 0.00069913888112494 0.00039206188009697 -0.00014227597713592 0.00039206188009697 0.00050540161801596" pbc="T T T"
B        5.51624372       5.31853724       4.95437933       0.82743300       0.14222814       1.23945908      -0.63291340       0.70834529       1.84265068
H        6.83413097       6.00749181       7.00291843       0.20467450      -0.14333980       0.12468346       0.13520247      -0.21109635       0.19276650
H        7.23383670       7.68375492       7.26814428      -0.04167497       0.05818241      -0.21587305       0.31633176       0.54464166      -0.10371675
H        5.57886139       7.11174770       7.51276888      -0.27202050      -0.01485487       0.04937874       0.36379173       0.04678112       0.06560760
H        5.93067234       6.26029104       4.36707839       0.22306702       0.14683111       0.09334020       0.15843528      -0.56180278      -0.42025058
H        4.64601057       5.62000640       5.75467483      -0.01880486       0.00362312      -0.10418806       0.51349942      -0.56990446      -0.91067078
H        5.93903957       4.19609235       4.99369770       0.01902571       0.06770433      -0.18249011      -0.03946285       0.65021333      -0.39361245
N        6.59168011       6.91078909       7.43036592      -0.94160643      -0.26016769      -1.00495660      -0.81148506      -0.59773484      -0.29263593
8
Lattice="11.879549360856217 0.0 0.0 0.0 11.879549360856217 0.0 0.0 0.0 11.879549360856217" Properties=species:S:1:pos:R:3:momenta:R:3:forces:R:3 energy=-438.46414121689 free_energy=-438.46414121689 stress="0.00066500308607447 -0.00026588554265484 -0.00021070541225695 -0.00026588554265484 0.00093654440971696 0.00037984611462737 -0.00021070541225695 0.00037984611462737 0.00053031493140163" pbc="T T T"
B        5.52076032       5.31535500       4.95681626       0.79750744       0.18349978       1.32028870      -0.51034681       0.98728518       1.55538843
H        6.84504566       5.99634369       7.00577747       0.20783340      -0.14876999       0.13623648       0.01252030      -0.01955874       0.28370366
H        7.23298207       7.68326837       7.25408593      -0.03103255       0.07989546      -0.21937830       0.11377958       0.34655544      -0.06427954
H        5.56690443       7.10712858       7.51180268      -0.24248502      -0.01563918       0.05080949       0.81651941      -0.07853088      -0.00886676
H        5.94253173       6.26282559       4.36774668       0.22821463       0.11467071       0.07600047       0.07190008      -0.73270659      -0.28310776
H        4.64656729       5.61558479       5.74511922       0.00465841      -0.02404956      -0.14603372       0.44183159      -0.55458728      -0.80893152
H        5.94074218       4.19628099       4.98097271       0.01791602       0.09665224      -0.19995431      -0.00316858       0.53743006      -0.33975746
N        6.58912529       6.90588149       7.42337520      -0.98247214      -0.28602557      -1.01824238      -0.93783372      -0.47687583      -0.33714895
8
Lattice="11.879242544345164 0.0 0.0 0.0 11.879242544345164 0.0 0.0 0.0 11.879242544345164" Properties=species:S:1:pos:R:3:momenta:R:3:forces:R:3 energy=-438.47805582635 free_energy=-438.47805582635 stress="0.0009288111168041 -0.00016957470419932 -0.00025216009566651 -0.00016957470419932 0.0011518015262687 0.00035810702887428 -0.00025216009566651 0.00035810702887428 0.00053313486557758" pbc="T T T"
B        5.52448181       5.31134526       4.95993439       0.77373774       0.23747929       1.38454258      -0.35111137       1.23727462       1.23411079
H        6.85528571       5.98412296       7.00964727       0.20478168      -0.14473342       0.15182343      -0.10823739       0.16768319       0.36765932
H        7.23173301       7.68254968       7.24026265      -0.03088525       0.09084179      -0.22056773      -0.11095394       0.11155997      -0.01495591
H        5.55626770       7.10127591       7.51116121      -0.19341358      -0.02198504       0.04868074       1.15225604      -0.18034147      -0.07310377
H        5.95385604       6.26254072       4.36808133       0.22899701       0.07485201       0.06498682      -0.00885017      -0.87176804      -0.15694563
H        4.64750954       5.60879226       5.73400667       0.02333433      -0.05034343      -0.18166586       0.32136300      -0.51719567      -0.66352829
H        5.94176328       4.19669286       4.96782213       0.01873891       0.11931278      -0.21456643       0.04033250       0.40102255      -0.28339726
N        6.58575014       6.89984887       7.41668931      -1.02512951      -0.30522601      -1.03308079      -0.92900023      -0.34211805      -0.39758393
8
Lattice="11.878928699066478 0.0 0.0 0.0 11.878928699066478 0.0 0.0 0.0 11.878928699066478" Properties=species:S:1:pos:R:3:momenta:R:3:forces:R:3 energy=-438.48979365072 free_energy=-438.48979365072 stress="0.0010798040322501 -4.8799116717915e-05 -0.00026090676056697 -4.8799116717915e-05 0.0013192701299119 0.00032868637310283 -0.00026090676056697 0.00032868637310283 0.00051374783104753" pbc="T T T"
B        5.52785716       5.30701325       4.96358874       0.75810045       0.30224741       1.43125136      -0.16037565       1.43982666       0.89232946
H        6.86497121       5.97173364       7.01464920       0.19590078      -0.13198418       0.17093419      -0.21928470       0.33107833       0.43752256
H        7.22996836       7.68148364       7.22672813      -0.04160504       0.09006313      -0.21917337      -0.32942093      -0.12741969       0.03855873
H        5.54816870       7.09439967       7.51061747      -0.13127034      -0.03260594       0.04365643       1.34994765      -0.25462449      -0.12166185
H        5.96485960       6.25955932       4.36831123       0.22591244       0.02933027       0.05964364      -0.07887420      -0.96881160      -0.04763056
H        4.64896034       5.60017584       5.72162469       0.03490456      -0.07417190      -0.20909688       0.15587300      -0.45967157      -0.48076817
H        5.94262163       4.19744506       4.95431799       0.02176679       0.13479051      -0.22629178       0.08738180       0.25099006      -0.22609574
N        6.58197488       6.89316670       7.41023318      -1.06356345      -0.31754847      -1.05045863      -0.80002709      -0.20885801      -0.47009099
8
Lattice="11.878610524525568 0.0 0.0 0.0 11.878610524525568 0.0 0.0 0.0 11.878610524525568" Properties=species:S:1:pos:R:3:momenta:R:3:forces:R:3 energy=-438.50167991371 free_energy=-438.50167991371 stress="0.0011030580056975 8.2616540110463e-05 -0.0002341632133963 8.2616540110463e-05 0.0014197933484525 0.00029537335994022 -0.0002341632133963 0.00029537335994022 0.0004741990515587" pbc="T T T"
B        5.53138808       5.30287245       4.96763074       0.75211019       0.37504773       1.46005108       0.05458435       1.58004169       0.54443957
H        6.87429438       5.96003872       7.02087179       0.18191189      -0.11213757       0.19278769      -0.31377803       0.45516454       0.48872088
H        7.22762954       7.67996782       7.21354487      -0.06223954       0.07813940      -0.21516016      -0.51734062      -0.34129148       0.09017506
H        5.54353257       7.08679642       7.50998452      -0.06317453      -0.04608434       0.03665840       1.40167164      -0.29991187      -0.15057520
H        5.97583078       6.25412872       4.36862600       0.21965026      -0.01956982       0.05907141      -0.13433452      -1.01706515       0.04061830
H        4.65098098       5.59035078       5.70835010       0.03735924      -0.09461182      -0.22671866      -0.04726522      -0.38546336      -0.27007361
H        5.94388964       4.19864271       4.94053396       0.02707552       0.14272676      -0.23511297       0.13389737       0.09864953      -0.16883678
N        6.57828494       6.88632919       7.40392909      -1.09258141      -0.32346884      -1.07095499      -0.57334935      -0.09048919      -0.54818125
8
Lattice="11.878291241325373 0.0 0.0 0.0 11.878291241325373 0.0 0.0 0.0 11.878291241325373" Properties=species:S:1:pos:R:3:momenta:R:3:forces:R:3 energy=-438.51568932482 free_energy=-438.51568932482 stress="0.00099555043726811 0.00021107805547759 -0.00017280118107677 0.00021107805547759 0.0014418193963688 0.00026373255814207 -0.00017280118107677 0.00026373255814207 0.00041865067280011" pbc="T T T"
B        5.53558805       5.29939301       4.97191115       0.75667807       0.45246095       1.47117307       0.28245797       1.64716686       0.20679299
H        6.88349569       5.94977550       7.02835967       0.16381147      -0.08744520       0.21642424      -0.38610052       0.52905220       0.51903946
H        7.22474041       7.67793366       7.20077172      -0.09078907       0.05691200      -0.20875314      -0.65663827      -0.50746858       0.13418233
H        5.54293707       7.07880419       7.50912520       0.00362849      -0.06098012       0.02876576       1.30794367      -0.31632379      -0.15716986
H        5.98710080       6.24658686       4.36916604       0.21103210      -0.06929581       0.06218569      -0.17229807      -1.01261094       0.10478272
H        4.65355083       5.57994338       5.69462708       0.02919199      -0.11097126      -0.23347546      -0.27562414      -0.29984346      -0.04471301
H        5.94614440       4.20035758       4.92654496       0.03452794       0.14332387      -0.24101274       0.17565364      -0.04416816      -0.11189714
N        6.57518883       6.87979885       7.39769859      -1.10800548      -0.32402159      -1.09467398      -0.27245579       0.00218360      -0.62611392
8
Lattice="11.877974258918774 0.0 0.0 0.0 11.877974258918774 0.0 0.0 0.0 11.877974258918774" Properties=species:S:1:pos:R:3:momenta:R:3:forces:R:3 energy=-438.53265845288 free_energy=-438.53265845288 stress="0.00076607401241132 0.0003238344530861 -8.1615782637404e-05 0.0003238344530861 0.0013810784913766 0.00024064411809441 -8.1615782637404e-05 0.00024064411809441 0.00035300989205777" pbc="T T T"
B        5.54094222       5.29695813       4.97628391       0.77192579       0.53062828       1.46559852       0.50638785       1.63527995      -0.10189971
H        6.89283915       5.94148900       7.03710797       0.14282629      -0.06059824       0.24079407      -0.43197521       0.54625584       0.52819074
H        7.22141351       7.67535916       7.18845139      -0.12449362       0.02918140      -0.20042825      -0.73552211      -0.61019931       0.16556683
H        5.54657853       7.07076087       7.50795859       0.06209536      -0.07588986       0.02115286       1.07611803      -0.30526846      -0.14007176
H        5.99901239       6.23733016       4.37001567       0.20097747      -0.11717507       0.06776468      -0.19059896      -0.95396514       0.14275389
H        4.65656075       5.56953705       5.68093615       0.00967246      -0.12286818      -0.22906514      -0.51073221      -0.20991595       0.17809306
H        5.94992002       4.20261510       4.91242804       0.04377609       0.13734365      -0.24395416       0.20868129      -0.16623335      -0.05485156
N        6.57317716       6.87396369       7.39146464      -1.10673072      -0.32067185      -1.12134647       0.07978775       0.06140605      -0.69930537
8
Lattice="11.877662842263868 0.0 0.0 0.0 11.877662842263868 0.0 0.0 0.0 11.877662842263868" Properties=species:S:1:pos:R:3:momenta:R:3:forces:R:3 energy=-438.55198902906 free_energy=-438.55198902906 stress="0.00043491514899255 0.00040931560218259 3.1090340566278e-05 0.00040931560218259 0.001238908643733 0.00023339347181901 3.1090340566278e-05 0.00023339347181901 0.00028416754025396" pbc="T T T"
B        5.54786610       5.29582966       4.98061124       0.79697764       0.60551615       1.44523876       0.70380724       1.54380425      -0.36185795
H        6.90258535       5.93548247       7.04706175       0.12034201      -0.03446102       0.26488679      -0.44837604       0.50394591       0.51745160
H        7.21784193       7.67227454       7.17659920      -0.16016111      -0.00165277      -0.19086257      -0.74726634      -0.63938394       0.18010129
H        5.55425212       7.06296783       7.50646411       0.10582038      -0.08951953       0.01502656       0.72148610      -0.26948695      -0.09925127
H        6.01188722       6.22678378       4.37119873       0.19048188      -0.16052668       0.07450089      -0.18766474      -0.84185378       0.15345798
H        4.65982091       5.55962207       5.66775293      -0.02086243      -0.13030198      -0.21411889      -0.72854459      -0.12396019       0.37835668
H        5.95566046       4.20538830       4.89826429       0.05427965       0.12606316      -0.24386883       0.22973451      -0.25835251       0.00332644
N        6.57268125       6.86910280       7.38515336      -1.08684040      -0.31518007      -1.15051253       0.45869459       0.08255231      -0.76369759
8
Lattice="11.877359815864745 0.0 0.0 0.0 11.877359815864745 0.0 0.0 0.0 11.877359815864745" Properties=species:S:1:pos:R:3:momenta:R:3:forces:R:3 energy=-438.57190732575 free_energy=-438.57190732575 stress="3.7703848004529e-05 0.0004576682473832 0.00015366578112597 0.0004576682473832 0.001024743127037 0.00024989603420558 0.00015366578112597 0.00024989603420558 0.00021967419411941" pbc="T T T"
B        5.55666512       5.29612657       4.98477046       0.82979144       0.67326203       1.41306693       0.84911698       1.37830460      -0.55264157
H        6.91296203       5.93179296       7.05812243       0.09784158      -0.01189851       0.28778846      -0.43492099       0.40579016       0.49003501
H        7.21427634       7.66876123       7.16519523      -0.19445360      -0.03187844      -0.18095163      -0.69169208      -0.59223160       0.17466949
H        5.56535952       7.05566050       7.50468242       0.12955806      -0.10080033       0.01149512       0.27494413      -0.21522821      -0.03766520
H        6.02599389       6.21537764       4.37267740       0.18060359      -0.19675589       0.08103756      -0.16331531      -0.67926832       0.13599924
H        4.66308348       5.55055376       5.65550080      -0.06081523      -0.13368401      -0.19027918      -0.90175871      -0.05039872       0.53554258
H        5.96367607       4.20859858       4.88414197       0.06538651       0.11111211      -0.24065487       0.23688386      -0.31455832       0.06375981
N        6.57403293       6.86536395       7.37869642      -1.04787117      -0.30942333      -1.18151370       0.83281423       0.06482764      -0.81501242
8
Lattice="11.87706718312826 0.0 0.0 0.0 11.87706718312826 0.0 0.0 0.0 11.87706718312826" Properties=species:S:1:pos:R:3:momenta:R:3:forces:R:3 energy=-438.590163242 free_energy=-438.590163242 stress="-0.00038217078611384 0.00046147959934108 0.00027343773705224 0.00046147959934108 0.00074929915084732 0.00029503170060748 0.00027343773705224 0.00029503170060748 0.000165471665632" pbc="T T T"
B        5.56749340       5.29781239       4.98866192       0.86712984       0.73044923       1.37299725       0.91734282       1.14891764      -0.66079523
H        6.92413176       5.93018183       7.07015800       0.07682512       0.00444341       0.30877600      -0.39201927       0.25705391       0.44960042
H        7.21099328       7.66494926       7.15417811      -0.22405105      -0.05767078      -0.17173324      -0.57105362      -0.46888652       0.14699618
H        5.57894364       7.04898070       7.50271202       0.12991668      -0.10900914       0.01147472      -0.21983332      -0.15027302       0.03948698
H        6.04151385       6.20352251       4.37435516       0.17239312      -0.22355289       0.08605847      -0.11802065      -0.47203915       0.09195956
H        4.66607390       5.54251753       5.64450287      -0.10723605      -0.13381475      -0.16015651      -1.00460403       0.00435277       0.63310143
H        5.97410319       4.21211792       4.87016090       0.07637148       0.09437366      -0.23418778       0.22964024      -0.33310471       0.12766935
N        6.57742304       6.86274919       7.37203440      -0.99129135      -0.30528935      -1.21356644       1.16109477       0.01090834      -0.84687563
8
Lattice="11.876786008691788 0.0 0.0 0.0 11.876786008691788 0.0 0.0 0.0 11.876786008691788" Properties=species:S:1:pos:R:3:momenta:R:3:forces:R:3 energy=-438.60494900067 free_energy=-438.60494900067 stress="-0.00077044020170099 0.00041704950997986 0.00037699685612173 0.00041704950997986 0.00043128917596681 0.00037175629651904 0.00037699685612173 0.00037175629651904 0.00012654787616983" pbc="T T T"
B        5.58032521       5.30070026       4.99221920       0.90482541       0.77441281       1.32953258       0.89130785       0.87055169      -0.68019552
H        6.93616503       5.93015509       7.08302021       0.05866005       0.01242550       0.32737104      -0.32344759       0.07024884       0.40143677
H        7.20825914       7.66101238       7.14344517      -0.24602764      -0.07551322      -0.16433731      -0.39423174      -0.27733378       0.09669777
H        5.59377920       7.04295726       7.50070030       0.10627882      -0.11393976       0.01546871      -0.69945607      -0.08626214       0.12276936
H        6.05851644       6.19159674       4.37608570       0.16682778      -0.23900593       0.08834211      -0.05457554      -0.22947778       0.02433574
H        4.66852687       5.53551530       5.63494841      -0.15612983      -0.13173612      -0.12700594      -1.01814479       0.03697923       0.66144900
H        5.98688083       4.21577363       4.85643985       0.08655387       0.07768142      -0.22433760       0.20906097      -0.31603865       0.19568094
N        6.58287050       6.86111757       7.36512403      -0.92090391      -0.30440779      -1.24565659       1.39226131      -0.07259761      -0.85204613
8
Lattice="11.876516158852978 0.0 0.0 0.0 11.876516158852978 0.0 0.0 0.0 11.876516158852978" Properties=species:S:1:pos:R:3:momenta:R:3:forces:R:3 energy=-438.61560615476 free_energy=-438.61560615476 stress="-0.0010715153199691 0.00032600191015988 0.00045209409780632 0.00032600191015988 9.5067542100168e-05 0.00047891727896503 0.00045209409780632 0.00047891727896503 0.00010610610827329" pbc="T T T"
B        5.59494063       5.30446898       4.99541788       0.93825937       0.80338656       1.28717136       0.76671493       0.56147193      -0.61667821
H        6.94902020       5.93100619       7.09656521       0.04445234       0.01068238       0.34339189      -0.23571327      -0.13655485       0.35173627
H        7.20629710       7.65716052       7.13285863      -0.25806813      -0.08249453      -0.15985464      -0.17616735      -0.03335452       0.02596888
H        5.60851411       7.03749042       7.49882790       0.06140553      -0.11598582       0.02343185      -1.09066073      -0.03584780       0.19977456
H        6.07694142       6.17993359       4.37768826       0.16469030      -0.24181068       0.08689533       0.02202230       0.03520675      -0.06097046
H        4.67021906       5.52936983       5.62687759      -0.20290062      -0.12855365      -0.09430950      -0.93536003       0.04827167       0.62080967
H        6.00174285       4.21935564       4.84312421       0.09534703       0.06267991      -0.21099042       0.17751601      -0.26891685       0.26769739
N        6.59020261       6.86019846       7.35794659      -0.84307569      -0.30801477      -1.27653212       1.47320236      -0.17585040      -0.82327148
8
Lattice="11.87625624461563 0.0 0.0 0.0 11.87625624461563 0.0 0.0 0.0 11.87625624461563" Properties=species:S:1:pos:R:3:momenta:R:3:forces:R:3 energy=-438.62273333608 free_energy=-438.62273333608 stress="-0.0012374800682325 0.00019675972483584 0.00048877567564072 0.00019675972483584 -0.00022863053160983 0.00061079236341763 0.00048877567564072 0.00061079236341763 0.00010604134722099" pbc="T T T"
B        5.61093647       5.30869429       4.99828234       0.96304965       0.81662107       1.24975674       0.55497855       0.24274111      -0.48792359
H        6.96253872       5.93188752       7.11067653       0.03490115      -0.00109860       0.35696527      -0.13823283      -0.33953124       0.30710265
H        7.20526149       7.65362711       7.12225911      -0.25879904      -0.07675737      -0.15918664       0.06103875       0.23749717      -0.05950156
H        5.62185601       7.03234865       7.49728651       0.00151974      -0.11611455       0.03466445      -1.32542127      -0.00972040       0.25708515
H        6.09659824       6.16881534       4.37896974       0.16644653      -0.23143528       0.08108573       0.10413178       0.30485721      -0.15487776
H        4.67099475       5.52375412       5.62019163      -0.24300487      -0.12523516      -0.06527849      -0.76312833       0.04264061       0.52102041
H        6.01823605       4.22262913       4.83039326       0.10231880       0.05066088      -0.19407576       0.13827203      -0.19968552       0.34277152
N        6.59905790       6.85962038       7.35051724      -0.76633300      -0.31680169      -1.30471455       1.36566751      -0.28653543      -0.75572342
8
Lattice="11.876003682371362 0.0 0.0 0.0 11.876003682371362 0.0 0.0 0.0 11.876003682371362" Properties=species:S:1:pos:R:3:momenta:R:3:forces:R:3 energy=-438.62765929919 free_energy=-438.62765929919 stress="-0.0012383773835146 4.4974714060769e-05 0.00048050023065671 4.4974714060769e-05 -0.00050419522054594 0.00075699464845456 0.00048050023065671 0.00075699464845456 0.00012747728789609" pbc="T T T"
B        5.62776476       5.31289462       5.00088720       0.97574141       0.81443573       1.21989033       0.28176255      -0.06248057      -0.32082230
H        6.97645812       5.93190874       7.12528562       0.03019513      -0.02198508       0.36848848      -0.04261834      -0.51096002       0.27343682
H        7.20522057       7.65064810       7.11148500      -0.24807826      -0.05793392      -0.16288130       0.28885060       0.49999066      -0.15016542
H        5.63276810       7.02718454       7.49625204      -0.06452479      -0.11566520       0.04784840      -1.36100554      -0.01299869       0.28369057
H        6.11718343       6.15847328       4.37975164       0.17212077      -0.20827744       0.07079680       0.18157681       0.55920285      -0.24529507
H        4.67078311       5.51824374       5.61468352      -0.27256502      -0.12246688      -0.04244840      -0.52051057       0.02666133       0.37893073
H        6.03576443       4.22535558       4.81846353       0.10721798       0.04249440      -0.17359008       0.09499203      -0.11741812       0.41920344
N        6.60891586       6.85895413       7.34289189      -0.70011585      -0.33082546      -1.32860974       1.06842891      -0.39035556      -0.65232057
8
Lattice="11.875754913415475 0.0 0.0 0.0 11.875754913415475 0.0 0.0 0.0 11.875754913415475" Properties=species:S:1:pos:R:3:momenta:R:3:forces:R:3 energy=-438.63175803629 free_energy=-438.63175803629 stress="-0.0010692730545584 -0.00010797953243653 0.00042514898269315 -0.00010797953243653 -0.0006949812251616 0.00090326269452874 0.00042514898269315 0.00090326269452874 0.00017092896122271" pbc="T T T"
B        5.64479503       5.31658874       5.00334986       0.97438185       0.79828854       1.19868718      -0.01816946      -0.33037410      -0.14675724
H        6.99044133       5.93025362       7.14038293       0.02989696      -0.04962560       0.37858982       0.03881557      -0.62284650       0.25465041
H        7.20614643       7.64843130       7.10039361      -0.22726976      -0.02761544      -0.17089311       0.47544761       0.71246082      -0.23317547
H        5.64062215       7.02157625       7.49585713      -0.12676021      -0.11604764       0.06127002      -1.19432614      -0.04322764       0.27429014
H        6.13831258       6.14909212       4.37989778       0.18119784      -0.17371879       0.05648986       0.24268471       0.77697427      -0.31826996
H        4.66960849       5.51238551       5.61007825      -0.28889645      -0.12059007      -0.02742223      -0.23423290       0.00728905       0.21448540
H        6.05365461       4.22732361       4.80758426       0.10998648       0.03853418      -0.14964409       0.05137168      -0.03126522       0.49475914
N        6.61915360       6.85776802       7.33516621      -0.65271567      -0.34944587      -1.34706029       0.62847782      -0.47525258      -0.53278295
8
Lattice="11.875505772182501 0.0 0.0 0.0 11.875505772182501 0.0 0.0 0.0 11.875505772182501" Properties=species:S:1:pos:R:3:momenta:R:3:forces:R:3 energy=-438.63595737139 free_energy=-438.63595737139 stress="-0.00075217420580934 -0.00023870441183004 0.00032582657295323 -0.00023870441183004 -0.00077055623417543 0.0010332898227203 0.00032582657295323 0.0010332898227203 0.00023618841350951" pbc="T T T"
B        5.66139462       5.31936469       5.00581275       0.95868580       0.77064806       1.18563585      -0.30804217      -0.53928086       0.00387135
H        7.00411735       5.92631213       7.15601768       0.03303009      -0.08055838       0.38797570       0.09594663      -0.65373133       0.25125158
H        7.20791001       7.64711809       7.08888481      -0.19916159       0.01069600      -0.18254632       0.59294781       0.83574402      -0.29488858
H        5.64527639       7.01509665       7.49616996      -0.17628841      -0.11836258       0.07316592      -0.86424345      -0.09101274       0.23111402
H        6.15956385       6.14082459       4.37933581       0.19256180      -0.13015178       0.03936750       0.27600801       0.93872828      -0.35983454
H        4.66759576       5.50577800       5.60607230      -0.29066035      -0.11964343      -0.02081411       0.06729335      -0.00965822       0.04661389
H        6.07123640       4.22838768       4.79802236       0.11069803       0.03874538      -0.12240188       0.01072088       0.05094343       0.56713049
N        6.62912657       6.85569380       7.32746218      -0.62909289      -0.37151416      -1.35990845       0.12292389      -0.53546307      -0.42324275
8
Lattice="11.875251984200817 0.0 0.0 0.0 11.875251984200817 0.0 0.0 0.0 11.875251984200817" Properties=species:S:1:pos:R:3:momenta:R:3:forces:R:3 energy=-438.64047273 free_energy=-438.64047273 stress="-0.00032831287445386 -0.0003268229323504 0.00019050000923381 -0.0003268229323504 -0.00071261088307792 0.0011314230928877 0.00019050000923381 0.0011314230928877 0.00032148528575844" pbc="T T T"
B        5.67700314       5.32093775       5.00841339       0.93001244       0.73488665       1.17895380      -0.55570992      -0.67273422       0.10741439
H        7.01712409       5.91978213       7.17227783       0.03818154      -0.11050339       0.39735785       0.12221372      -0.59189158       0.25990817
H        7.21028274       7.64674709       7.07691228      -0.16767840       0.05184991      -0.19645364       0.62315201       0.84148457      -0.32386874
H        5.64704266       7.00739059       7.49718035      -0.20679509      -0.12316754       0.08212151      -0.43513950      -0.14398162       0.16227329
H        6.18051628       6.13379955       4.37807163       0.20458497      -0.08073255       0.02127143       0.27271506       1.03075724      -0.35948934
H        4.66496925       5.49813930       5.60235935      -0.27789742      -0.11940970      -0.02230832       0.35803139      -0.02015920      -0.10899084
H        6.08791566       4.22850490       4.79003826       0.10955754       0.04271794      -0.09207634      -0.02403098       0.12238365       0.63377549
N        6.63824924       6.85248164       7.31990094      -0.63012296      -0.39571247      -1.36817242      -0.36318898      -0.56774501      -0.34265583
8
Lattice="11.874989648548123 0.0 0.0 0.0 11.874989648548123 0.0 0.0 0.0 11.874989648548123" Properties=species:S:1:pos:R:3:momenta:R:3:forces:R:3 energy=-438.64483681422 free_energy=-438.64483681422 stress="0.00014960150911854 -0.00035947958770871 3.1453289446106e-05 -0.00035947958770871 -0.00052192610645215 0.0011858467916106 3.1453289446106e-05 0.0011858467916106 0.0004234594695042" pbc="T T T"
B        5.69119124       5.32119459       5.01125611       0.89106083       0.69496207       1.17597289      -0.73843275      -0.72259321       0.14979959
H        7.02914557       5.91073675       7.18925984       0.04379039      -0.13500510       0.40721957       0.11704421      -0.44070384       0.27426050
H        7.21294697       7.64722994       7.06448860      -0.13718290       0.08989665      -0.21080446       0.56440801       0.72273561      -0.31453952
H        5.64658211       6.99824612       7.49879786      -0.21536305      -0.13039971       0.08724210       0.02104864      -0.19024086       0.07956722
H        6.20078139       6.12813168       4.37619179       0.21533962      -0.02905557       0.00444592       0.22848692       1.04747384      -0.31211262
H        4.66204268       5.48935772       5.59864554      -0.25176879      -0.11951013      -0.03091317       0.61742135      -0.02209479      -0.24130176
H        6.10323339       4.22775970       4.78385795       0.10690387       0.04977829      -0.05896423      -0.05066241       0.17819452       0.69249006
N        6.64606181       6.84804095       7.31257620      -0.65284147      -0.42069363      -1.37351486      -0.75835327      -0.57330244      -0.30217236
8
Lattice="11.874715709762633 0.0 0.0 0.0 11.874715709762633 0.0 0.0 0.0 11.874715709762633" Properties=species:S:1:pos:R:3:momenta:R:3:forces:R:3 energy=-438.64824771377 free_energy=-438.64824771377 stress="0.00062726759045477 -0.00033328449147232 -0.0001361651792472 -0.00033328449147232 -0.00021894914820306 0.0011908694650058 -0.0001361651792472 0.0011908694650058 0.00053685119705418" pbc="T T T"
B        5.70369088       5.32020828       5.01438917       0.84538372       0.65497835       1.17364038      -0.84461835      -0.69022490       0.12776131
H        7.03993717       5.89962833       7.20703423       0.04843549      -0.15014174       0.41771318       0.08541991      -0.21730702       0.28679281
H        7.21551954       7.64834999       7.05167835      -0.11166877       0.11915850      -0.22369966       0.43135565       0.49574470      -0.26844285
H        5.64475870       6.98763620       7.50086081      -0.20236311      -0.13949430       0.08823371       0.44214106      -0.22111867      -0.00485191
H        6.22002008       6.12392302       4.37385490       0.22286774       0.02126858      -0.00880218       0.14476880       0.99254192      -0.21956189
H        4.65919617       5.47951006       5.59465565      -0.21427566      -0.11950069      -0.04520920       0.83078309      -0.01481452      -0.34358646
H        6.11689721       4.22636572       4.77964785       0.10319072       0.05906065      -0.02346021      -0.06755787       0.21516401       0.74143666
N        6.65226742       6.84245342       7.30553239      -0.69156427      -0.44532856      -1.37793442      -1.02020976      -0.55947606      -0.30334533
8
Lattice="11.874428300785555 0.0 0.0 0.0 11.874428300785555 0.0 0.0 0.0 11.874428300785555" Properties=species:S:1:pos:R:3:momenta:R:3:forces:R:3 energy=-438.65020750335 free_energy=-438.65020750335 stress="0.0010555576845456 -0.00025347931011844 -0.0002961615077039 -0.00025347931011844 0.00016003144193792 0.0011476951106217 -0.0002961615077039 0.0011476951106217 0.00065479697118779" pbc="T T T"
B        5.71439676       5.31822121       5.01779298       0.79685712       0.61874337       1.16902931      -0.87287338      -0.58575058       0.04754735
H        7.04933735       5.88722908       7.22561635       0.05106101      -0.15311010       0.42864506       0.03646590       0.05122923       0.29083817
H        7.21758731       7.64978663       7.03858165      -0.09409110       0.13525372      -0.23350419       0.25027062       0.19525676      -0.19359060
H        5.64248974       6.97572218       7.50315387      -0.17078439      -0.14956819       0.08535089       0.78326608      -0.23186101      -0.08059794
H        6.23794626       6.12125637       4.37127443       0.22544401       0.06703271      -0.01644579       0.02849343       0.87761900      -0.09024499
H        4.65684099       5.46884599       5.59013672      -0.16798874      -0.11893860      -0.06355558       0.98876417       0.00134729      -0.41261847
H        6.12878444       4.22464167       4.77749874       0.09894194       0.06958931       0.01395665      -0.07371344       0.23172052       0.77925961
N        6.65673802       6.83595504       7.29875302      -0.73939950      -0.46898102      -1.38332372      -1.13836862      -0.53823521      -0.33842957
8
Lattice="11.874126932996944 0.0 0.0 0.0 11.874126932996944 0.0 0.0 0.0 11.874126932996944" Properties=species:S:1:pos:R:3:momenta:R:3:forces:R:3 energy=-438.65120171455 free_energy=-438.65120171455 stress="0.0013945801685307 -0.00013114423755569 -0.00043314508320551 -0.00013114423755569 0.000570313001786 0.0010636400276766 -0.00043314508320551 0.0010636400276766 0.00076953467296158" pbc="T T T"
B        5.72334543       5.31560212       5.02138051       0.74921905       0.58939435       1.15970506      -0.82922979      -0.42547041      -0.07806612
H        7.05726871       5.87452469       7.24494914       0.05111292      -0.14255874       0.43954568      -0.01877473       0.33374018       0.28211038
H        7.21874985       7.65115946       7.02531237      -0.08599269       0.13575417      -0.23910676       0.05163535      -0.13524264      -0.10191497
H        5.64061867       6.96282398       7.50543095      -0.12535913      -0.15959942       0.07927560       1.01719542      -0.22106990      -0.13985791
H        6.25432302       6.12018393       4.36869598       0.22179393       0.10575860      -0.01701767      -0.10949336       0.71958131       0.06281211
H        4.65537708       5.45774634       5.58486306      -0.11581589      -0.11741744      -0.08424853       1.08609210       0.02552106      -0.44765156
H        6.13892310       4.22296747       4.77742103       0.09471154       0.08035535       0.05274453      -0.06868346       0.22772761       0.80515207
N        6.65949460       6.82889337       7.29216089      -0.78961070      -0.49164555      -1.39110810      -1.12630810      -0.52267630      -0.39468014
8
Lattice="11.87381251385802 0.0 0.0 0.0 11.87381251385802 0.0 0.0 0.0 11.87381251385802" Properties=species:S:1:pos:R:3:momenta:R:3:forces:R:3 energy=-438.65295978238 free_energy=-438.65295978238 stress="0.0016154314585915 2.0016842840583e-05 -0.00053406228748223 2.0016842840583e-05 0.00096681189438178 0.00095032247460173 -0.00053406228748223 0.00095032247460173 0.00087331161474236" pbc="T T T"
B        5.73068259       5.31279007       5.02500792       0.70575523       0.56915739       1.14390146      -0.72376802      -0.22856563      -0.23330002
H        7.06373322       5.86258747       7.26489938       0.04857339      -0.11863569       0.44977947      -0.06943083       0.60041558       0.25924391
H        7.21866165       7.65208058       7.01197611      -0.08747324       0.12034806      -0.24003241      -0.13654153      -0.45338722      -0.00633116
H        5.63982116       6.94937093       7.50744016      -0.07176208      -0.16856225       0.07097908       1.13084486      -0.18968474      -0.17732470
H        6.26895736       6.12071644       4.36637235       0.21121553       0.13586189      -0.00977019      -0.25665140       0.53718561       0.22464159
H        4.65515087       5.44666869       5.57864399      -0.06082347      -0.11458096      -0.10562637       1.12034827       0.05659837      -0.44955226
H        6.14746132       4.22173193       4.77935000       0.09105076       0.09038024       0.09232196      -0.05256301       0.20430489       0.81888585
N        6.66067368       6.82167316       7.28562816      -0.83645989      -0.51390202      -1.40206218      -1.00937201      -0.52393511      -0.45917852
8
Lattice="11.873487207288344 0.0 0.0 0.0 11.873487207288344 0.0 0.0 0.0 11.873487207288344" Properties=species:S:1:pos:R:3:momenta:R:3:forces:R:3 energy=-438.65801719373 free_energy=-438.65801719373 stress="0.0017005079066063 0.00018615427858139 -0.00058923376932504 0.00018615427858139 0.0013102627648514 0.00082160843253914 -0.00058923376932504 0.00082160843253914 0.00095925775784974" pbc="T T T"
B        5.73662910       5.31023824       5.02849054       0.66914649       0.55926048       1.12052889      -0.56774470      -0.01421762      -0.40236883
H        7.06880643       5.85245416       7.28526495       0.04391206      -0.08281330       0.45866025      -0.10621025       0.82642449       0.22360283
H        7.21706766       7.65220336       6.99865200      -0.09741289       0.09060095      -0.23641845      -0.29255843      -0.72439487       0.08144718
H        5.64054509       6.93584791       7.50894768      -0.01600535      -0.17550902       0.06160355       1.12135251      -0.14007949      -0.18979282
H        6.28169800       6.12281633       4.36453953       0.19359734       0.15665532       0.00529910      -0.40075542       0.34823371       0.38080681
H        4.65641955       5.43609337       5.57133325      -0.00611659      -0.11012422      -0.12612603       1.09111245       0.09336955      -0.42022844
H        6.15463507       4.22128384       4.78315714       0.08847940       0.09876852       0.13208903      -0.02598502       0.16369519       0.82080421
N        6.66049156       6.81470283       7.27899182      -0.87550335      -0.53674767      -1.41630333      -0.81552915      -0.54968708      -0.52199057
8
Lattice="11.873154174910251 0.0 0.0 0.0 11.873154174910251 0.0 0.0 0.0 11.873154174910251" Properties=species:S:1:pos:R:3:momenta:R:3:forces:R:3 energy=-438.66874515264 free_energy=-438.66874515264 stress="0.0016433049631517 0.0003546072018795 -0.00059295994909704 0.0003546072018795 0.0015706472258276 0.00069189648936157 -0.00059295994909704 0.00069189648936157 0.0010220108045446" pbc="T T T"
B        5.74145217       5.30836563       5.03162035       0.64145069       0.55997620       1.08909509      -0.37189444       0.20022647      -0.57132981
H        7.07263340       5.84502390       7.30578944       0.03799041      -0.03759882       0.46555870      -0.12203551       0.99344468       0.17876846
H        7.21382918       7.65126077       6.98537955      -0.11380590       0.04951956      -0.22891370      -0.40190715      -0.92335789       0.15191509
H        5.64297969       6.92274673       7.50975818       0.03598943      -0.17961461       0.05237042       0.99368651      -0.07552021      -0.17588280
H        6.29243761       6.12639569       4.36339599       0.16936357       0.16824068       0.02752356      -0.53124885       0.16781888       0.51906475
H        4.65932499       5.42647733       5.56283831       0.04523614      -0.10379180      -0.14431053       0.99965185       0.13453428      -0.36238603
H        6.16074012       4.22189340       4.78866394       0.08745993       0.10475683       0.17144449       0.00987707       0.10918155       0.81178439
N        6.65921385       6.80834968       7.27207034      -0.90356541      -0.56139666      -1.43341587      -0.57141157      -0.60377849      -0.57727348
8
Lattice="11.872817242959034 0.0 0.0 0.0 11.872817242959034 0.0 0.0 0.0 11.872817242959034" Properties=species:S:1:pos:R:3:momenta:R:3:forces:R:3 energy=-438.68633635602 free_energy=-438.68633635602 stress="0.0014484592368816 0.00051430878679717 -0.00054391073627824 0.00051430878679717 0.0017283720949471 0.00057494613583094 -0.00054391073627824 0.00057494613583094 0.0010580695168892" pbc="T T T"
B        5.74544382       5.30751938       5.03418221       0.62416547       0.57074731       1.04963643      -0.14606737       0.40002242      -0.72869776
H        7.07542623       5.84098137       7.32618171       0.03195283       0.01377293       0.47000500      -0.11217728       1.08977090       0.12980286
H        7.20893961       7.64909084       6.97215003      -0.13408887       0.00109759      -0.21856607      -0.45638774      -1.03465736       0.19783176
H        5.64704916       6.91052552       7.50973075       0.07874245      -0.18021304       0.04449947       0.76037666       0.00001360      -0.13621434
H        6.30111858       6.13131768       4.36308649       0.13938928       0.17135690       0.05569619      -0.63989051       0.00765866       0.63011102
H        4.66387764       5.41821803       5.55312763       0.09027047      -0.09538494      -0.15889266       0.84922523       0.17863425      -0.27959549
H        6.16610983       4.22372640       4.79565589       0.08837493       0.10776477       0.20980535       0.05329882       0.04504800       0.79318015
N        6.65713223       6.80290579       7.26467878      -0.91867078      -0.58909300      -1.45264766      -0.30272255      -0.68614570      -0.62238516
8
Lattice="11.87248052928573 0.0 0.0 0.0 11.87248052928573 0.0 0.0 0.0 11.87248052928573" Properties=species:S:1:pos:R:3:momenta:R:3:forces:R:3 energy=-438.71025697308 free_energy=-438.71025697308 stress="0.0011321709401321 0.00065574748567862 -0.000445380667451 0.00065574748567862 0.0017742289321078 0.00048312696180794 -0.000445380667451 0.00048312696180794 0.0010659708031969" pbc="T T T"
B        5.74890508       5.30794718       5.03596852       0.61830174       0.59035002       1.00271286       0.10005146       0.57311128      -0.86499960
H        7.07746166       5.84074388       7.34613947       0.02711246       0.06764563       0.47178735      -0.07426384       1.10999744       0.08240027
H        7.20253041       7.64565017       6.95890131      -0.15541826      -0.05008752      -0.20671908      -0.45281309      -1.05046308       0.21398893
H        5.65242932       6.89957502       7.50878909       0.10762397      -0.17684689       0.03911458       0.44304266       0.08183124      -0.07404176
H        6.30773979       6.13739983       4.36369144       0.10490682       0.16722834       0.08821622      -0.72075797      -0.12370657       0.70750723
H        4.66995011       5.41162546       5.54223449       0.12624100      -0.08478485      -0.16878593       0.64575844       0.22397519      -0.17652712
H        6.17109736       4.22683036       4.80389654       0.09150505       0.10744792       0.24664069       0.10205510      -0.02359847       0.76669613
N        6.65454654       6.79856384       7.25664130      -0.92013005      -0.62097466      -1.47312308      -0.03706219      -0.79333400      -0.65633419
8
Lattice="11.872148054263974 0.0 0.0 0.0 11.872148054263974 0.0 0.0 0.0 11.872148054263974" Properties=species:S:1:pos:R:3:momenta:R:3:forces:R:3 energy=-438.73846160423 free_energy=-438.73846160423 stress="0.00072228691804991 0.00077084785278236 -0.00030554672555016 0.00077084785278236 0.0017086602803837 0.00042695350969983 -0.00030554672555016 0.00042695350969983 0.0010465026201668" pbc="T T T"
B        5.75213269       5.30977865       5.03679292       0.62439797       0.61704678       0.94943768       0.35548264       0.70978784      -0.97188583
H        7.07907515       5.84443197       7.36537627       0.02484400       0.12021356       0.47102012      -0.00813943       1.05437794       0.04241903
H        7.19486705       7.64101670       6.94551646      -0.17489647      -0.09922157      -0.19493068      -0.39166284      -0.96893114       0.19705132
H        5.65858955       6.89019019       7.50692536       0.11934700      -0.16932903       0.03710878       0.07364527       0.16473963       0.00420126
H        6.31236064       6.14441843       4.36522270       0.06741796       0.15743773       0.12322795      -0.77011019      -0.22051163       0.74739723
H        4.67728100       5.40690109       5.53025623       0.15079685      -0.07198463      -0.17317522       0.39917406       0.26856582      -0.05959628
H        6.17605894       4.23113136       4.81314294       0.09701218       0.10373929       0.28151324       0.15343076      -0.09079316       0.73443336
N        6.65174839       6.79540147       7.24780202      -0.90878884      -0.65797989      -1.49399730       0.19336695      -0.92075561      -0.67992814
8
Lattice="11.87182336315875 0.0 0.0 0.0 11.87182336315875 0.0 0.0 0.0 11.87182336315875" Properties=species:S:1:pos:R:3:momenta:R:3:forces:R:3 energy=-438.7683011993 free_energy=-438.7683011993 stress="0.00025831933717879 0.00085312443700927 -0.00013718541366432 0.00085312443700927 0.0015420569885597 0.00041383099582187 -0.00013718541366432 0.00041383099582187 0.0010022568988248" pbc="T T T"
B        5.75540584       5.31301522       5.03650432       0.64243996       0.64872186       0.89150178       0.60653919       0.80237692      -1.04096925
H        7.08064987       5.85186227       7.38365064       0.02645554       0.16785612       0.46817510       0.08359875       0.92991272       0.01517467
H        7.18633454       7.63538326       6.93182767      -0.18979113      -0.14161644      -0.18484380      -0.27781885      -0.79553258       0.14656423
H        5.66486205       6.88254714       7.50419668       0.11255197      -0.15778185       0.03898239      -0.30391608       0.24308459       0.08821323
H        6.31510063       6.15211512       4.36762669       0.02860029       0.14382024       0.15875257      -0.78562988      -0.27874307       0.74756632
H        4.68548882       5.40412346       5.51735072       0.16222123      -0.05711045      -0.17159879       0.12379705       0.31014492       0.06343363
H        6.18133682       4.23644010       4.82316360       0.10492395       0.09687505       0.31412115       0.20442564      -0.15053253       0.69820346
N        6.64900418       6.79337377       7.23803578      -0.88730865      -0.70085653      -1.51460082       0.35233858      -1.06398783      -0.69539007
8
Lattice="11.871509166473144 0.0 0.0 0.0 11.871509166473144 0.0 0.0 0.0 11.871509166473144" Properties=species:S:1:pos:R:3:momenta:R:3:forces:R:3 energy=-438.79768900902 free_energy=-438.79768900902 stress="-0.00021218998541731 0.00089812306131189 4.3165999319475e-05 0.00089812306131189 0.0012935866369514 0.00044745635145882 4.3165999319475e-05 0.00044745635145882 0.00093779143647114" pbc="T T T"
B        5.75897078       5.31752786       5.03500151       0.67168998       0.68298957       0.83115471       0.83580421       0.84495262      -1.06362807
H        7.08259754       5.86256408       7.40079536       0.03305050       0.20746569       0.46404270       0.19565231       0.74934616       0.00460653
H        7.17741192       7.62904231       6.91762803      -0.19774998      -0.17306774      -0.17803321      -0.12035985      -0.54270423       0.06482192
H        5.67053555       6.87668749       7.50071433       0.08823828      -0.14262780       0.04468311      -0.63926258       0.31145243       0.16440918
H        6.31613206       6.16020552       4.37079484      -0.00979198       0.12837009       0.19281108      -0.76645079      -0.29608385       0.70749885
H        4.69409725       5.40324115       5.50372952       0.15969458      -0.04042141      -0.16402164      -0.16062843       0.34625121       0.18301807
H        6.18723957       4.24246686       4.83375902       0.11511989       0.08740896       0.34432835       0.25183075      -0.19661083       0.65976213
N        6.64653591       6.79231301       7.22725969      -0.86020310      -0.75019141      -1.53442136       0.40513479      -1.21880543      -0.70186693
8
Lattice="11.871207069414899 0.0 0.0 0.0 11.871207069414899 0.0 0.0 0.0 11.871207069414899" Properties=species:S:1:pos:R:3:momenta:R:3:forces:R:3 energy=-438.82593194862 free_energy=-438.82593194862 stress="-0.00063836491789752 0.00090419498862462 0.00021695030317528 0.00090419498862462 0.00099165054625268 0.00052639400974914 0.00021695030317528 0.00052639400974914 0.0008593607575463" pbc="T T T"
B        5.76302485       5.32306547       5.03224976       0.71049339       0.71729018       0.77114899       1.02259165       0.83373982      -1.03091653
H        7.08533215       5.87582330       7.41674423       0.04536002       0.23681254       0.45961058       0.31925615       0.53263819       0.01224515
H        7.16863527       7.62236138       6.90269416      -0.19706925      -0.19030472      -0.17579674       0.06573344      -0.23285982      -0.04144395
H        5.67496595       6.87251444       7.49662715       0.04990279      -0.12453904       0.05349419      -0.88267133       0.36535655       0.21789184
H        6.31566883       6.16839426       4.37457992      -0.04601322       0.11316473       0.22349668      -0.71282741      -0.27147202       0.62787706
H        4.70257180       5.40407639       5.48965020       0.14350440      -0.02229624      -0.15088702      -0.43017080       0.37441625       0.28854426
H        6.19402231       4.24884569       4.84478340       0.12732668       0.07618193       0.37213989       0.29263643      -0.22366583       0.62040150
N        6.64450288       6.79193865       7.21544722      -0.83348047      -0.80635639      -1.55291296       0.32675815      -1.37929116      -0.69231510
8
Lattice="11.870917382536403 0.0 0.0 0.0 11.870917382536403 0.0 0.0 0.0 11.870917382536403" Properties=species:S:1:pos:R:3:momenta:R:3:forces:R:3 energy=-438.85381473176 free_energy=-438.85381473176 stress="-0.00097347577313162 0.00087316173303708 0.00036632359802536 0.00087316173303708 0.00067242869259079 0.00064316437999813 0.00036632359802536 0.00064316437999813 0.00077497981427079" pbc="T T T"
B        5.76770168       5.32927602       5.02829835       0.75614824       0.74897885       0.71461339       1.14516789       0.76763492      -0.93479664
H        7.08923782       5.89075460       7.43155137       0.06358618       0.25483321       0.45585187       0.44219899       0.30603070       0.03603590
H        7.16054983       7.61574836       6.88681935      -0.18696316      -0.19146205      -0.17896342       0.25902698       0.10048970      -0.16046155
H        5.67768423       6.86980435       7.49210209       0.00313175      -0.10435912       0.06403417      -0.99689402       0.40191274       0.23600709
H        6.31395384       6.17639846       4.37881529      -0.07840583       0.10026940       0.24901894      -0.62632790      -0.20538662       0.51077745
H        4.71036755       5.40634144       5.47540679       0.11519211      -0.00321779      -0.13316014      -0.65898560       0.39242196       0.36952057
H        6.20186909       4.25516902       4.85616440       0.14112635       0.06427570       0.39763377       0.32428078      -0.22770686       0.58079720
N        6.64298734       6.79188017       7.20264476      -0.81378770      -0.86934955      -1.56917686       0.11343607      -1.53619515      -0.65338788
8
Lattice="11.8706390664245 0.0 0.0 0.0 11.8706390664245 0.0 0.0 0.0 11.8706390664245" Properties=species:S:1:pos:R:3:momenta:R:3:forces:R:3 energy=-438.88294327345 free_energy=-438.88294327345 stress="-0.0011825071777052 0.00081058673031343 0.00047729699846906 0.00081058673031343 0.00037697792208172 0.00078418875827816 0.00047729699846906 0.00078418875827816 0.0006944265192858" pbc="T T T"
B        5.77306073       5.33574177       5.02329554       0.80498689       0.77549256       0.66491295       1.18496304       0.64937857      -0.76985001
H        7.09463378       5.90640005       7.44539634       0.08722651       0.26196782       0.45345450       0.54934691       0.10007511       0.06967633
H        7.15365307       7.60960631       6.86985364      -0.16790742      -0.17669467      -0.18764774       0.43248705       0.41365082      -0.27553740
H        5.67847605       6.86823608       7.48730606      -0.04517174      -0.08300604       0.07439208      -0.96706777       0.42024440       0.21209711
H        6.31124787       6.18398026       4.38333301      -0.10543940       0.09167682       0.26767785      -0.51011084      -0.10030883       0.35982375
H        4.71698599       5.40966939       5.46131637       0.07745380       0.01624726      -0.11229346      -0.82364303       0.39855636       0.41720882
H        6.21088101       4.26103275       4.86791634       0.15600731       0.05286294       0.42083948       0.34509352      -0.20698343       0.54099980
N        6.64198877       6.79171412       7.18898716      -0.80711308      -0.93859030      -1.58180539      -0.20844843      -1.67640848      -0.57352708
8
Lattice="11.870369822690954 0.0 0.0 0.0 11.870369822690954 0.0 0.0 0.0 11.870369822690954" Properties=species:S:1:pos:R:3:momenta:R:3:forces:R:3 energy=-438.91477348266 free_energy=-438.91477348266 stress="-0.0012469216506418 0.00072478541253545 0.00054157273227981 0.00072478541253545 0.00014530454319138 0.00093040233451603 0.00054157273227981 0.00093040233451603 0.00062809105092234" pbc="T T T"
B        5.77908942       5.34203238       5.01749661       0.85256663       0.79442078       0.62523213       1.13048556       0.48520231      -0.53793437
H        7.10174402       5.92185684       7.45857091       0.11507426       0.25997372       0.45261151       0.62513570      -0.05621519       0.10345527
H        7.14833482       7.60427853       6.85174866      -0.14162623      -0.14821470      -0.20120786       0.55788318       0.66012675      -0.36761108
H        5.67742253       6.86744226       7.48239350      -0.08828678      -0.06137060       0.08251592      -0.80597589       0.42148991       0.14827975
H        6.30782801       6.19099274       4.38797633      -0.12584831       0.08909421       0.27802615      -0.37011739       0.03732480       0.18232761
H        4.72203500       5.41366316       5.44770366       0.03407448       0.03548764      -0.09016116      -0.90535978       0.39204757       0.42646457
H        6.22107872       4.26609129       4.88014245       0.17136505       0.04323375       0.44170007       0.35365285      -0.16070664       0.50054442
N        6.64143502       6.79101910       7.17470704      -0.81727328      -1.01271197      -1.58908032      -0.58320793      -1.78302515      -0.45903999
8
Lattice="11.870106343733665 0.0 0.0 0.0 11.870106343733665 0.0 0.0 0.0 11.870106343733665" Properties=species:S:1:pos:R:3:momenta:R:3:forces:R:3 energy=-438.94984671643 free_energy=-438.94984671643 stress="-0.0011682840903245 0.00062603955637256 0.00055919975678021 0.00062603955637256 9.5771096579951e-06 0.0010615258386543 0.00055919975678021 0.0010615258386543 0.00058554793550341" pbc="T T T"
B        5.78571201       5.34776106       5.01125328       0.89428868       0.80395237       0.59855621       0.98346148       0.28845289      -0.24655378
H        7.11067178       5.93640002       7.47144270       0.14514119       0.25204854       0.45287250       0.65525000      -0.13952241       0.12493424
H        7.14482348       7.59999366       6.83259328      -0.11120955      -0.11056482      -0.21806740       0.61133528       0.79860415      -0.41848350
H        5.67487683       6.86706759       7.47750152      -0.12054062      -0.04024130       0.08656423      -0.54801383       0.40818591       0.05409149
H        6.30398393       6.19741773       4.39260483      -0.13870037       0.09384273       0.27890743      -0.21427335       0.19789690      -0.01287684
H        4.72528287       5.41794842       5.43487652      -0.01066211       0.05386978      -0.06880535      -0.89809450       0.37285800       0.39693376
H        6.23241099       4.27011268       4.89302115       0.18660412       0.03651775       0.46003999       0.35036068      -0.09209744       0.45862407
N        6.64120348       6.78943321       7.16012423      -0.84489771      -1.08955183      -1.58996225      -0.93857518      -1.83892925      -0.34160222
8
Lattice="11.869844726537709 0.0 0.0 0.0 11.869844726537709 0.0 0.0 0.0 11.869844726537709" Properties=species:S:1:pos:R:3:momenta:R:3:forces:R:3 energy=-438.98728902254 free_energy=-438.98728902254 stress="-0.00096416980357287 0.00052420562277019 0.00053653552055702 0.00052420562277019 -1.2404761447642e-05 0.0011585991529545 0.00053653552055702 0.0011585991529545 0.00057326192815647" pbc="T T T"
B        5.79281106       5.35263989       4.99915972       0.92596145       0.80298604       0.58715368       0.75824811       0.07735583       0.08706744
H        7.12138763       5.94958776       7.47857581       0.17492368       0.24207647       0.45327224       0.63065390      -0.13912430       0.12245828
H        7.14315093       7.59682128       6.80680409      -0.08054153      -0.06972056      -0.23592237       0.58073003       0.80633695      -0.41593657
H        5.67139780       6.86682682       7.46692336      -0.13843683      -0.02026408       0.08539467      -0.23959130       0.38383311      -0.05577892
H        6.30001865       6.20339273       4.39126891      -0.14356079       0.10657429       0.26983938      -0.05364778       0.36634181      -0.21270338
H        4.72669380       5.42222587       5.41727708      -0.05240354       0.07078659      -0.05007767      -0.80596557       0.34200675       0.33327357
H        6.24477633       4.27302344       4.90095506       0.20114447       0.03369377       0.47571885       0.33600868      -0.00541559       0.41438222
N        6.64115471       6.78670944       7.13978993      -0.88709047      -1.16624648      -1.58493893      -1.20586351      -1.83399014      -0.26132189
8
Lattice="11.869580949459712 0.0 0.0 0.0 11.869580949459712 0.0 0.0 0.0 11.869580949459712" Properties=species:S:1:pos:R:3:momenta:R:3:forces:R:3 energy=-439.02527189454 free_energy=-439.02527189454 stress="-0.00066477977757128 0.0004276106433558 0.00048504980991263 0.0004276106433558 7.9047631195173e-05 0.0012084140841134 0.00048504980991263 0.0012084140841134 0.00059257690743795" pbc="T T T"
B        5.80025172       5.35651670       4.98435983       0.94448174       0.79151242       0.59243875       0.48072231      -0.12475035       0.43938221
H        7.13372975       5.96131784       7.48302184       0.20166801       0.23408588       0.45251882       0.54959016      -0.05936012       0.08756215
H        7.14314596       7.59465198       6.77747151      -0.05369542      -0.03213666      -0.25199067       0.46964235       0.68577409      -0.35742135
H        5.66765690       6.86654569       7.45346260      -0.14079938      -0.00190831       0.07876824       0.07259109       0.35214286      -0.16607701
H        6.29624170       6.20920643       4.38655911      -0.14060620       0.12707761       0.25118493       0.09878482       0.52331821      -0.40178536
H        4.72643499       5.42630606       5.39781120      -0.08734421       0.08569464      -0.03534885      -0.64384216       0.30121451       0.24402125
H        6.25804625       4.27492897       4.90688709       0.21448170       0.03544185       0.48871241       0.31230368       0.09326648       0.36716760
N        6.64116476       6.78274980       7.11679110      -0.93818680      -1.23982981      -1.57616499      -1.33801846      -1.77494537      -0.22838613
8
Lattice="11.869311390076737 0.0 0.0 0.0 11.869311390076737 0.0 0.0 0.0 11.869311390076737" Properties=species:S:1:pos:R:3:momenta:R:3:forces:R:3 energy=-439.06060827164 free_energy=-439.06060827164 stress="-0.00030731076578667 0.00034286547146121 0.00041846141270401 0.00034286547146121 0.00026718029755021 0.0012053820530227 0.00041846141270401 0.0012053820530227 0.00064394551717232" pbc="T T T"
B        5.80642426       5.35938272       4.97022199       0.94827026       0.77080496       0.61464144       0.18372383      -0.29155019       0.78349924
H        7.14593778       5.97181855       7.48798479       0.22276653       0.23153471       0.44915832       0.41839009       0.08197365       0.01837881
H        7.14298117       7.59321021       6.74804598      -0.03417039      -0.00345920      -0.26361896       0.29589476       0.46287862      -0.25255681
H        5.66286037       6.86617335       7.44015385      -0.12860081       0.01456052       0.06722603       0.34979421       0.31672663      -0.26324765
H        6.29147326       6.21525547       4.38132660      -0.13068411       0.15414825       0.22416553       0.22962306       0.64700407      -0.56406983
H        4.72337361       5.43011723       5.37955298      -0.11265067       0.09817731      -0.02542877      -0.43350494       0.25265354       0.13974393
H        6.27060600       4.27610118       4.91398310       0.22621660       0.04212366       0.49906618       0.28151935       0.19692610       0.31671087
N        6.63966919       6.77760645       7.09442688      -0.99111263      -1.30800776      -1.56564634      -1.32271010      -1.67358927      -0.18573338
8
Lattice="11.869033182833627 0.0 0.0 0.0 11.869033182833627 0.0 0.0 0.0 11.869033182833627" Properties=species:S:1:pos:R:3:momenta:R:3:forces:R:3 energy=-439.09029076844 free_energy=-439.09029076844 stress="6.9238013848607e-05 0.00027462991145699 0.00035019592466319 0.00027462991145699 0.00052460140429819 0.001152077941188 0.00035019592466319 0.001152077941188 0.00072590215723935" pbc="T T T"
B        5.80792184       5.36135303       4.95708996       0.93745939       0.74344989       0.65245753      -0.09928009      -0.39750161       1.09320005
H        7.15434084       5.98157923       7.49356482       0.23614658       0.23676716       0.44162292       0.24988458       0.25852126      -0.07991800
H        7.13888909       7.59209657       6.71906048      -0.02431009       0.01241830      -0.26910595       0.08642537       0.17910984      -0.11903130
H        5.65432652       6.86576676       7.42704164      -0.10443890       0.02907383       0.05166452       0.56503335       0.28098104      -0.33649873
H        6.28268245       6.22196842       4.37546836      -0.11525299       0.18556606       0.19052147       0.32719582       0.71639029      -0.68511877
H        4.71469234       5.43368644       5.36251764      -0.12667144       0.10796341      -0.02081537      -0.19928068       0.19870471       0.03129500
H        6.27903133       4.27693661       4.92237911       0.23609250       0.05376369       0.50661779       0.24618622       0.29841859       0.26326173
N        6.63333504       6.77145334       7.07297179      -1.03901375      -1.36915525      -1.55295383      -1.17833916      -1.53821281      -0.14970936
8
Lattice="11.868744441647461 0.0 0.0 0.0 11.868744441647461 0.0 0.0 0.0 11.868744441647461" Properties=species:S:1:pos:R:3:momenta:R:3:forces:R:3 energy=-439.1142060465 free_energy=-439.1142060465 stress="0.00042858728739601 0.00022562179663569 0.00029178503591085 0.00022562179663569 0.00081895291727267 0.0010577225706684 0.00029178503591085 0.0010577225706684 0.00082979177817496" pbc="T T T"
B        5.80930914       5.36263177       4.94528697       0.91375965       0.71308500       0.70334889      -0.34022270      -0.42308404       1.34732738
H        7.16315305       5.99124289       7.49977784       0.24053746       0.25068886       0.42866666       0.06092862       0.44091894      -0.19747691
H        7.13499085       7.59084771       6.69109215      -0.02501726       0.01375641      -0.26781994      -0.12980573      -0.11984608       0.02353978
H        5.64718421       6.86545659       7.41421093      -0.07190809       0.04168010       0.03331110       0.70258414       0.24764744      -0.37967963
H        6.27472231       6.22971487       4.36896660      -0.09620282       0.21819589       0.15248411       0.38393081       0.71563698      -0.75472809
H        4.70559139       5.43710352       5.34669393      -0.12893156       0.11486478      -0.02158482       0.03577442       0.14175013      -0.07165723
H        6.28785753       4.27789674       4.93218854       0.24401950       0.07000339       0.51115586       0.20884430       0.39121667       0.20759148
N        6.62681841       6.76454381       7.05268884      -1.07634124      -1.42230542      -1.53910604      -0.92437244      -1.39496331      -0.16847937
8
Lattice="11.868444434430446 0.0 0.0 0.0 11.868444434430446 0.0 0.0 0.0 11.868444434430446" Properties=species:S:1:pos:R:3:momenta:R:3:forces:R:3 energy=-439.13435223229 free_energy=-439.13435223229 stress="0.00074012630901283 0.00019715879290764 0.00025186161002335 0.00019715879290764 0.0011183099632287 0.00093545266660639 0.00025186161002335 0.00093545266660639 0.00094395462947213" pbc="T T T"
B        5.81047836       5.36346840       4.93507505       0.87997200       0.68400476       0.76426625      -0.52062576      -0.35881666       1.53325963
H        7.17186354       6.00148793       7.50655690       0.23551571       0.27282891       0.40989358      -0.13054478       0.60282737      -0.32177026
H        7.13071479       7.58899935       6.66469006      -0.03587191       0.00096874      -0.25979292      -0.32773838      -0.39424650       0.15645529
H        5.64168619       6.86540674       7.40177817      -0.03511916       0.05255687       0.01386145       0.75589899       0.21869567      -0.39066120
H        6.26766153       6.23872239       4.36188753      -0.07565624       0.24840592       0.11287070       0.39801339       0.63803680      -0.76920429
H        4.69658090       5.44047947       5.33204384      -0.12003916       0.11881950      -0.02710421       0.25256209       0.08400155      -0.16170392
H        6.29693416       4.27944509       4.94348073       0.25000090       0.09020428       0.51280374       0.17182664       0.46995911       0.15083625
N        6.62010966       6.75715923       7.03378583      -1.09886428      -1.46779432      -1.52683459      -0.60332915      -1.26162030      -0.21445703
8
Lattice="11.868133575614554 0.0 0.0 0.0 11.868133575614554 0.0 0.0 0.0 11.868133575614554" Properties=species:S:1:pos:R:3:momenta:R:3:forces:R:3 energy=-439.15295902987 free_energy=-439.15295902987 stress="0.00098056718598243 0.00018879541704488 0.00023559601971354 0.00018879541704488 0.0013951630903719 0.00080075310585187 0.00023559601971354 0.00080075310585187 0.0010584036926373" pbc="T T T"
B        5.81136247       5.36411598       4.92663252       0.83946795       0.66061990       0.83184909      -0.63236148      -0.20712049       1.64812591
H        7.17998856       6.01292348       7.51376378       0.22149922       0.30161750       0.38556492      -0.30810705       0.72430710      -0.43962496
H        7.12556588       7.58614032       6.64031333      -0.05539040      -0.02379486      -0.24583867      -0.48893891      -0.61480429       0.26388423
H        5.63790645       6.86577750       7.38987721       0.00175076       0.06200436      -0.00493937       0.72647155       0.19570230      -0.36969831
H        6.26149122       6.24902139       4.35436979      -0.05564658       0.27259501       0.07449551       0.37353127       0.48780245      -0.73199554
H        4.68814501       5.44391013       5.31850223      -0.10141433       0.11990709      -0.03640031       0.43692502       0.02740485      -0.23397805
H        6.30613959       4.28199325       4.95626489       0.25413534       0.11354994       0.51177108       0.13710999       0.53075752       0.09430073
N        6.61323665       6.74956198       7.01639530      -1.10454679      -1.50647493      -1.51698970      -0.25402610      -1.13912794      -0.24449056
8
Lattice="11.867813238403999 0.0 0.0 0.0 11.867813238403999 0.0 0.0 0.0 11.867813238403999" Properties=species:S:1:pos:R:3:momenta:R:3:forces:R:3 energy=-439.17185557789 free_energy=-439.17185557789 stress="0.0011352246755119 0.00019842230852121 0.00024505351263402 0.00019842230852121 0.0016274056952196 0.00066962743436405 0.00024505351263402 0.00066962743436405 0.001164068028992" pbc="T T T"
B        5.81193201       5.36480202       4.92005447       0.79574804       0.64680891       0.90257550      -0.67594487       0.01846648       1.69728125
H        7.18710704       6.02601224       7.52120926       0.19966300       0.33465218       0.35629381      -0.45806474       0.79276222      -0.53865382
H        7.11916591       7.58195120       6.61828531      -0.08133634      -0.05728421      -0.22766046      -0.60169927      -0.76280252       0.33446621
H        5.63574375       6.86669879       7.37864694       0.03485638       0.07033733      -0.02168936       0.62242139       0.17957816      -0.31950576
H        6.25613335       6.26042729       4.34660398      -0.03782371       0.28761400       0.03956462       0.31916952       0.27907060      -0.65242094
H        4.68070620       5.44745052       5.30597806      -0.07499857       0.11824758      -0.04857104       0.57931569      -0.02637634      -0.28580243
H        6.31538216       4.28586204       4.97048225       0.25663027       0.13904023       0.50806345       0.10619704       0.57133986       0.03933638
N        6.60625289       6.74196687       7.00058352      -1.09294684      -1.53915208      -1.50866696       0.10295133      -1.03969518      -0.26198498
8
Lattice="11.867485520575434 0.0 0.0 0.0 11.867485520575434 0.0 0.0 0.0 11.867485520575434" Properties=species:S:1:pos:R:3:momenta:R:3:forces:R:3 energy=-439.19273437591 free_energy=-439.19273437591 stress="0.0011978444548545 0.00022224588293005 0.00027945695907404 0.00022224588293005 0.0017976856761842 0.00055629744649989 0.00027945695907404 0.00055629744649989 0.001251244757908" pbc="T T T"
B        5.81219183       5.36570672       4.91535561       0.75201903       0.64551997       0.97327817      -0.65774630       0.29649036       1.69147144
H        7.19288679       6.04102244       7.52867903       0.17168419       0.36910858       0.32313688      -0.56993857       0.80257271      -0.60844034
H        7.11127463       7.57622773       6.59876562      -0.11113482      -0.09562388      -0.20746450      -0.65984610      -0.82836008       0.36139347
H        5.63493824       6.86825330       7.36822167       0.06090888       0.07787369      -0.03529440       0.45745768       0.17020765      -0.24542342
H        6.25145754       6.27255732       4.33880649      -0.02338076       0.29120101       0.00961404       0.24606558       0.03268183      -0.54330897
H        4.67459873       5.45109975       5.29435813      -0.04313935       0.11401938      -0.06272155       0.67406158      -0.07596315      -0.31619617
H        6.32459794       4.29125779       4.98600624       0.25769101       0.16559298       0.50164910       0.08011777       0.59092686      -0.01275684
N        6.59923070       6.73452210       6.98635490      -1.06471060      -1.56743794      -1.50181367       0.42885146      -0.98205483      -0.31082810
8
Lattice="11.867153042080982 0.0 0.0 0.0 11.867153042080982 0.0 0.0 0.0 11.867153042080982" Properties=species:S:1:pos:R:3:momenta:R:3:forces:R:3 energy=-439.21639640179 free_energy=-439.21639640179 stress="0.0011702217332114 0.00025530440495463 0.00033487390374333 0.00025530440495463 0.0018943581714065 0.00047265527397801 0.00033487390374333 0.00047265527397801 0.0013117537962329" pbc="T T T"
B        5.81217385       5.36694428       4.91246669       0.71101791       0.65856954       1.04157956      -0.58696057       0.60211759       1.64404209
H        7.19710223       6.05800728       7.53596137       0.13969618       0.40209473       0.28786035      -0.63655886       0.75333390      -0.64163020
H        7.10179666       7.56889170       6.58173954      -0.14199395      -0.13449493      -0.18744554      -0.66162952      -0.80847112       0.34143425
H        5.63510192       6.87046656       7.35872155       0.07740589       0.08500163      -0.04472081       0.25098486       0.16641707      -0.15517163
H        6.24730300       6.28487240       4.33119167      -0.01294122       0.28229263      -0.01423927       0.16554427      -0.22806385      -0.41844858
H        4.67005081       5.45479477       5.28351300      -0.00832645       0.10756015      -0.07771461       0.71859936      -0.12027475      -0.32544408
H        6.33374744       4.29826134       5.00264932       0.25754745       0.19225590       0.49278137       0.05944293       0.58996881      -0.06090015
N        6.59225041       6.72729202       6.97363935      -1.02240619      -1.59321192      -1.49782054       0.69103782      -0.95325558      -0.37828662
8
Lattice="11.866818703347395 0.0 0.0 0.0 11.866818703347395 0.0 0.0 0.0 11.866818703347395" Properties=species:S:1:pos:R:3:momenta:R:3:forces:R:3 energy=-439.2421628151 free_energy=-439.2421628151 stress="0.0010616797531728 0.00029223612425245 0.00040492828684196 0.00029223612425245 0.0019123591575837 0.00042780048615109 0.00040492828684196 0.00042780048615109 0.0013411159791794" pbc="T T T"
B        5.81192502       5.36855376       4.91124159       0.67506270       0.68653042       1.10590145      -0.47308016       0.91126200       1.56899134
H        7.19964502       6.07679717       7.54287300       0.10606839       0.43086498       0.25249436      -0.65371266       0.64879143      -0.63308653
H        7.09077913       7.55999344       6.56701759      -0.17117820      -0.16977184      -0.16977739      -0.60868820      -0.70529040       0.27428668
H        5.63575550       6.87329840       7.35024191       0.08310202       0.09195224      -0.04937860       0.02690644       0.16577641      -0.05842502
H        6.24349846       6.29672737       4.32394570      -0.00655231       0.26091243      -0.03151846       0.08732175      -0.48135904      -0.29065080
H        4.66717368       5.45840717       5.27330220       0.02693223       0.09919141      -0.09241815       0.71283529      -0.15860930      -0.31501032
H        6.34280881       4.30682526       5.02017194       0.25650081       0.21805040       0.48180382       0.04424902       0.57016647      -0.10419587
N        6.58538446       6.72025525       6.96229546      -0.96990810      -1.61771956      -1.49708145       0.86577521      -0.94951732      -0.44596178
8
Lattice="11.866485396535484 0.0 0.0 0.0 11.866485396535484 0.0 0.0 0.0 11.866485396535484" Properties=species:S:1:pos:R:3:momenta:R:3:forces:R:3 energy=-439.2685204814 free_energy=-439.2685204814 stress="0.00088926570919568 0.00032771197119476 0.0004816304378108 0.00032771197119476 0.0018538650109918 0.00042586414411776 0.0004816304378108 0.00042586414411776 0.0013390465449748" pbc="T T T"
B        5.81150369       5.37050150       4.91147749       0.64598021       0.72880511       1.16522573      -0.32461195       1.20322388       1.47898722
H        7.20052658       6.09702157       7.54927845       0.07325083       0.45294782       0.21912516      -0.62169890       0.49825155      -0.58169992
H        7.07839930       7.54970339       6.55425032      -0.19616723      -0.19765717      -0.15664118      -0.50739098      -0.52797337       0.16352890
H        5.63639113       6.87664218       7.34283892       0.07799228       0.09876215      -0.04928833      -0.18599413       0.16467426       0.03306914
H        6.23988347       6.30743025       4.31720694      -0.00385406       0.22802263      -0.04241005       0.01904497      -0.70848787      -0.17064769
H        4.66595882       5.46175034       5.26358280       0.06019315       0.08921602      -0.10589014       0.65793494      -0.19044441      -0.28661960
H        6.35177636       4.31678200       5.03829694       0.25482603       0.24207101       0.46899622       0.03446159       0.53322856      -0.14220554
N        6.57869182       6.71331377       6.95213094      -0.91216632      -1.64217145      -1.49928401       0.93095977      -0.97281703      -0.50373470
8
Lattice="11.866155703180661 0.0 0.0 0.0 11.866155703180661 0.0 0.0 0.0 11.866155703180661" Properties=species:S:1:pos:R:3:momenta:R:3:forces:R:3 energy=-439.29377372275 free_energy=-439.29377372275 stress="0.00067337881186983 0.00035681853773196 0.00055631912689415 0.00035681853773196 0.0017274589135015 0.00046648843819454 0.00055631912689415 0.00046648843819454 0.0013079515071499" pbc="T T T"
B        5.81097345       5.37268071       4.91292897       0.62517596       0.78392376       1.21910668      -0.14950458       1.46143323       1.38471606
H        7.19987524       6.11813393       7.55510460       0.04360034       0.46642301       0.18979946      -0.54343391       0.31286482      -0.48874441
H        7.06494706       7.53829864       6.54294521      -0.21484790      -0.21492167      -0.14998791      -0.36693543      -0.29034407       0.01570327
H        5.63653034       6.88032201       7.33651340       0.06338505       0.10530431      -0.04505124      -0.36175310       0.15878636       0.10839305
H        6.23632141       6.31629040       4.31105111      -0.00419027       0.18538649      -0.04758741      -0.03445171      -0.89640515      -0.06609951
H        4.66628047       5.46458595       5.25421329       0.08917558       0.07797647      -0.11735374       0.55801637      -0.21571920      -0.24302813
H        6.36065514       4.32785706       5.05672063       0.25277223       0.26358831       0.45462832       0.02920744       0.48263552      -0.17474109
N        6.57221023       6.70629687       6.94291564      -0.85498942      -1.66777978      -1.50382234       0.87259285      -1.01849295      -0.54750491
8
Lattice="11.86583170540342 0.0 0.0 0.0 11.86583170540342 0.0 0.0 0.0 11.86583170540342" Properties=species:S:1:pos:R:3:momenta:R:3:forces:R:3 energy=-439.31661560543 free_energy=-439.31661560543 stress="0.0004375957852609 0.00037615617315624 0.00062127471168249 0.00037615617315624 0.0015488011880339 0.00054388687557388 0.00062127471168249 0.00054388687557388 0.0012540658704219" pbc="T T T"
B        5.81040156       5.37492273       4.91532292       0.61367377       0.84978951       1.26763322       0.04454463       1.67412141       1.29531299
H        7.19792602       6.13945830       7.56034697       0.01914742       0.47010775       0.16632265      -0.42703460       0.10785987      -0.36082863
H        7.05079936       7.52613991       6.53249745      -0.22575349      -0.21930337      -0.15127456      -0.20203882      -0.01532097      -0.15711100
H        5.63578909       6.88409801       7.33119614       0.04179405       0.11126086      -0.03778147      -0.47816483       0.14371375       0.15800624
H        6.23271152       6.32266602       4.30548474      -0.00671783       0.13532469      -0.04804805      -0.07019880      -1.03611810       0.01751219
H        4.66790568       5.46663979       5.24505924       0.11186105       0.06583207      -0.12618496       0.41883457      -0.23465178      -0.18726358
H        6.36946005       4.33969180       5.07512604       0.25055436       0.28205761       0.43898053       0.02758647       0.42145378      -0.20192042
N        6.56595425       6.69897622       6.93439462      -0.80444010      -1.69529906      -1.50992284       0.69150994      -1.07104633      -0.57349883
8
Lattice="11.86551478303415 0.0 0.0 0.0 11.86551478303415 0.0 0.0 0.0 11.86551478303415" Properties=species:S:1:pos:R:3:momenta:R:3:forces:R:3 energy=-439.33665495874 free_energy=-439.33665495874 stress="0.00020560342501885 0.00038428551107628 0.00067122726632408 0.00038428551107628 0.0013394314328393 0.00064762098971171 0.00067122726632408 0.00064762098971171 0.0011870715016609" pbc="T T T"
B        5.80985980       5.37701903       4.91837543       0.61208923       0.92385223       1.31133466       0.24910956       1.83367899       1.21894767
H        7.19500223       6.16025045       7.56506734       0.00137143       0.46363390       0.15001039      -0.28561212      -0.09910323      -0.21020057
H        7.03638639       7.51363892       6.52223395      -0.22828078      -0.20992237      -0.16122503      -0.03205305       0.26567680      -0.33761683
H        5.63393102       6.88767980       7.32674039       0.01654448       0.11611521      -0.02895865      -0.52251790       0.11608220       0.17605989
H        6.22899754       6.32600739       4.30044744      -0.01050351       0.08045062      -0.04499916      -0.08685230      -1.12255806       0.07652894
H        4.67051255       5.46762471       5.23599980       0.12661277       0.05310017      -0.13193942       0.24871791      -0.24787733      -0.12301291
H        6.37821594       4.35187586       5.09319754       0.24833394       0.29709551       0.42232679       0.02847578       0.35293326      -0.22399746
N        6.55991822       6.69109288       6.92630339      -0.76601917      -1.72458702      -1.51670332       0.40587821      -1.10854606      -0.58036372
8
Lattice="11.865205488263946 0.0 0.0 0.0 11.865205488263946 0.0 0.0 0.0 11.865205488263946" Properties=species:S:1:pos:R:3:momenta:R:3:forces:R:3 energy=-439.35476277423 free_energy=-439.35476277423 stress="-8.2966871023516e-07 0.00038173016013279 0.00070438674452967 0.00038173016013279 0.0011241957994518 0.00076347216111339 0.00070438674452967 0.00076347216111339 0.0011193613400156" pbc="T T T"
B        5.80942754       5.37875464       4.92181282       0.62059295       1.00329887       1.35114905       0.45406981       1.93569425       1.16304954
H        7.19148844       6.17977413       7.56938233      -0.00904894       0.44751650       0.14139850      -0.13689817      -0.28929999      -0.05475215
H        7.02215008       7.50121631       6.51147408      -0.22286206      -0.18767855      -0.17957669       0.12070605       0.51482264      -0.50413948
H        5.63090072       6.89075257       7.32292786      -0.00870484       0.11920005      -0.02021473      -0.49379088       0.07468231       0.16168397
H        6.22517576       6.32590038       4.29582315      -0.01458021       0.02348497      -0.03979783      -0.08415116      -1.15359034       0.10863588
H        4.67371705       5.46727235       5.22693754       0.13229891       0.04001978      -0.13438508       0.05888863      -0.25637452      -0.05447255
H        6.38696008       4.36398918       5.11063883       0.24622141       0.30844812       0.40491196       0.03058424       0.28033563      -0.24144798
N        6.55408475       6.68239596       6.91838740      -0.74381649      -1.75443136      -1.52342654       0.05245733      -1.10986126      -0.57357865
8
Lattice="11.864903505207527 0.0 0.0 0.0 11.864903505207527 0.0 0.0 0.0 11.864903505207527" Properties=species:S:1:pos:R:3:momenta:R:3:forces:R:3 energy=-439.37291041934 free_energy=-439.37291041934 stress="-0.00016428523371707 0.00037051894339742 0.00072290014538564 0.00037051894339742 0.00092683287474541 0.0008757673339881 0.00072290014538564 0.0008757673339881 0.0010643109453499" pbc="T T T"
B        5.80919768       5.37995026       4.92539765       0.63879056       1.08517440       1.38831966       0.64717420       1.97822178       1.13432333
H        7.18779482       6.19738814       7.57344405      -0.01231932       0.42309839       0.14008124      -0.00100463      -0.44583157       0.08392525
H        7.00849938       7.48925234       6.49960751      -0.21095583      -0.15527444      -0.20499797       0.23510655       0.69426545      -0.63388533
H        5.62683444       6.89301611       7.31949237      -0.03063690       0.11987507      -0.01304789      -0.40301243       0.02103424       0.11919531
H        6.22130378       6.32211219       4.29145945      -0.01798723      -0.03286461      -0.03384411      -0.06259272      -1.12932052       0.11250989
H        4.67710868       5.46537288       5.21781290       0.12845862       0.02676224      -0.13349281      -0.13654798      -0.26137042       0.01379812
H        6.39574803       4.37565117       5.12719607       0.24426715       0.31601773       0.38694900       0.03254330       0.20683891      -0.25484830
N        6.54843942       6.67268928       6.91042526      -0.73962665      -1.78274150      -1.52972621      -0.31394863      -1.05945813      -0.56367589
8
Lattice="11.864607734067732 0.0 0.0 0.0 11.864607734067732 0.0 0.0 0.0 11.864607734067732" Properties=species:S:1:pos:R:3:momenta:R:3:forces:R:3 energy=-439.39336667304 free_energy=-439.39336667304 stress="-0.00027195249782987 0.00035341952283428 0.00073222799115014 0.00035341952283428 0.00076596687894509 0.00096980205817849 0.00073222799115014 0.00096980205817849 0.0010345604442593" pbc="T T T"
B        5.80927877       5.38049845       4.92895314       0.66561360       1.16649774       1.42433923       0.81430457       1.96173531       1.13843436
H        7.18431689       6.21262151       7.57741586      -0.00963185       0.39244442       0.14461075       0.10219729      -0.55573687       0.18337196
H        6.99576728       7.47803990       6.48617092      -0.19490090      -0.11702380      -0.23509180       0.29538477       0.77341508      -0.70698985
H        5.62203197       6.89422785       7.31615726      -0.04672538       0.11765360      -0.00860270      -0.26897138      -0.04120465       0.05635657
H        6.21750318       6.31462584       4.28719187      -0.01982645      -0.08596662      -0.02852462      -0.02326391      -1.05172624       0.08772509
H        4.68029084       5.46180978       5.20861853       0.11537732       0.01345615      -0.12942240      -0.32125382      -0.26412373       0.07733379
H        6.40465370       4.38656783       5.14268023       0.24243054       0.31988296       0.36863238       0.03308072       0.13500792      -0.26495787
N        6.54298528       6.66187094       6.90225067      -0.75240914      -1.80675906      -1.53564862      -0.63482308      -0.94905462      -0.56017652
8
Lattice="11.864316451179429 0.0 0.0 0.0 11.864316451179429 0.0 0.0 0.0 11.864316451179429" Properties=species:S:1:pos:R:3:momenta:R:3:forces:R:3 energy=-439.41754057834 free_energy=-439.41754057834 stress="-0.00031755330530289 0.0003329333922218 0.00073974765278636 0.0003329333922218 0.00065101411958036 0.0010353556748345 0.00073974765278636 0.0010353556748345 0.0010393743433747" pbc="T T T"
B        5.80979865       5.38039659       4.93239109       0.69927509       1.24444433       1.46093539       0.94092585       1.88906752       1.17927465
H        7.18139270       6.22523722       7.58144577      -0.00307327       0.35808593       0.15254115       0.15765926      -0.61318917       0.22516538
H        6.98417972       7.46774674       6.47092302      -0.17756925      -0.07826996      -0.26667997       0.29594257       0.73809344      -0.71194734
H        5.61691776       6.89424525       7.31268206      -0.05549139       0.11229312      -0.00757428      -0.11459591      -0.10691447      -0.01720401
H        6.21396203       6.30366851       4.28287068      -0.01930534      -0.13332566      -0.02518986       0.03204470      -0.92487220       0.03488850
H        4.68292375       5.45659069       5.19941665       0.09410765       0.00020257      -0.12250898      -0.47807193      -0.26573406       0.13209629
H        6.41377222       4.39656971       5.15699260       0.24059431       0.32022530       0.35013543       0.03113863       0.06691573      -0.27238892
N        6.53775977       6.64996751       6.89377770      -0.77860964      -1.82347332      -1.54147120      -0.86793230      -0.77773698      -0.56449146
8
Lattice="11.864027579495298 0.0 0.0 0.0 11.864027579495298 0.0 0.0 0.0 11.864027579495298" Properties=species:S:1:pos:R:3:momenta:R:3:forces:R:3 energy=-439.44504411699 free_energy=-439.44504411699 stress="-0.00030137236943203 0.00031071490191989 0.00075275543648355 0.00031071490191989 0.00058138960362303 0.0010686855836916 0.00075275543648355 0.0010686855836916 0.0010829977456951" pbc="T T T"
B        5.81089848       5.37975937       4.93573287       0.73732720       1.31639942       1.49988989       1.01435254       1.76558325       1.25800970
H        7.17926545       6.23525716       7.58564382       0.00477282       0.32261083       0.16076889       0.15849602      -0.62060161       0.19920544
H        6.97384150       7.45839793       6.45389070      -0.16177270      -0.04444694      -0.29633800       0.24255110       0.59449150      -0.64856484
H        5.61198277       6.89305090       7.30890603      -0.05659262       0.10383378      -0.01017224       0.03794809      -0.17058029      -0.09196497
H        6.21092749       6.28971336       4.27838376      -0.01575029      -0.17271922      -0.02510140       0.10063146      -0.75533185      -0.04390227
H        4.68476213       5.44985758       5.19035019       0.06650968      -0.01292149      -0.11325772      -0.59106381      -0.26685435       0.17501293
H        6.42321455       4.40562965       5.17014346       0.23858969       0.31734167       0.33159804       0.02590323       0.00416580      -0.27761983
N        6.53283933       6.63714597       6.88502099      -0.81315175      -1.83002321      -1.54733832      -0.99168894      -0.55062997      -0.56933393
8
Lattice="11.863738981773983 0.0 0.0 0.0 11.863738981773983 0.0 0.0 0.0 11.863738981773983" Properties=species:S:1:pos:R:3:momenta:R:3:forces:R:3 energy=-439.47370925925 free_energy=-439.47370925925 stress="-0.00022995768305561 0.00028792830087884 0.00077674334549093 0.00028792830087884 0.00054821982760072 0.0010723474575866 0.00077674334549093 0.0010723474575866 0.0011636468542278" pbc="T T T"
B        5.81271828       5.37880997       4.93911912       0.77685809       1.38011310       1.54288995       1.02644062       1.59974343       1.37180699
H        7.17805779       6.24294385       7.59006851       0.01127686       0.28826353       0.16597860       0.10764748      -0.58770907       0.10650884
H        6.96474088       7.44988351       6.43537517      -0.14976365      -0.02017711      -0.32098706       0.15024240       0.36727661      -0.52775005
H        5.60771959       6.89075488       7.30477935      -0.05067874       0.09255848      -0.01620492       0.17018836      -0.22725979      -0.15985471
H        6.20868762       6.27345152       4.27367047      -0.00864659      -0.20236622      -0.02938119       0.17859098      -0.55277280      -0.14434535
H        4.68568119       5.44187429       5.18164360       0.03512621      -0.02586977      -0.10231733      -0.64801327      -0.26746251       0.20452122
H        6.43309457       4.41385547       5.18225912       0.23623686       0.31157001       0.31310880       0.01690516      -0.05230494      -0.28100633
N        6.52833103       6.62370228       6.87610642      -0.85047883      -1.82414725      -1.55311245      -1.00498082      -0.28462575      -0.57205797
8
Lattice="11.863448740551046 0.0 0.0 0.0 11.863448740551046 0.0 0.0 0.0 11.863448740551046" Properties=species:S:1:pos:R:3:momenta:R:3:forces:R:3 energy=-439.50069502978 free_energy=-439.50069502978 stress="-0.00011482164742886 0.00026587744657052 0.00081418971778902 0.00026587744657052 0.00053832317691068 0.0010527792166706 0.00081418971778902 0.0010527792166706 0.0012739426090377" pbc="T T T"
B        5.81537717       5.37785081       4.94280183       0.81479101       1.43388758       1.59137430       0.97601118       1.40329772       1.51289336
H        7.17776260       6.24874415       7.59472397       0.01420529       0.25666178       0.16520701       0.01675311      -0.52888814      -0.04126804
H        6.95676862       7.44198835       6.41591541      -0.14291658      -0.00855261      -0.33834045       0.03868413       0.09231990      -0.36814756
H        5.60456028       6.88757447       7.30037449      -0.03917476       0.07894618      -0.02515262       0.26876730      -0.27324441      -0.21500677
H        6.20754341       6.25573528       4.26872477       0.00228388      -0.22109535      -0.03886514       0.26057045      -0.33034266      -0.25922386
H        4.68568615       5.43299436       5.17359136       0.00292702      -0.03859552      -0.09038019      -0.64255328      -0.26681024       0.22079213
H        6.44351035       4.42146039       5.19357365       0.23335148       0.30327195       0.29474081       0.00397562      -0.10204426      -0.28276812
N        6.52435410       6.61002680       6.86726431      -0.88554437      -1.80471659      -1.55871863      -0.92603606      -0.00368138      -0.57612393
8
Lattice="11.863155371614718 0.0 0.0 0.0 11.863155371614718 0.0 0.0 0.0 11.863155371614718" Properties=species:S:1:pos:R:3:momenta:R:3:forces:R:3 energy=-439.52382479073 free_energy=-439.52382479073 stress="2.933014734762e-05 0.00024655268326619 0.00086416654365639 0.00024655268326619 0.0005386176451196 0.0010176447772485 0.00086416654365639 0.0010176447772485 0.0014031269340264" pbc="T T T"
B        5.81895213       5.37722220       4.94711752       0.84827296       1.47676167       1.64634346       0.87014170       1.19122453       1.66835366
H        7.17825121       6.25320956       7.59956640       0.01206681       0.22866946       0.15632646      -0.09703812      -0.45981600      -0.22500279
H        6.94974450       7.43443561       6.39621710      -0.14163005      -0.01080844      -0.34712331      -0.07275572      -0.19233167      -0.19149158
H        5.60282400       6.88379830       7.29587589      -0.02401175       0.06361569      -0.03624282       0.32566209      -0.30622692      -0.25383553
H        6.20777444       6.23750049       4.26358897       0.01701676      -0.22849560      -0.05391301       0.33974829      -0.10446445      -0.37800239
H        4.68490417       5.42361804       5.16653460      -0.02701833      -0.05100836      -0.07805650      -0.57537550      -0.26358014       0.22562992
H        6.45452313       4.42871977       5.20440490       0.22976243       0.29282404       0.27659894      -0.01277226      -0.14500586      -0.28300632
N        6.52101519       6.59655535       6.85880341      -0.91457506      -1.77180468      -1.56425728      -0.78368835       0.27418080      -0.57798737
8
Lattice="11.86285793513086 0.0 0.0 0.0 11.86285793513086 0.0 0.0 0.0 11.86285793513086" Properties=species:S:1:pos:R:3:momenta:R:3:forces:R:3 energy=-439.54244937541 free_energy=-439.54244937541 stress="0.00018669056528164 0.00023271128767685 0.00092283034037672 0.00023271128767685 0.00053919006720127 0.0009739765959332 0.00092283034037672 0.0009739765959332 0.0015400225410403" pbc="T T T"
B        5.82346063       5.37726117       4.95244827       0.87506565       1.50859739       1.70808408       0.72377788       0.98084748       1.82097376
H        7.17929661       6.25691223       7.60451519       0.00428081       0.20438152       0.13825735      -0.21489757      -0.39440055      -0.42230036
H        6.94344489       7.42693274       6.37706264      -0.14543242      -0.02643982      -0.34714097      -0.16839397      -0.45350887      -0.01849239
H        5.60268009       6.87974538       7.29155152      -0.00736255       0.04722786      -0.04859493       0.33775178      -0.32514701      -0.27473815
H        6.20960358       6.21968040       4.25834275       0.03517155      -0.22506468      -0.07429273       0.40819189       0.10623071      -0.48704412
H        4.68356133       5.41414914       5.16082933      -0.05188656      -0.06298268      -0.06583662      -0.45406004      -0.25621831       0.22204586
H        6.46613894       4.43592520       5.21511796       0.22532302       0.28056989       0.25878237      -0.03302302      -0.18139199      -0.28176974
N        6.51838374       6.58372104       6.85107476      -0.93531681      -1.72626076      -1.56960946      -0.60574718       0.53369613      -0.56899547
8
Lattice="11.862556039012325 0.0 0.0 0.0 11.862556039012325 0.0 0.0 0.0 11.862556039012325" Properties=species:S:1:pos:R:3:momenta:R:3:forces:R:3 energy=-439.55788414521 free_energy=-439.55788414521 stress="0.00034206917029309 0.00022736787419477 0.00098443818532368 0.00022736787419477 0.00053357770335344 0.00092681855327737 0.00098443818532368 0.00092681855327737 0.001674880652637" pbc="T T T"
B        5.82885226       5.37826830       4.95917758       0.89383113       1.53008674       1.77592369       0.55745644       0.78982160       1.95103321
H        7.18060634       6.26037222       7.60946389      -0.00885147       0.18324598       0.11095732      -0.31952361      -0.34279687      -0.61123628
H        6.93762749       7.41921141       6.35921796      -0.15322533      -0.05357149      -0.33919780      -0.23752813      -0.66646810       0.13376262
H        5.60412981       6.87572780       7.28771263       0.00856886       0.03041041      -0.06136990       0.30609551      -0.33007517      -0.27777504
H        6.21316591       6.20312206       4.25309215       0.05596587      -0.21225707      -0.09912489       0.45771222       0.28310524      -0.57076013
H        4.68194970       5.40495941       5.15681080      -0.06942008      -0.07437029      -0.05410374      -0.29159871      -0.24331999       0.21365762
H        6.47829702       4.44334462       5.22608165       0.21989380       0.26678933       0.24131997      -0.05632176      -0.21150540      -0.27908862
N        6.51647509       6.57191499       6.84443258      -0.94684744      -1.66990032      -1.57445882      -0.41943732       0.73878577      -0.55986210
8
Lattice="11.862249786912596 0.0 0.0 0.0 11.862249786912596 0.0 0.0 0.0 11.862249786912596" Properties=species:S:1:pos:R:3:momenta:R:3:forces:R:3 energy=-439.57298377471 free_energy=-439.57298377471 stress="0.00048209898448356 0.00023272510521349 0.0010424150840977 0.00023272510521349 0.00051767904696138 0.00087885675095239 0.0010424150840977 0.00087885675095239 0.0018000112463361" pbc="T T T"
B        5.83501006       5.38047928       4.96764147       0.90427549       1.54278483       1.84821426       0.39370192       0.63343493       2.03907753
H        7.18185941       6.26400470       7.61428792      -0.02629152       0.16439997       0.07537423      -0.39721453      -0.31132366      -0.77330809
H        6.93205198       7.41105701       6.34334824      -0.16353414      -0.08927090      -0.32480707      -0.27414309      -0.81532144       0.25261440
H        5.60700629       6.87202172       7.28466859       0.02173230       0.01383871      -0.07377989       0.23518323      -0.32223235      -0.26445797
H        6.21848560       6.18851484       4.24796186       0.07823448      -0.19225141      -0.12678481       0.48112168       0.41053234      -0.61377973
H        4.68039038       5.39636347       5.15475827      -0.07812998      -0.08487855      -0.04305503      -0.10407680      -0.22397143       0.20405570
H        6.49086657       4.45119277       5.23762358       0.21333838       0.25182367       0.22423062      -0.08207690      -0.23573577      -0.27499091
N        6.51524268       6.56144918       6.83918936      -0.94964937      -1.60608893      -1.57930325      -0.25411910       0.87483695      -0.56668419
8
Lattice="11.861939707546577 0.0 0.0 0.0 11.861939707546577 0.0 0.0 0.0 11.861939707546577" Properties=species:S:1:pos:R:3:momenta:R:3:forces:R:3 energy=-439.59054045102 free_energy=-439.59054045102 stress="0.00059639217894702 0.00024948030772913 0.0010902331224575 0.00024948030772913 0.00048924515679074 0.00083190342104449 0.0010902331224575 0.00083190342104449 0.0019103362978986" pbc="T T T"
B        5.84175760       5.38404669       4.97808019       0.90716798       1.54887763       1.92250153       0.25332736       0.52176379       2.06954756
H        7.18274199       6.26808812       7.61884838      -0.04641629       0.14684966       0.03332599      -0.43844160      -0.30308020      -0.89455635
H        6.92649728       7.40232737       6.32994999      -0.17466634      -0.12995961      -0.30586426      -0.27600783      -0.89165206       0.32972533
H        5.61099057       6.86884687       7.28268328       0.03043565      -0.00181377      -0.08505717       0.13254036      -0.30379801      -0.23760172
H        6.22546320       6.17633799       4.24309132       0.10056711      -0.16770843      -0.15489575       0.47363757       0.47894012      -0.60386584
H        4.67919772       5.38860384       5.15486425      -0.07732095      -0.09409521      -0.03262247       0.09173614      -0.19794877       0.19626836
H        6.50365143       4.45961233       5.24999005       0.20557581       0.23607136       0.20761597      -0.10962368      -0.25452678      -0.26957784
N        6.51457542       6.55253143       6.83556871      -0.94535885      -1.53814629      -1.58490938      -0.12880087       0.94988728      -0.58758502
8
Lattice="11.861626641810473 0.0 0.0 0.0 11.861626641810473 0.0 0.0 0.0 11.861626641810473" Properties=species:S:1:pos:R:3:momenta:R:3:forces:R:3 energy=-439.61216899146 free_energy=-439.61216899146 stress="0.00067806527499911 0.00027632101169265 0.0011223383224848 0.00027632101169265 0.00044648344321422 0.00078813957693942 0.0011223383224848 0.00078813957693942 0.0020027931041198" pbc="T T T"
B        5.84887252       5.38903680       4.99060526       0.90413639       1.55069511       1.99568206       0.15239962       0.45740660       2.03389883
H        7.18297833       6.27274927       7.62299394      -0.06725032       0.12945909      -0.01284076      -0.43768461      -0.31849048      -0.96555624
H        6.92077525       7.39296251       6.31930308      -0.18490051      -0.17189853      -0.28456025      -0.24359139      -0.89263719       0.36040067
H        5.61564002       6.86635277       7.28193799       0.03344605      -0.01607321      -0.09461958       0.00825221      -0.27767031      -0.20107370
H        6.23387432       6.16683202       4.23863270       0.12142746      -0.14158066      -0.18067099       0.43403247       0.48689114      -0.53472648
H        4.67864831       5.38184336       5.15721193      -0.06709149      -0.10168507      -0.02262450       0.28035518      -0.16570901       0.19246928
H        6.51640057       4.46866413       5.26331538       0.19655601       0.21982734       0.19154782      -0.13830261      -0.26825620      -0.26304993
N        6.51430354       6.54526222       6.83367639      -0.93634925      -1.46892274      -1.59181926      -0.05773734       0.96965020      -0.62031020
8
Lattice="11.861311631751962 0.0 0.0 0.0 11.861311631751962 0.0 0.0 0.0 11.861311631751962" Properties=species:S:1:pos:R:3:momenta:R:3:forces:R:3 energy=-439.63782250671 free_energy=-439.63782250671 stress="0.00072383920859439 0.00030996026564707 0.0011347513409633 0.00030996026564707 0.00038746089948889 0.00075066352503028 0.0011347513409633 0.00075066352503028 0.002075400619916" pbc="T T T"
B        5.85610259       5.39543015       5.00518132       0.89736947       1.55037519       2.06437578       0.10056072       0.43512221       1.93233348
H        7.18235520       6.27796151       7.62656462      -0.08664073       0.11107117      -0.06043603      -0.39303409      -0.35603995      -0.98118728
H        6.91474099       7.38298746       6.31144400      -0.19259926      -0.21138895      -0.26324698      -0.17939004      -0.81986560       0.34311062
H        5.62042556       6.86461002       7.28250465       0.03004904      -0.02867029      -0.10211136      -0.12560677      -0.24731854      -0.15958926
H        6.24337988       6.15999564       4.23474701       0.13932192      -0.11669715      -0.20124733       0.36504928       0.44127301      -0.40766646
H        4.67895643       5.37616224       5.16176290      -0.04822510      -0.10739432      -0.01282437       0.44884446      -0.12826706       0.19389996
H        6.52882204       4.47832417       5.27760410       0.18624380       0.20332331       0.17605487      -0.16749360      -0.27721878      -0.25573871
N        6.51420908       6.53963646       6.83348491      -0.92555992      -1.40095408      -1.60045059      -0.05203359       0.93832477      -0.66341752
8
Lattice="11.860995822915974 0.0 0.0 0.0 11.860995822915974 0.0 0.0 0.0 11.860995822915974" Properties=species:S:1:pos:R:3:momenta:R:3:forces:R:3 energy=-439.66589978081 free_energy=-439.66589978081 stress="0.00073379279098109 0.00034580990242879 0.0011253196453995 0.00034580990242879 0.00031065687781188 0.0007232189549494 0.0011253196453995 0.0007232189549494 0.0021266200729124" pbc="T T T"
B        5.86318029       5.40312325       5.02162213       0.88937195       1.54964012       2.12553978       0.10078716       0.44334768       1.77334062
H        7.18073898       6.28355113       7.62940041      -0.10250450       0.09065857      -0.10672397      -0.30581359      -0.41279113      -0.94028943
H        6.90829907       7.37250986       6.30615826      -0.19633850      -0.24501626      -0.24420752      -0.08762895      -0.67897953       0.27950990
H        5.62477193       6.86360469       7.28433089       0.02021752      -0.03954401      -0.10745521      -0.25590297      -0.21639956      -0.11824272
H        6.25354591       6.15560614       4.23159541       0.15299566      -0.09535541      -0.21407271       0.27286769       0.35543921      -0.23154021
H        4.68025684       5.37155821       5.16835559      -0.02208132      -0.11104526      -0.00295832       0.58742386      -0.08699031       0.20094503
H        6.54059681       4.48848596       5.29272615       0.17464217       0.18674939       0.16114487      -0.19651882      -0.28154346      -0.24783181
N        6.51403681       6.53554763       6.83482971      -0.91635910      -1.33649698      -1.61113358      -0.11902117       0.86113347      -0.71510398
8
Lattice="11.86068037598378 0.0 0.0 0.0 11.86068037598378 0.0 0.0 0.0 11.86068037598378" Properties=species:S:1:pos:R:3:momenta:R:3:forces:R:3 energy=-439.69393200406 free_energy=-439.69393200406 stress="0.00071130236015684 0.00037904231320262 0.0010939842191211 0.00037904231320262 0.00021635246782843 0.00070901130529451 0.0010939842191211 0.00070901130529451 0.0021563451771816" pbc="T T T"
B        5.86983948       5.41193602       5.03960660       0.88264225       1.54958096       2.17677410       0.15079233       0.46756682       1.57210352
H        7.17808387       6.28921588       7.63135170      -0.11292067       0.06738859      -0.14902686      -0.18090242      -0.48464026      -0.84632499
H        6.90140656       7.36171123       6.30300109      -0.19497303      -0.26978905      -0.22953533       0.02533189      -0.48063128       0.17515440
H        5.62810828       6.86323818       7.28723944       0.00455008      -0.04880070      -0.11081347      -0.36932983      -0.18859642      -0.08219682
H        6.26387532       6.15326318       4.22932868       0.16156991      -0.07908441      -0.21719292       0.16590391       0.24615929      -0.02084063
H        4.68259651       5.36795266       5.17671928       0.00959382      -0.11253243       0.00724112       0.68931693      -0.04348191       0.21330212
H        6.55139667       4.49896914       5.30842942       0.16178839       0.17030149       0.14682319      -0.22470556      -0.28154273      -0.23968319
N        6.51350879       6.53279849       6.83742267      -0.91231813      -1.27750763      -1.62413926      -0.26050313       0.74696459      -0.77269823
8
Lattice="11.860366355665843 0.0 0.0 0.0 11.860366355665843 0.0 0.0 0.0 11.860366355665843" Properties=species:S:1:pos:R:3:momenta:R:3:forces:R:3 energy=-439.71958851659 free_energy=-439.71958851659 stress="0.00066207993719292 0.00040573619850313 0.0010426602170286 0.00040573619850313 0.00010762558097537 0.00070933501381272 0.0010426602170286 0.00070933501381272 0.0021662302131578" pbc="T T T"
B        5.87582789       5.42162130       5.05870430       0.87946356       1.55061672       2.21660269       0.24459156       0.49334832       1.34703888
H        7.17443328       6.29454834       7.63229318      -0.11631642       0.04068245      -0.18497336      -0.02657378      -0.56654368      -0.70723025
H        6.89407041       7.35083368       6.30133273      -0.18774759      -0.28340585      -0.22092622       0.15096258      -0.24077682       0.04006904
H        5.62991086       6.86333226       7.29093858      -0.01576364      -0.05669280      -0.11257036      -0.45449641      -0.16680240      -0.05563706
H        6.27384190       6.15244261       4.22807317       0.16461401      -0.06856244      -0.20946807       0.05326192       0.13026357       0.20716265
H        4.68593308       5.36519970       5.18649523       0.04481463      -0.11182810       0.01801510       0.75061118       0.00060252       0.23017954
H        6.56089907       4.50953267       5.32436161       0.14776064       0.15417857       0.13309809      -0.25136987      -0.27758982      -0.23155029
N        6.51233726       6.53111493       6.84087414      -0.91689405      -1.22545392      -1.63968516      -0.47071139       0.60872132      -0.83391949
8
Lattice="11.860054631779299 0.0 0.0 0.0 11.860054631779299 0.0 0.0 0.0 11.860054631779299" Properties=species:S:1:pos:R:3:momenta:R:3:forces:R:3 energy=-439.7416781235 free_energy=-439.7416781235 stress="0.00059391971702217 0.00042370476738065 0.00097519305301003 0.00042370476738065 -8.8326306867641e-06 0.00072219817049162 0.00097519305301003 0.00072219817049162 0.0021610208195006" pbc="T T T"
B        5.88092028       5.43188215       5.07841187       0.88176760       1.55256678       2.24455625       0.37423000       0.50880424       1.11685951
H        7.16991307       6.29906946       7.63213455      -0.11165723       0.01025122      -0.21275901       0.14480913      -0.65240827      -0.53638666
H        6.88634048       7.34015980       6.30037519      -0.17440760      -0.28454840      -0.21943150       0.27826146       0.01831791      -0.11037811
H        5.62974428       6.86364288       7.29504409      -0.03906303      -0.06358195      -0.11327841      -0.50298352      -0.15282324      -0.04131249
H        6.28292732       6.15255781       4.22792008       0.16214099      -0.06368540      -0.19063571      -0.05656321       0.02218071       0.43508751
H        4.69014156       5.36310255       5.19726666       0.08149085      -0.10898399       0.02955592       0.76978627       0.04364823       0.25045741
H        6.56880366       4.51989483       5.34010208       0.13267652       0.13856329       0.11997504      -0.27572668      -0.27025988      -0.22352969
N        6.51024028       6.53016851       6.84472492      -0.93300165      -1.18106687      -1.65796269      -0.73440096       0.46386518      -0.89735118
8
Lattice="11.859745768404943 0.0 0.0 0.0 11.859745768404943 0.0 0.0 0.0 11.859745768404943" Properties=species:S:1:pos:R:3:momenta:R:3:forces:R:3 energy=-439.76078627273 free_energy=-439.76078627273 stress="0.00051584358065337 0.00043279109813303 0.00089722691315214 0.00043279109813303 -0.00012329732346681 0.00074194396592281 0.00089722691315214 0.00074194396592281 0.0021488553704263" pbc="T T T"
B        5.88493273       5.44239721       5.09819509       0.89105724       1.55478486       2.26107762       0.53097251       0.50580992       0.89832679
H        7.16471728       6.30227114       7.63082459      -0.09863186      -0.02386960      -0.23140286       0.31695855      -0.73521534      -0.35242842
H        6.87829899       7.32998608       6.29928723      -0.15529377      -0.27314817      -0.22521481       0.39430657       0.26914596      -0.25590422
H        5.62729630       6.86388399       7.29911073      -0.06340696      -0.06987767      -0.11357101      -0.51070036      -0.14698626      -0.03994068
H        6.29065765       6.15302216       4.22892117       0.15454725      -0.06372954      -0.16124755      -0.15652777      -0.06733794       0.64753451
H        4.69502849       5.36143763       5.20859365       0.11754346      -0.10412760       0.04199306       0.74741829       0.08416285       0.27283976
H        6.57485009       4.52975969       5.35519927       0.11669137       0.12360292       0.10745421      -0.29691478      -0.26034504      -0.21561806
N        6.50696062       6.52960731       6.84848420      -0.96252261      -1.14413001      -1.67915889      -1.02626316       0.33274503      -0.96328329
8
Lattice="11.859439939527213 0.0 0.0 0.0 11.859439939527213 0.0 0.0 0.0 11.859439939527213" Properties=species:S:1:pos:R:3:momenta:R:3:forces:R:3 energy=-439.77926603145 free_energy=-439.77926603145 stress="0.00043718697263706 0.0004344936396192 0.00081589800663315 0.0004344936396192 -0.000224701495762 0.00076005915163246 0.00081589800663315 0.00076005915163246 0.0021404219345765" pbc="T T T"
B        5.88773856       5.45285288       5.11753359       0.90838129       1.55632541       2.26735856       0.70583515       0.48002714       0.70508788
H        7.15908691       6.30366677       7.62834657      -0.07782133      -0.06129448      -0.24097945       0.47062036      -0.80734799      -0.17795850
H        6.87004796       7.32059105       6.29725399      -0.13138902      -0.25054825      -0.23735909       0.48565905       0.48211214      -0.37341207
H        5.62240412       6.86376109       7.30267180      -0.08679270      -0.07597305      -0.11406813      -0.47848101      -0.14810039      -0.05005691
H        6.29663780       6.15330831       4.23109337       0.14252653      -0.06754127      -0.12253966      -0.24135370      -0.13136235       0.83214011
H        4.70035303       5.35998515       5.22005090       0.15098920      -0.09745370       0.05538356       0.68598985       0.12084930       0.29597198
H        6.57883780       4.53884889       5.36921125       0.10000106       0.10938397       0.09552652      -0.31402712      -0.24880866      -0.20773022
N        6.50228824       6.52909362       6.85167054      -1.00585222      -1.11338203      -1.70347141      -1.31262624       0.23564212      -1.03342662
8
Lattice="11.859136894880871 0.0 0.0 0.0 11.859136894880871 0.0 0.0 0.0 11.859136894880871" Properties=species:S:1:pos:R:3:momenta:R:3:forces:R:3 energy=-439.80048626182 free_energy=-439.80048626182 stress="0.00036686039432992 0.00043109749655417 0.00073937925513072 0.00043109749655417 -0.00030303939594291 0.0007671141439307 0.00073937925513072 0.0007671141439307 0.0021472880383447" pbc="T T T"
B        5.88928599       5.46297882       5.13596557       0.93429001       1.55605329       2.26505708       0.88975501       0.43032956       0.54787251
H        7.15328348       6.30284541       7.62470512      -0.05074939      -0.10126909      -0.24267591       0.58534394      -0.86117439      -0.03715532
H        6.86169782       7.31220194       6.29358456      -0.10426692      -0.21942856      -0.25384746       0.54048045       0.63038868      -0.44059564
H        5.61507155       6.86301040       7.30528458      -0.10740706      -0.08215978      -0.11525565      -0.41137309      -0.15392057      -0.06852066
H        6.30058336       6.15300088       4.23443178       0.12696559      -0.07373466      -0.07623470      -0.30741006      -0.16615941       0.97955023
H        4.70585341       5.35856279       5.23126605       0.18006756      -0.08920406       0.06971160       0.58963214       0.15264551       0.31847842
H        6.58064783       4.54693495       5.38174743       0.08282613       0.09594964       0.08417810      -0.32604933      -0.23689000      -0.19969458
N        6.49608604       6.52834412       6.85385388      -1.06161330      -1.08665595      -1.73112880      -1.55622438       0.18909442      -1.10934177
8
Lattice="11.858835983515574 0.0 0.0 0.0 11.858835983515574 0.0 0.0 0.0 11.858835983515574" Properties=species:S:1:pos:R:3:momenta:R:3:forces:R:3 energy=-439.82756273177 free_energy=-439.82756273177 stress="0.00031144972898106 0.0004246154516411 0.00067544461721192 0.0004246154516411 -0.00035228614107903 0.00075532439873998 0.00067544461721192 0.00075532439873998 0.0021769401992645" pbc="T T T"
B        5.88961231       5.47257835       5.15312606       0.96880893       1.55275831       2.25610397       1.07266858       0.35724511       0.43312133
H        7.14755972       6.29952075       7.61990906      -0.01982021      -0.14270343      -0.23872139       0.64411388      -0.89021059       0.05027561
H        6.85335773       7.30496563       6.28780016      -0.07593690      -0.18347855      -0.27177985       0.55153723       0.69722728      -0.44198153
H        5.60547085       6.86143648       7.30657600      -0.12383464      -0.08857986      -0.11740821      -0.31904150      -0.16107430      -0.09044322
H        6.30234440       6.15183473       4.23892692       0.10888222      -0.08081173      -0.02441516      -0.35257932      -0.17057951       1.08373481
H        4.71127627       5.35705487       5.24195295       0.20328118      -0.07965428       0.08489632       0.46486383       0.17896665       0.33914368
H        6.58026055       4.55387036       5.39250523       0.06543492       0.08328270       0.07340679      -0.33223265      -0.22542077      -0.19120395
N        6.48831293       6.52716375       6.85469223      -1.12664096      -1.06120992      -1.76228809      -1.72330715       0.19973656      -1.19143423
8
Lattice="11.858536302350855 0.0 0.0 0.0 11.858536302350855 0.0 0.0 0.0 11.858536302350855" Properties=species:S:1:pos:R:3:momenta:R:3:forces:R:3 energy=-439.86210433073 free_energy=-439.86210433073 stress="0.00027539509579821 0.000415922930286 0.00063095473489897 0.000415922930286 -0.00037163613593272 0.00072085557499111 0.00063095473489897 0.00072085557499111 0.0022320449449682" pbc="T T T"
B        5.88885469       5.48154934       5.16877909       1.01143773       1.54525710       2.24262236       1.24420214       0.26266068       0.36568064
H        7.14213234       6.29356743       7.61395521       0.01186544      -0.18423745      -0.23215044       0.63508561      -0.88991128       0.07107547
H        6.84513249       7.29893101       6.27970113      -0.04859628      -0.14686706      -0.28774180       0.51740658       0.67860485      -0.37178860
H        5.59393366       6.85894090       7.30628505      -0.13513178      -0.09522196      -0.12056912      -0.21210805      -0.16659811      -0.11116320
H        6.30192368       6.14971864       4.24458109       0.08936566      -0.08726741       0.03059730      -0.37564788      -0.14487144       1.14039336
H        4.71640396       5.35543189       5.25193967       0.21948598      -0.06909833       0.10079146       0.31937092       0.19954882       0.35677264
H        6.57777163       4.55960530       5.40130211       0.04813944       0.07130716       0.06322023      -0.33172204      -0.21553237      -0.18196399
N        6.47904283       6.52546786       6.85396321      -1.19636925      -1.03420619      -1.79695652      -1.79079206       0.26374139      -1.27678797
8
Lattice="11.85823685158427 0.0 0.0 0.0 11.85823685158427 0.0 0.0 0.0 11.85823685158427" Properties=species:S:1:pos:R:3:momenta:R:3:forces:R:3 energy=-439.9035951555 free_energy=-439.9035951555 stress="0.00025984097003781 0.00040464565407369 0.00061014170525608 0.00040464565407369 -0.00036588129514346 0.00066493853519486 0.00061014170525608 0.00066493853519486 0.0023070448543223" pbc="T T T"
B        5.88725034       5.48988894       5.18283693       1.06112575       1.53245415       2.22683025       1.39299580       0.14858360       0.34758380
H        7.13715939       6.28503587       7.60681852       0.04091758      -0.22437165      -0.22629434       0.55592688      -0.85882952       0.02363706
H        6.83712361       7.29404681       6.26939714      -0.02430848      -0.11353089      -0.29838215       0.44334562       0.58525263      -0.23655362
H        5.58092755       6.85553438       7.30429329      -0.14091316      -0.10192604      -0.12454442      -0.10203345      -0.16776638      -0.12616213
H        6.29948166       6.14673783       4.25141833       0.06953466      -0.09165978       0.08635445      -0.37632484      -0.09047650       1.14737432
H        4.72107746       5.35375456       5.26118413       0.22799665      -0.05782123       0.11719583       0.16290283       0.21471891       0.37033668
H        6.57339662       4.56419004       5.40809487       0.03128790       0.05991410       0.05364523      -0.32401422      -0.20788203      -0.17166540
N        6.46847110       6.52328571       6.85158318      -1.26549846      -1.00333426      -1.83495833      -1.75056145       0.36543272      -1.36134843
8
Lattice="11.857936754744783 0.0 0.0 0.0 11.857936754744783 0.0 0.0 0.0 11.857936754744783" Properties=species:S:1:pos:R:3:momenta:R:3:forces:R:3 energy=-439.94971191954 free_energy=-439.94971191954 stress="0.00026286720891878 0.00038949884929736 0.00061397167982164 0.00038949884929736 -0.0003440379306901 0.00059355839852939 0.00061397167982164 0.00059355839852939 0.0023890958931713" pbc="T T T"
B        5.88512383       5.49768106       5.19536383       1.11628849       1.51340592       2.21102403       1.50741436       0.01687787       0.37887525
H        7.13272659       6.27414201       7.59845334       0.06412171      -0.26162984      -0.22423761       0.41416341      -0.79891895      -0.08215874
H        6.82943317       7.29017646       6.25729248      -0.00471890      -0.08655653      -0.30096909       0.33983842       0.43905377      -0.05303166
H        5.56701850       6.85132996       7.30063863      -0.14132916      -0.10841884      -0.12894550       0.00077179      -0.16267655      -0.13192782
H        6.29532694       6.14313644       4.25948341       0.05050463      -0.09265321       0.14036403      -0.35502762      -0.00956210       1.10412481
H        4.72521016       5.35216142       5.26977490       0.22865618      -0.04607538       0.13386437       0.00639801       0.22535358       0.37895404
H        6.56746244       4.56776030       5.41298384       0.01525668       0.04897624       0.04472935      -0.30886025      -0.20286012      -0.16003459
N        6.45690541       6.52074438       6.84761088      -1.32878082      -0.96728953      -1.87595248      -1.60880552       0.48194267      -1.44109072
8
Lattice="11.857635447768944 0.0 0.0 0.0 11.857635447768944 0.0 0.0 0.0 11.857635447768944" Properties=species:S:1:pos:R:3:momenta:R:3:forces:R:3 energy=-439.99734630972 free_energy=-439.99734630972 stress="0.00028027890305599 0.00036897782232231 0.00063992010659197 0.00036897782232231 -0.00031697667660124 0.00051574679053162 0.00063992010659197 0.00051574679053162 0.0024605747005782" pbc="T T T"
B        5.88286117       5.50507015       5.20656337       1.17483924       1.48734656       2.19751573       1.57640034      -0.13081447       0.45740398
H        7.12884408       6.26123461       7.58880619       0.07888492      -0.29472856      -0.22832033       0.22566764      -0.71524637      -0.22751018
H        6.82216638       7.28712557       6.24403050       0.00913205      -0.06777953      -0.29379502       0.22016583       0.26727459       0.15604138
H        5.55282210       6.84652042       7.29551039      -0.13699825      -0.11436001      -0.13325066       0.08794011      -0.15040748      -0.12627595
H        6.28989116       6.13928435       4.26882926       0.03334132      -0.08905697       0.19018445      -0.31294495       0.09495111       1.01185978
H        4.72879137       5.35084419       5.27791659       0.22187166      -0.03405479       0.15052183      -0.13872946       0.23280321       0.38191872
H        6.56038423       4.57050988       5.41620092       0.00042430       0.03836781       0.03653805      -0.28635466      -0.20047450      -0.14687845
N        6.44474057       6.51803755       6.84223502      -1.38167902      -0.92597567      -1.91948707      -1.38199574       0.58990033      -1.51210167
8
Lattice="11.857332801667113 0.0 0.0 0.0 11.857332801667113 0.0 0.0 0.0 11.857332801667113" Properties=species:S:1:pos:R:3:momenta:R:3:forces:R:3 energy=-440.0437514206 free_energy=-440.0437514206 stress="0.00030673660383023 0.00034205892894681 0.00068247826885546 0.00034205892894681 -0.00029501950113725 0.00044136164823696 0.00068247826885546 0.00044136164823696 0.0025029762988927" pbc="T T T"
B        5.88087449       5.51222858       5.21675269       1.23425183       1.45368133       2.18850932       1.59077068      -0.29270090       0.57851308
H        7.12545272       6.24674824       7.57783652       0.08354718      -0.32271749      -0.23982321       0.01134614      -0.61508850      -0.38916927
H        6.81543037       7.28467530       6.23041122       0.01686446      -0.05767715      -0.27634325       0.09786607       0.09673500       0.36690574
H        5.53894948       6.84134664       7.28922830      -0.12890096      -0.11939630      -0.13688165       0.15377311      -0.13103415      -0.10845213
H        6.28369156       6.13563564       4.27949628       0.01899806      -0.07987147       0.23352787      -0.25221957       0.21916194       0.87398378
H        4.73188008       5.35001762       5.28590294       0.20858989      -0.02187815       0.16686932      -0.26164123       0.23871797       0.37870906
H        6.55263101       4.57265751       5.41808438      -0.01286583       0.02797841       0.02914181      -0.25695539      -0.20034221      -0.13211715
N        6.43242195       6.51538791       6.83574903      -1.42076383      -0.88036812      -1.96500864      -1.09192146       0.67176132      -1.56938474
8
Lattice="11.85702915379642 0.0 0.0 0.0 11.85702915379642 0.0 0.0 0.0 11.85702915379642" Properties=species:S:1:pos:R:3:momenta:R:3:forces:R:3 energy=-440.08731199078 free_energy=-440.08731199078 stress="0.00033680376420618 0.00030861441318942 0.00073411760719467 0.00030861441318942 -0.00028621489403494 0.00037906640136934 0.00073411760719467 0.00037906640136934 0.002500736820954" pbc="T T T"
B        5.87956304       5.51932471       5.22632893       1.29167333       1.41197198       2.18591198       1.54471144      -0.46615873       0.73443523
H        7.12243717       6.23115154       7.56553977       0.07750796      -0.34506758      -0.25888857      -0.20668459      -0.50673711      -0.54407420
H        6.80932836       7.28261422       6.21729986       0.01870209      -0.05551378      -0.24923618      -0.01509206      -0.05016293       0.55864202
H        5.52595536       6.83606411       7.28221016      -0.11825063      -0.12321845      -0.13928711       0.19550318      -0.10551649      -0.07902888
H        6.27728622       6.13268524       4.29148938       0.00824247      -0.06435313       0.26837428      -0.17620735       0.35780648       0.69675458
H        4.73459198       5.34989060       5.29408254       0.19020919      -0.00958977       0.18257976      -0.35327473       0.24478571       0.36900398
H        6.54468544       4.57441493       5.41904556      -0.02434236       0.01771828       0.02259315      -0.22146362      -0.20171743      -0.11579581
N        6.42040402       6.51301148       6.82851894      -1.44385120      -0.83212244      -2.01183086      -0.76481670       0.71978510      -1.61081998
