B  H  N 
 1.0000000000000000
    12.0000000000000000    0.0000000000000000    0.0000000000000000
     0.0000000000000000   12.0000000000000000    0.0000000000000000
     0.0000000000000000    0.0000000000000000   12.0000000000000000
 B   H   N  
   1   6   1
Cartesian
  7.0729189591577786  5.4664694490095052  7.5562413554198997
  3.9854086023179733  5.9223363598496270  4.3851394614888726
  4.3569726487207028  7.5367994213069096  5.1834600693083228
  5.0668449899151984  7.0992748881250805  3.6419754597899452
  6.6894294124280531  6.2212943719818199  8.3580245402100566
  8.0145913976820253  5.8132671618582492  6.9530364361521642
  6.4727065522035723  4.4632005786931011  7.2000204235972802
  4.6157934855999763  6.7950286042651049  4.5387443238918426
