B  H  N 
 1.0000000000000000
    12.0000000000000000    0.0000000000000000    0.0000000000000000
     0.0000000000000000   12.0000000000000000    0.0000000000000000
     0.0000000000000000    0.0000000000000000   12.0000000000000000
 B   H   N  
   1   6   1
Cartesian
  4.9414080240872771  5.3496828959803384  4.4476311279459360
  6.8800777089977814  6.4215639961699269  8.5769405835685841
  7.4976508262863506  7.6948806845586182  7.7101228377979663
  7.8277280724127616  6.0264001185795912  7.1600088332243921
  4.9070041077006570  4.3051193154413809  4.9025835593290505
  5.5342400137897361  5.7370733610248745  3.4230594164314163
  4.1722719275872358  6.1850248251045690  4.8727245714848575
  7.2261350167740313  6.7301964682556479  7.6888494441369204
