8
Lattice="12.0 0.0 0.0 0.0 12.0 0.0 0.0 0.0 12.0" Properties=species:S:1:pos:R:3:momenta:R:3:forces:R:3 energy=-440.1152023564157 pbc="T T T"
B        6.12550306       6.13010092       4.95287284       0.66746436       0.60626542      -0.35978817      -0.05397002       0.24897839       1.71117170
H        5.66958426       6.90560461       7.39984252      -0.19700798       0.13552323       0.08530500      -0.19826053       0.63186535      -0.05060922
H        6.90337094       5.75405732       7.38231145       0.10775842      -0.05118744       0.44838619       0.99847960      -0.33588264       0.16102756
H        5.26654174       5.25329306       7.26537648       0.06449880      -0.36603621       0.20008115       0.31718941       0.21433725      -0.35413666
H        5.01501593       6.37638587       4.60015748      -0.17187633      -0.05802798      -0.18156763       0.51162622       0.02718333       0.45579632
H        6.52141241       5.06963751       4.73177836       0.29201313      -0.28796565      -0.14260248      -0.08339049      -0.71910259       0.01160620
H        6.98498407       6.93036249       4.81989974       0.09226974       0.40344147      -0.11942460      -0.50306506       0.17551790       0.29603074
N        5.97572191       5.99417912       7.01581530      -0.00528965      -0.28702356       1.39990845      -0.98860912      -0.24289699      -2.23088664
8
Lattice="12.0 0.0 0.0 0.0 12.0 0.0 0.0 0.0 12.0" Properties=species:S:1:pos:R:3:momenta:R:3:forces:R:3 energy=-440.30775195292574 pbc="T T T"
B        6.16046954       6.19845900       5.32693277       0.24569595       0.07121704       1.49613402       1.09793994      -0.05882789      -1.51109647
H        4.74772562       5.99873928       6.99829181       0.14744654      -0.12768946      -0.00790596      -0.17704768       0.01766345      -0.22733729
H        6.36609746       6.25796693       7.40304527      -0.14448766      -0.12169074       0.08034417       0.00313428       0.02396826       0.31115277
H        5.87985852       4.71567553       6.87976670       0.17233359       0.23510600       0.06186796      -0.20105069       0.54760877      -0.12790128
H        5.53046498       5.66251504       4.59695473       0.02912538      -0.10102270       0.15801245      -1.38300036      -1.15823519      -1.43169971
H        7.25227438       5.87913340       5.19645881       0.10347143      -0.00421782       0.24473761       0.78425385       0.13810207       0.04767709
H        5.93775652       7.28432447       5.29118972      -0.24744231      -0.03221703       0.21089603       0.02992351       2.11614185      -0.20399667
N        5.73728399       5.76488390       6.71656611       0.27475478       0.14544419      -1.33476730      -0.15415285      -1.62642131       3.14320156
8
Lattice="12.0 0.0 0.0 0.0 12.0 0.0 0.0 0.0 12.0" Properties=species:S:1:pos:R:3:momenta:R:3:forces:R:3 energy=-440.1809289246605 pbc="T T T"
B        6.20226929       6.97809907       5.81381768       0.57571053       1.10717635       0.31106482      -1.14823319      -0.92854462       0.40095432
H        6.60298588       4.60744299       6.40790712      -0.02607392      -0.10450899       0.05027766      -1.21172496       0.67491012       0.12564531
H        5.39047373       4.54528684       5.20236635       0.18293413      -0.11264559      -0.07806194       0.20567336       1.11039983       0.64244357
H        4.87388090       5.03960076       6.79832315      -0.04058371      -0.19590568      -0.12067310       1.71447059       0.18273185      -1.04119036
H        6.48484731       7.25239343       6.95610215      -0.35106008      -0.07153128      -0.06320369      -0.18436176      -0.16126299      -0.84166778
H        5.14604019       7.45471316       5.41122615      -0.04193813      -0.19667101       0.21692930       1.18551191      -0.54804627       0.35583321
H        7.12611910       6.96412945       5.04389785      -0.09871944      -0.33775825       0.39361616      -0.64779750      -0.29130379       0.39082109
N        5.69891836       5.10216360       6.07609726       0.48518540      -0.01153926       0.36304015       0.08646156      -0.03888412      -0.03283935
8
Lattice="12.0 0.0 0.0 0.0 12.0 0.0 0.0 0.0 12.0" Properties=species:S:1:pos:R:3:momenta:R:3:forces:R:3 energy=-440.2864726329965 pbc="T T T"
B        6.44551626       6.69421262       5.58716392      -0.50771937      -0.22803826       1.26961225      -1.83635320      -1.65362782       1.22126065
H        4.65691667       5.10121057       5.92452800       0.29337697       0.37146297      -0.27813319      -0.84174439      -0.28126961      -1.29391947
H        5.20253830       5.40083366       7.37766671      -0.07806710       0.10986380      -0.09575449      -0.28171739       1.12868114       2.16393320
H        6.12892528       4.49257954       6.46070106      -0.09427008      -0.19849681       0.19083066       0.99990101      -1.17902018      -0.51808108
H        6.61275735       6.11191632       4.62233329       0.25325306       0.07985112       0.09446575       0.39586080      -0.00086170      -1.11036708
H        7.34308333       6.79818494       6.28549182       0.34187468       0.31003411      -0.08728354       0.75540558       0.37259233       0.46131787
H        5.61848507       7.50742046       5.59213882      -0.22570788       0.01907013      -0.11653280       0.05911425       0.46186985      -0.11473537
N        5.52472673       5.31381977       6.42263714       0.70008634      -0.38742453       0.09167067       0.74953334       1.15163601      -0.80940872
