8
Lattice="12.0 0.0 0.0 0.0 12.0 0.0 0.0 0.0 12.0" Properties=species:S:1:pos:R:3:momenta:R:3:forces:R:3 energy=-440.13385298367257 pbc="T T T"
B        6.18805680       6.18309910       4.94369362       0.29540505       0.15577325       0.73356428      -0.36592480      -1.21288594       2.03112116
H        4.77016834       6.14763034       7.08837316       0.06526142      -0.05700534      -0.16344439       0.77821131      -0.36683829      -0.32629461
H        6.42249289       6.04046187       7.58526577      -0.06466604      -0.00791994      -0.11681288      -0.14873667       0.01946719      -0.67794339
H        5.63690135       4.63097548       6.97764241       0.22205950      -0.03002423       0.01139898       0.07805111       1.17445535      -0.40008766
H        5.24526199       5.68945797       4.41473423      -0.15444228      -0.23225971      -0.06137370       0.35590028       0.10699363       0.07988842
H        7.22983166       5.55945882       4.83931634       0.22234884       0.08999441       0.27604212      -0.87436170       0.96315656       0.03872536
H        6.12831483       7.36902452       5.02134427      -0.01161400       0.29835711       0.16934155       0.46237982      -0.42287790      -0.03925956
N        5.71674992       5.69979928       6.86779839       0.04516669      -0.14766917       0.12105990      -0.28551935      -0.26147059      -0.70614971
8
Lattice="12.0 0.0 0.0 0.0 12.0 0.0 0.0 0.0 12.0" Properties=species:S:1:pos:R:3:momenta:R:3:forces:R:3 energy=-440.3173785592897 pbc="T T T"
B        6.34595803       6.46247195       5.17275609       0.55774218       0.12055773       0.13258412      -1.12095664      -1.18772382       2.11838328
H        4.68085829       5.11455681       6.53753466      -0.04548667      -0.10761186       0.12161187       0.24205432       0.06922311      -0.19887600
H        5.50223982       6.19987624       7.56505653      -0.03686841       0.05313642       0.09591321       0.12571689       0.08718106      -0.38663173
H        6.27095017       4.74933575       7.10308507       0.04736427       0.10075854       0.15484969      -0.24303423       0.47984986      -0.54559941
H        6.41392901       5.58539681       4.43494347       0.09777446       0.04436846       0.16628905       0.03944632      -0.49489622      -0.54276106
H        7.31914171       6.84164331       5.62948835      -0.44633949       0.18834614       0.08757263       0.92891338       0.35241855       0.24596253
H        5.52209341       7.25066425       5.00835376       0.17343371       0.00719001       0.19579912      -0.46462498       0.37002736      -0.18055592
N        5.62515050       5.52377381       6.76377201       0.14073622      -0.35215971      -0.19016216       0.49248496       0.32392009      -0.50992170
8
Lattice="12.0 0.0 0.0 0.0 12.0 0.0 0.0 0.0 12.0" Properties=species:S:1:pos:R:3:momenta:R:3:forces:R:3 energy=-440.23142829254465 pbc="T T T"
B        5.17949799       5.92817616       5.86180023      -0.81285840      -0.30187057       0.03404254      -1.85440100       0.35179551      -0.81329916
H        7.07582216       6.92595700       6.72398901      -0.13549111      -0.00602699       0.26746972      -0.88645632      -1.03864532      -0.84939655
H        7.20257922       6.31574787       5.08393281       0.24151974      -0.01936853       0.17347249      -0.92168638      -0.17069463       1.76606892
H        7.09000827       5.19683557       6.41912494      -0.03581226      -0.07794853      -0.07896957      -0.21889686       1.32441192      -0.29468110
H        4.81624594       5.55806668       6.91606719       0.27281938      -0.16441286      -0.11529417      -0.52988948       0.49123518      -0.14063439
H        5.21023695       5.00831581       5.11802197       0.33421894       0.03499943       0.10790141      -0.68357460       0.40775374      -0.11758557
H        4.79742078       6.99168419       5.39617850       0.20866424       0.08202421       0.16697540      -0.19902467      -1.41957999       0.65071985
N        6.69016259       6.14377765       6.05465833       0.52018108       0.51891306       0.37304393       5.29392932       0.05372358      -0.20119201
8
Lattice="12.0 0.0 0.0 0.0 12.0 0.0 0.0 0.0 12.0" Properties=species:S:1:pos:R:3:momenta:R:3:forces:R:3 energy=-440.31436922342857 pbc="T T T"
B        6.35338850       6.49703524       5.56868868       0.21184947       0.55707163       0.09123100       0.17617347       2.10814911      -1.33638373
H        6.14153353       4.97744564       7.15348412       0.19095669       0.18568072       0.17071369      -0.66501267       0.38200623      -0.83379434
H        5.12784943       4.70564884       5.72293594      -0.10825613      -0.08643677      -0.01530381       0.42835668       0.95454647       1.14270032
H        4.78030533       6.07700552       6.85749307      -0.13982163       0.12485838      -0.01539894       1.10627294      -1.69354444      -0.72996419
H        6.63975064       7.29435116       6.38344367      -0.10121840       0.01784560      -0.05371289       0.40591407       0.08810217      -0.42527783
H        5.49736715       6.89007599       4.84651588       0.17239616       0.25539052       0.13223469       0.70195322       0.25277258      -0.05236415
H        7.21969467       5.97782900       5.00288745       0.40494417       0.19938150       0.16706175       0.34244955      -0.05811941      -0.01857354
N        5.56474496       5.46519131       6.37547743      -0.08010019      -1.19223182       0.38530146      -2.49610728      -2.03391270       2.25365747
8
Lattice="12.0 0.0 0.0 0.0 12.0 0.0 0.0 0.0 12.0" Properties=species:S:1:pos:R:3:momenta:R:3:forces:R:3 energy=-440.14447429028155 pbc="T T T"
B        6.53366535       6.76787073       5.61608004       0.58535707       0.49689726       0.39245939      -2.36662671      -1.28294876       0.69808486
H        6.21093353       5.04162613       7.32668901       0.01123354       0.11691740       0.05902147      -0.88587844       0.48010436      -1.17061859
H        5.34760923       4.48841323       5.90720660       0.08911522       0.17422942      -0.15329881       0.13228286       1.42039329       0.64134160
H        4.60310414       5.68546845       7.03536514       0.01076799      -0.26570421      -0.12684830       1.79851215      -0.45031196      -1.38371444
H        6.64398128       7.51158677       6.53862024      -0.08916493       0.18185361      -0.03269700       0.10916329      -0.10496304      -0.66818380
H        5.84200224       7.02158408       4.67331099      -0.03096275      -0.06393715       0.06747080       0.10032122       0.26813755       0.80019045
H        7.39689586       6.09513538       5.29148784       0.01383705      -0.05497144       0.14277105       1.18113931      -0.25378797       0.03016306
N        5.53437671       5.35807861       6.53186083      -0.03190813      -0.52288404       0.52502765      -0.06891368      -0.07662347       1.05273687
8
Lattice="12.0 0.0 0.0 0.0 12.0 0.0 0.0 0.0 12.0" Properties=species:S:1:pos:R:3:momenta:R:3:forces:R:3 energy=-440.32041958901107 pbc="T T T"
B        6.24910482       6.71368214       5.86467724       0.00409455       0.46868924       0.13972832       1.45375088       2.29380546      -0.23759532
H        5.61745527       5.24675267       7.25590883       0.13536909       0.24505999       0.30844056       0.02479640      -0.04637010       1.42653897
H        5.94670949       4.53278900       5.83942940       0.13048254      -0.18478911      -0.07922311       0.99237054      -1.28944265      -1.06600459
H        4.58825355       5.43976594       5.96777386      -0.02126125      -0.13948730      -0.13152703      -1.18357446       0.04277739      -0.25014566
H        5.61331655       7.46721100       6.49535429       0.07055046       0.12150523       0.01934756       0.48650874       0.40265492       0.23173184
H        5.97938530       6.89861356       4.74409117       0.10850237       0.32686151       0.06557764       0.59950802      -0.09680632      -0.26676970
H        7.41174645       6.61031150       6.18449948       0.08692612       0.06634510       0.44163528      -1.03833127       0.35926399      -0.52660561
N        5.58115475       5.39779447       6.24023582       0.04427637      -0.84170946       0.11096824      -1.33502884      -1.66588269       0.68885008
8
Lattice="12.0 0.0 0.0 0.0 12.0 0.0 0.0 0.0 12.0" Properties=species:S:1:pos:R:3:momenta:R:3:forces:R:3 energy=-440.21610320253615 pbc="T T T"
B        5.89246329       6.59560960       6.32148530       0.06946250      -0.06093700       0.83244976      -1.66596075       3.45516026       1.91256671
H        5.42983213       4.91443187       5.06429246       0.13284091      -0.08622894      -0.14168603       1.21226837       0.25601420       0.42556131
H        6.45453502       4.51158415       6.41913739       0.16862912      -0.11993052       0.02298767      -0.42537779       0.66140378      -0.68728829
H        7.16377925       5.29525578       5.10269794       0.26725488      -0.03484791       0.18345780      -0.32592925       0.14650381      -0.35330982
H        5.78853659       7.48841585       5.55550755      -0.22756219      -0.15555889      -0.01192644      -0.67622363      -0.89660559      -0.58939092
H        6.79910255       7.02693997       6.93570754       0.07138764      -0.36069507       0.03404941      -0.11714944      -1.05454421       0.66632761
H        4.83622075       6.34671769       6.92534457      -0.03450123       0.03473558      -0.35536964       1.66594846       0.60057949      -0.66073572
N        6.26538597       5.26392622       5.66296525       0.17104362       0.85260138       0.40430439       0.33242404      -3.16851174      -0.71373089
8
Lattice="12.0 0.0 0.0 0.0 12.0 0.0 0.0 0.0 12.0" Properties=species:S:1:pos:R:3:momenta:R:3:forces:R:3 energy=-440.2272249838815 pbc="T T T"
B        5.50622849       5.79707288       5.82354224       0.86012673       0.50105871      -0.19542282      -4.68251391      -1.79957935      -2.61963917
H        6.91102790       6.04849472       7.37103042      -0.17941169      -0.07476104      -0.05364947       0.66080223      -0.12873223       0.59949609
H        6.95677802       7.39705491       6.30113661       0.09804773      -0.10572068       0.29264217      -0.27658025       0.03664293       0.26564078
H        7.55224700       5.93296859       5.72704741       0.18142068       0.12190920       0.10181195       0.32129971      -0.20988618       0.68155874
H        5.51769748       4.60294509       5.92252507      -0.07155338       0.03269629       0.00903550       0.35682318       0.73555672       0.50391514
H        5.47386560       5.96774201       4.62896958      -0.10301820      -0.17286345      -0.00101136       0.41851300       0.38339758       0.96598084
H        4.44775300       6.22550827       6.28453890       0.06160869      -0.41244207       0.22262205       1.85734856      -0.08699414       0.02941885
N        6.83462785       6.35012204       6.37986759      -0.25972590       0.17578990       0.54361763       1.34430749       1.06959468      -0.42637127
8
Lattice="12.0 0.0 0.0 0.0 12.0 0.0 0.0 0.0 12.0" Properties=species:S:1:pos:R:3:momenta:R:3:forces:R:3 energy=-440.1724843426154 pbc="T T T"
B        5.95341304       6.18335838       4.93779178       0.63384090       0.86466939      -0.93784570       0.90796087      -0.53518997       1.84668053
H        6.24798482       6.96205859       7.37302170      -0.07306073       0.13373670       0.37597519      -0.15470858      -0.57726508      -0.35485374
H        6.66956224       5.29000423       7.17375029      -0.01859325      -0.32122681       0.13898408       0.43506214      -0.33780141       0.13255124
H        5.04155081       5.74439224       7.35327581      -0.20637592       0.18983892       0.24289948      -1.03771926      -0.28013811       0.05293193
H        4.99299818       6.82619205       4.85999326      -0.34005001       0.26947040      -0.06641487      -0.29263941       0.19021572      -0.27150277
H        5.90938628       5.03794141       4.62697830      -0.18039406      -0.17990723      -0.24185405      -0.21030347       0.45260851       0.20360012
H        7.00700182       6.70888993       4.70293359       0.20010354       0.19280633      -0.30889954      -0.74550993      -0.21068308       0.39540202
N        5.95920168       6.01853636       6.98382262       0.62414868       0.10142441       1.42399200       1.09785765       1.29825342      -2.00480933
8
Lattice="12.0 0.0 0.0 0.0 12.0 0.0 0.0 0.0 12.0" Properties=species:S:1:pos:R:3:momenta:R:3:forces:R:3 energy=-440.08729046877625 pbc="T T T"
B        5.91844306       6.16402942       4.91840019       0.11573580       0.54550478       0.29610934      -0.98178380       0.71870041       1.49347085
H        6.38295818       6.41934940       7.52328426      -0.13215075       0.11801815      -0.04315203      -0.46688260      -0.89654801      -1.15791579
H        6.46348669       4.73950828       7.04479960      -0.06077393       0.06978432      -0.11458693      -0.21638843       0.62299868      -0.35856295
H        4.93408031       5.51534306       7.21442906       0.18794672       0.04126917       0.15188710       0.41177897       0.14381536      -0.37992841
H        5.35932434       7.26049172       4.96040552       0.09664459       0.24679650       0.24933497       0.66895675      -1.24495080       0.18744659
H        5.20989191       5.29986014       4.47671574      -0.20672680      -0.08111189      -0.01884319       0.65805589       0.27954695       0.34545693
H        7.06591969       6.22011206       4.58913069       0.36713820      -0.03126902      -0.09849804      -0.40357032      -0.34631658       0.44592785
N        5.93795279       5.65509541       6.89539671       0.10540580       0.01641626       0.04151128       0.32983353       0.72275399      -0.57589507
8
Lattice="12.0 0.0 0.0 0.0 12.0 0.0 0.0 0.0 12.0" Properties=species:S:1:pos:R:3:momenta:R:3:forces:R:3 energy=-439.94462833966577 pbc="T T T"
B        6.07936964       6.55346102       5.74849407       0.11928445       0.12466789       0.19181480      -0.39655581       5.42648523      -4.26675796
H        6.59379900       4.52840329       5.99670450      -0.16795864       0.23667643      -0.02911992      -1.35369192       0.10357593       0.04696586
H        4.79925378       4.93266152       6.00333821       0.08037783       0.15584059       0.00159318       1.10450666      -0.47471357       0.69020160
H        5.91893038       5.27615684       7.39932706       0.05654575      -0.10626142      -0.05261442      -0.72996186      -0.54196071      -0.98787840
H        7.20074622       6.85503049       5.67110259      -0.10002950       0.21793858       0.04177700       0.48194546      -0.69411385       0.65565275
H        5.49078639       7.47159671       6.21638667       0.31756542       0.14043906       0.04348609       0.03504224      -0.98392898       0.98219751
H        5.66672402       6.64075376       4.60067294       0.06366868       0.19247236       0.17077814       0.41765575      -1.09541376       1.13773737
N        5.79692180       5.18100508       6.32582633       0.14845532       0.05102801       0.13984420       0.44105949      -1.73993029       1.74188128
8
Lattice="12.0 0.0 0.0 0.0 12.0 0.0 0.0 0.0 12.0" Properties=species:S:1:pos:R:3:momenta:R:3:forces:R:3 energy=-440.325289914244 pbc="T T T"
B        6.26998850       6.62928001       6.11517305       0.76015664       0.96410491       0.48190158       2.53950679       3.35859973      -0.14026577
H        5.17523927       5.23767869       4.85237456      -0.04063885       0.08217941       0.25396959       0.15564279       0.10085705       1.63800383
H        4.89126842       5.11289826       6.62792318       0.15240953      -0.17359880      -0.12630474       0.29835862      -0.34313964      -0.77076618
H        6.39770060       4.56433661       5.86011148      -0.07345581       0.21335773      -0.00012672      -0.76124132      -0.00952753       0.34011317
H        7.10873158       6.85007391       5.29970901       0.14050011       0.10358167       0.07016507      -0.55673892      -0.54373671       0.07900010
H        6.83826742       6.58154775       7.14762544       0.08679945       0.09516314      -0.00020278      -0.66950265      -0.04634973       0.05812867
H        5.44490327       7.43566339       5.99394304       0.02282861       0.29299151       0.08399635      -0.30804476       0.23651120       0.44904786
N        5.61055217       5.28831980       5.85556763      -0.66917632      -0.83579535      -0.39155765      -0.69798055      -2.75321437      -1.65326168
8
Lattice="12.0 0.0 0.0 0.0 12.0 0.0 0.0 0.0 12.0" Properties=species:S:1:pos:R:3:momenta:R:3:forces:R:3 energy=-440.26571021024546 pbc="T T T"
B        6.37047320       6.85730467       6.11581108       0.15596899       0.14718293       0.60187681       0.74571152      -2.51001384      -0.62225366
H        4.94246402       5.22416755       4.83363764       0.02302958       0.15449078       0.40420341      -0.58486553       0.41293333      -0.28234007
H        4.86909253       4.83771119       6.51236949       0.20513233       0.11990788      -0.10322068      -0.05157313      -0.00574190       0.17163525
H        6.20143636       4.38577048       5.50010735      -0.13970628       0.12519764       0.09461109       0.48226912      -0.15891334       0.47926852
H        7.13090747       6.90443776       5.21322152       0.15520925       0.24768519       0.03376920      -0.15135448      -0.11128427       0.24419935
H        6.85633699       6.61589828       7.16636236       0.23832772       0.13076726       0.01077113      -0.33678245       0.15515294      -0.23727497
H        5.52392709       7.61422952       6.02866020       0.00652709       0.04539349      -0.08090740      -1.05168516       0.51781867       0.21216113
N        5.48070717       5.10683855       5.71247997      -0.24776982      -0.19481856      -0.57231298       0.94828010       1.70004840       0.03460445
8
Lattice="12.0 0.0 0.0 0.0 12.0 0.0 0.0 0.0 12.0" Properties=species:S:1:pos:R:3:momenta:R:3:forces:R:3 energy=-440.0058464566482 pbc="T T T"
B        6.48067486       6.76401460       6.43304016       0.97363909       0.69348498       0.52797972      -1.10855652      -0.39058524      -1.65115975
H        4.61190883       5.67656803       4.95287601      -0.23554998       0.00098793       0.06874193       1.08550790      -0.21652772       1.41452853
H        4.86499984       4.74839123       6.47213096       0.09066147      -0.11338690      -0.10314043       1.13768199       1.18137519      -1.73242181
H        5.96175895       4.58295341       5.03217362      -0.14278565      -0.04336065       0.00322102      -0.91375127       1.52800805       1.66913739
H        6.79838032       7.41704659       5.49352465       0.12545512       0.05759009       0.22937467      -0.11894592      -0.56617585      -0.07676721
H        7.38809117       6.23778541       6.95270876       0.00741382       0.17615221      -0.00680625      -0.23724867      -0.44884308       0.25723711
H        5.66914917       7.34683779       7.04712399      -0.08401395       0.01188152       0.10900978      -0.06302503      -0.38547592       0.43282649
N        5.36800789       5.29701257       5.64706168      -0.24424025       0.17600763      -0.34760484       0.21833751      -0.70177543      -0.31338075
8
Lattice="12.0 0.0 0.0 0.0 12.0 0.0 0.0 0.0 12.0" Properties=species:S:1:pos:R:3:momenta:R:3:forces:R:3 energy=-440.06373644873986 pbc="T T T"
B        6.62846666       6.67160859       6.50332061      -0.09114153      -0.28228845       0.13282781      -0.82668319      -2.10492576      -0.73194370
H        4.51079509       5.81788100       5.32796769       0.23299912       0.01117761       0.21400640      -2.62383247       1.69218018      -0.06672231
H        5.25698423       4.59616103       6.11187377       0.11039038       0.06507910      -0.13987840      -0.07165160      -1.41838887       1.17528437
H        5.73599179       5.12160268       4.61241291       0.28342480       0.11949922       0.23211944       1.27200955      -0.46253173      -1.27104047
H        6.85724881       7.40383897       5.61387481      -0.20317346      -0.00004734      -0.04293505      -0.04124853       0.13778568       0.31976473
H        7.48920491       5.91300687       6.83922976      -0.03465527      -0.04733807      -0.03849446      -0.37682203       0.46111012      -0.42715673
H        5.91038189       6.95563396       7.38758709       0.15425374      -0.19151758      -0.15881421       0.00039024       0.36979877      -0.24308761
N        5.39304277       5.40754790       5.52450126       0.04604908       1.29959040       0.28936005       2.66783802       1.32497162       1.24490172
8
Lattice="12.0 0.0 0.0 0.0 12.0 0.0 0.0 0.0 12.0" Properties=species:S:1:pos:R:3:momenta:R:3:forces:R:3 energy=-440.38666749961885 pbc="T T T"
B        6.51182090       6.10310630       6.49580555       0.49148290       0.21359822       0.29833508       3.18516103       1.42323174       1.92235871
H        4.41236310       5.95347432       5.92766998       0.05928515      -0.09440690       0.15768959       1.35979857      -0.37578161      -0.79454814
H        5.49906407       4.70597715       5.26679896       0.08725637      -0.03097665      -0.14415398      -0.49114443       1.03093621       0.16886318
H        5.51019625       6.30558935       4.57743623       0.04352412       0.01675492      -0.10393080      -0.33360746      -0.49357972       0.90697954
H        6.47003896       7.29402285       6.72763884      -0.25674611      -0.00608327      -0.03995843      -0.19185076      -1.18291463      -0.13164485
H        7.58763690       5.82218484       6.01212798      -0.25227641      -0.21639291      -0.18058050      -1.14589765       0.16313765       0.18224922
H        6.30048990       5.41389122       7.42256377      -0.20048102      -0.08415601      -0.14939321       0.03199040       0.25782890       0.12755437
N        5.40313165       5.75709968       5.50448938       0.33911544       0.81015475       0.46693426      -2.41444969      -0.82285854      -2.38181202
8
Lattice="12.0 0.0 0.0 0.0 12.0 0.0 0.0 0.0 12.0" Properties=species:S:1:pos:R:3:momenta:R:3:forces:R:3 energy=-440.43523318528423 pbc="T T T"
B        6.53728567       6.11644140       6.44188986       0.93488886       0.33792624       0.65102246       2.76989934       0.14438156       2.50003167
H        4.46902919       6.10311788       5.86616625      -0.04851866      -0.07464083       0.06756672      -1.78430886       0.02910307       0.93773111
H        5.44284464       5.21864395       4.84142889      -0.16107719       0.08965693      -0.32456794       0.01165610      -0.42218032       0.03373557
H        5.40593036       6.85244308       4.71571614       0.02049525       0.08168896      -0.18878657       0.12296523       0.98280676      -0.23854883
H        6.34841999       6.96475027       7.28428386      -0.44290839       0.17767614       0.23843849      -0.05418798      -0.65625584      -0.97069402
H        7.53097081       6.29657935       5.82526196       0.05901108      -0.05941436      -0.41952553      -0.37541365       0.19095125       0.08716932
H        6.61365147       5.03524973       6.92821443      -0.01605216      -0.48706184       0.10404400      -0.40321960       0.42214006      -0.15946110
N        5.38294486       6.09105664       5.42192369       0.10670556       0.81914530       0.31530877      -0.28739058      -0.69094655      -2.18996372
8
Lattice="12.0 0.0 0.0 0.0 12.0 0.0 0.0 0.0 12.0" Properties=species:S:1:pos:R:3:momenta:R:3:forces:R:3 energy=-440.0782344334232 pbc="T T T"
B        6.64723213       5.99457247       6.60740958       0.33500515       0.31916376       0.22029910      -0.93922569       1.54988260      -1.39808575
H        4.36439426       5.95098465       5.96615262      -0.26587426      -0.21167954       0.13254982      -0.18179708       0.08090603      -0.09450966
H        5.31895040       5.30825390       4.63786566       0.00051203       0.15390374      -0.23235823      -0.00813077      -0.01831213       0.36369570
H        5.35604207       7.00584077       4.94531094       0.02115322       0.15290422      -0.17135277      -0.37867863      -0.12578363       0.22258356
H        6.45016643       6.80302390       7.36213434       0.12041756      -0.10080567       0.12678406      -1.26541874       1.11201762       1.03442487
H        7.63560574       6.30832669       6.16302262      -0.06047936      -0.21188839       0.16242083       0.94130867       0.15569593      -1.77920887
H        6.70282286       4.99415923       7.03444415       0.17719096       0.06908107      -0.01793256      -0.48618362      -2.92544070       0.80562206
N        5.21552992       6.05498046       5.37200353       0.14570217       0.75552659       0.24375193       2.31812586       0.17103428       0.84547811
8
Lattice="12.0 0.0 0.0 0.0 12.0 0.0 0.0 0.0 12.0" Properties=species:S:1:pos:R:3:momenta:R:3:forces:R:3 energy=-440.19805927070564 pbc="T T T"
B        6.41297318       5.39455321       6.18336591      -0.27995963       0.50550963      -0.03026383       2.91677665      -2.18283429       1.08370505
H        4.75406668       5.90078735       5.02114099      -0.00987934      -0.02744911      -0.06165039      -0.24235473       0.55880969       0.01644763
H        5.82834971       7.27071001       5.21809375      -0.05655174       0.03050469       0.10992409      -0.02786137      -0.61214959      -0.34350655
H        4.90407499       6.79136034       6.52925762       0.12272027       0.05659863       0.07498690      -0.21514259      -0.35011991      -0.61221552
H        5.75050356       4.72928999       6.97885901       0.15119218      -0.09755492      -0.11753929       1.21593517       0.38437999      -1.09180219
H        7.24593332       6.09324048       6.71746417      -0.00997932      -0.25580198      -0.00404664      -0.51007024      -1.03210815      -0.20251492
H        6.87739672       4.82255807       5.18627016       0.17643977      -0.04836357       0.08764035      -0.73705220       0.50968535       1.62604011
N        5.41357870       6.40361607       5.67548022       0.26079447       0.53034281       0.28863538      -2.40023070       2.72433692      -0.47615361
8
Lattice="12.0 0.0 0.0 0.0 12.0 0.0 0.0 0.0 12.0" Properties=species:S:1:pos:R:3:momenta:R:3:forces:R:3 energy=-440.3051484214822 pbc="T T T"
B        6.44815070       5.39275528       6.15524686      -0.45885459       1.10491966      -0.04161738       1.91279833      -2.29660354      -0.71746363
H        4.97174387       6.39969337       4.97457129       0.11678994       0.07726335      -0.14982055       0.22029717       0.17264008       0.67752019
H        6.00464569       7.46996771       5.83466892       0.30557864      -0.04518928       0.14156530       0.60029694       0.41708929      -0.57557726
H        4.88555751       6.67523959       6.69461875       0.00969757      -0.00124535       0.09751508      -0.60637290      -0.28980657      -0.06774884
H        5.74651620       4.53003229       6.40175455       0.07332294      -0.21443901      -0.03651076      -0.39199341      -0.99733012       0.15203143
H        7.11444249       5.66189465       7.02542871       0.26333872      -0.18322182       0.16980386       0.72041261       0.38314166       1.03509836
H        7.05683432       5.22931084       5.17380510       0.03541150      -0.04075104      -0.13398942       0.11153070      -0.20666646      -0.03200186
N        5.53368942       6.53778059       5.87683827       0.02097187       0.01889936       0.31199094      -2.56696945       2.81753566      -0.47185839
8
Lattice="12.0 0.0 0.0 0.0 12.0 0.0 0.0 0.0 12.0" Properties=species:S:1:pos:R:3:momenta:R:3:forces:R:3 energy=-440.2873379469777 pbc="T T T"
B        6.64847046       5.21326979       6.16747518       0.67918546      -0.61713979       0.18937038      -1.33945470       2.20186539      -0.80584887
H        5.05834694       6.66418816       4.94368341       0.01723731       0.16288276       0.05781642       0.10375224       0.01779284       0.54112901
H        6.05928473       7.64621337       5.96978477      -0.06734597       0.26225201       0.03914532       0.18544266      -0.72948717      -0.46699358
H        4.74937837       6.91787390       6.64713674      -0.04801403       0.04234323       0.08038980       0.01295389      -0.87565410      -0.26063860
H        5.91626676       4.35378663       6.36021735       0.23268008       0.10866914      -0.06820067      -0.55915633      -0.63539147      -0.03747184
H        7.20295592       5.62092113       7.05631659      -0.08804697      -0.29320863      -0.10997780       0.81465138       0.24255796       1.34562802
H        7.25062163       5.26093437       5.18158938       0.07513938      -0.13264231       0.11529927       0.09842010      -0.24448959      -0.49075327
N        5.48945583       6.74881549       5.90858760      -0.42271455       1.20628039       0.06672137       0.68339076       0.02280615       0.17494914
8
Lattice="12.0 0.0 0.0 0.0 12.0 0.0 0.0 0.0 12.0" Properties=species:S:1:pos:R:3:momenta:R:3:forces:R:3 energy=-440.0687397941443 pbc="T T T"
B        6.46127420       5.12651066       5.92977349      -0.04024115       0.39078368      -0.25741795      -1.72683930       1.84730213       1.26071710
H        4.87548141       6.83586446       4.95954842       0.17034845      -0.09314995       0.15684564       0.07339803      -0.04590575       0.25118962
H        5.87299572       7.67644553       6.06275560      -0.02828979      -0.04835942       0.03939327       1.30977201       0.78645940      -0.29826515
H        4.69236685       6.77591393       6.68311036       0.17478153      -0.15839346      -0.04937985      -0.78731770      -0.70772992       0.32444287
H        5.74070672       4.32355447       5.60232043      -0.07926739       0.10314166      -0.13766680      -1.29965294      -0.76660413      -0.48652874
H        6.71384665       5.11571559       7.04045158      -0.12245750       0.17118669       0.00626442       0.26246269       0.09563836       0.96789357
H        7.30763315       5.29714654       5.23619643      -0.02416252       0.01904783       0.17201339       1.57745873       0.86924306      -1.49579606
N        5.35658391       6.80867120       5.89237375       0.38137280       0.46070896       0.49339726       0.59071848      -2.07840314      -0.52365320
8
Lattice="12.0 0.0 0.0 0.0 12.0 0.0 0.0 0.0 12.0" Properties=species:S:1:pos:R:3:momenta:R:3:forces:R:3 energy=-440.2902163218263 pbc="T T T"
B        6.28130502       5.36613033       5.89372963      -0.48691032       1.17948843      -0.26701169       2.15237295      -3.72474181      -0.78248478
H        5.00604154       6.83996542       5.01292879       0.18972719       0.14379678       0.16785901      -0.67209619       0.18645364      -1.51898456
H        6.04989322       7.45242609       6.15931087       0.06694300      -0.01223986       0.08259529       0.75236474       0.65189701      -0.20988750
H        4.76413971       6.63889522       6.64959118      -0.04811380       0.22275321      -0.05322536      -1.19891767      -0.42364645       0.63169221
H        5.57790375       4.54757391       5.40496791       0.21944606       0.20936311       0.00375816       0.25250353       0.23860491       0.00978847
H        6.56940938       4.99532764       6.98707121      -0.06730995       0.11024037      -0.22968364      -0.11747795       0.72744830      -0.36149558
H        7.23586029       5.58953559       5.20033754      -0.36227215       0.04439339       0.23794944      -0.58631053      -0.21121039       0.52698733
N        5.47084785       6.62923006       5.89767481       0.94054771      -1.01377047       0.50078231      -0.58243886       2.55519480       1.70438443
8
Lattice="12.0 0.0 0.0 0.0 12.0 0.0 0.0 0.0 12.0" Properties=species:S:1:pos:R:3:momenta:R:3:forces:R:3 energy=-439.9931143049723 pbc="T T T"
B        6.39852156       5.07143785       5.76371942       0.01314261      -0.12904867       0.07539970      -0.74489635       0.44301161       0.36053929
H        5.48977409       7.44369427       5.32352494      -0.01667257       0.15353546       0.15641022       0.05397772      -0.33098122       0.58533839
H        5.93707692       7.34912167       7.05840822       0.05941759       0.09377501       0.00865660      -0.03091957      -0.87548343      -1.85647881
H        4.51150348       6.58129945       6.53591535      -0.04457911       0.15941130       0.09462996       1.16396575       0.18977941      -0.98887512
H        5.61099979       4.55630573       4.94159178      -0.01684601       0.21690121      -0.15141175       0.95004449       0.91296262       1.21616542
H        6.42973340       4.56319303       6.88984723      -0.00718757       0.05808741      -0.06784600      -0.14742244       0.64688896      -1.33625260
H        7.48849652       5.36912924       5.30701377       0.10473518       0.20630624       0.12328038      -1.01022895       0.08506817       0.42770540
N        5.51391727       6.82663915       6.19011219       0.36647325       0.13762268       0.21020163      -0.23452066      -1.07124612       1.59185803
8
Lattice="12.0 0.0 0.0 0.0 12.0 0.0 0.0 0.0 12.0" Properties=species:S:1:pos:R:3:momenta:R:3:forces:R:3 energy=-440.12218191499693 pbc="T T T"
B        6.20096579       5.49662661       5.42515704       0.33804488       0.51314267      -0.15236236       1.54608014      -1.28172227      -0.75185286
H        6.72636509       7.23277028       6.54149366       0.11837391      -0.00186128       0.19446919      -0.27092161       0.03368267       0.48679251
H        5.88264109       5.97167901       7.50770819       0.11157514       0.00959890       0.09189314       0.28721462       1.02332138      -0.94632128
H        4.98681068       6.95130836       6.34874901       0.02322342       0.20508144      -0.01684198       1.13792307      -0.02236021       0.53051801
H        6.46598301       6.03117227       4.49229181      -0.05920396      -0.13517229      -0.03607038       0.22982122       1.44232180      -1.61672981
H        5.34838423       4.83628283       5.31660592      -0.12168385       0.13862720      -0.03589946      -3.13265323      -1.16627472      -0.23465624
H        7.01318932       4.76722972       5.66686179       0.03077339       0.04191129      -0.00446828       1.75999684      -0.43213759       1.00114224
N        5.95158903       6.51430379       6.56928753      -0.06061079      -0.02725362       0.33216826      -1.55746104       0.40316896       1.53110742
8
Lattice="12.0 0.0 0.0 0.0 12.0 0.0 0.0 0.0 12.0" Properties=species:S:1:pos:R:3:momenta:R:3:forces:R:3 energy=-440.2989866016298 pbc="T T T"
B        5.87419423       6.01242178       5.00501976       0.13972798       0.50896613       0.17524911       0.68929013       0.42313578       1.92699780
H        6.38993402       4.95138867       7.23624523      -0.08959127      -0.19225023       0.00980957       0.47135285      -0.59007674      -0.23545275
H        5.02865585       5.87811949       7.30898521      -0.09978707      -0.09201379      -0.13223985      -1.42982940       0.43867384       0.40713509
H        6.56230975       6.62114878       7.30550799       0.24218768      -0.07381013      -0.02224044       0.50806311       1.02494560       0.29186046
H        6.97134415       5.91246376       4.70504956      -0.01160164      -0.03056074      -0.14766534       1.01400960       0.14689346      -0.02782155
H        5.39530110       7.04861133       4.82714884      -0.02495084       0.04631335       0.11657029      -0.27522211       0.43063570       0.21334466
H        5.28660742       5.10676034       4.69101479       0.08380196      -0.06829832       0.07663837      -1.15799581      -1.22541521      -0.08337457
N        5.98115974       5.85838799       6.94704969       0.06026793       0.48842804       0.21793653       0.18033163      -0.64879243      -2.49268914
8
Lattice="12.0 0.0 0.0 0.0 12.0 0.0 0.0 0.0 12.0" Properties=species:S:1:pos:R:3:momenta:R:3:forces:R:3 energy=-440.11865264223354 pbc="T T T"
B        6.07715019       6.19815588       5.07314742       0.24459596       0.63983620      -0.21907720      -0.75441589      -0.80642525       0.72444397
H        6.35155152       4.58864099       7.04360406      -0.14753469       0.27477132       0.13173822       0.06581835       0.62132632      -0.33551970
H        5.22320400       5.77946895       7.43937100       0.11216802      -0.13813107      -0.08687758       0.20860275       0.51376641      -0.11796552
H        6.93667091       6.12300652       7.52258090      -0.04329341      -0.22357181      -0.02306889      -0.07024472       0.34244099      -0.10149962
H        6.96963362       5.63273042       4.47741910      -0.00125243       0.11524698       0.02876999      -0.19148357       0.70616941       1.06042349
H        6.06520909       7.41135901       5.16235001       0.09193883      -0.12333909       0.11168850       0.16883451      -1.15383771       0.00012181
H        5.03036638       5.65906731       4.76763785      -0.08583519       0.08821634       0.24537596       0.67936880       0.72946002       0.51479702
N        6.16954958       5.63821156       6.99909074       0.26004904       0.20949600       0.23367701      -0.10648022      -0.95290019      -1.74480144
8
Lattice="12.0 0.0 0.0 0.0 12.0 0.0 0.0 0.0 12.0" Properties=species:S:1:pos:R:3:momenta:R:3:forces:R:3 energy=-440.06002183947885 pbc="T T T"
B        6.04580253       6.25455894       5.20869404       0.02730456       0.82905602      -0.78825457       0.45041867       1.43309791      -2.47770049
H        5.62031603       4.60007052       6.51828481      -0.07827097       0.03802607       0.09219367       0.39774404      -0.13857399      -0.48513241
H        5.56793363       6.00600913       7.30489515      -0.22519417       0.00074103       0.09761257       0.77838427       0.43783961       0.03651131
H        7.11724059       5.31555460       6.81999111       0.17584786      -0.16762483       0.10061998      -0.09273765       0.42092115       0.37878935
H        6.99997102       5.70853997       4.69510485       0.01147299       0.08831389      -0.07180292      -1.35654332       0.63200851      -0.82578242
H        6.34530661       7.39992948       5.44437737       0.11761732       0.09679939       0.17989911      -0.55034481      -0.78254119      -0.44008247
H        4.88275941       6.06644908       4.85114694      -0.01063782       0.19959903       0.13071708       1.71182410       0.42028331      -0.16780401
N        6.12585429       5.53543389       6.53015732       0.45524122      -0.15918679       0.72293571      -1.33874531      -2.42303531       3.98120114
8
Lattice="12.0 0.0 0.0 0.0 12.0 0.0 0.0 0.0 12.0" Properties=species:S:1:pos:R:3:momenta:R:3:forces:R:3 energy=-440.31094676906434 pbc="T T T"
B        6.44370676       6.63880171       6.32917885       0.38434046       0.14744103       0.18706218       0.68250184       2.21894467      -0.79434442
H        5.40404510       4.75943366       6.43270385      -0.20491382       0.18032954      -0.21515374      -0.21381423       0.51292772      -0.16308552
H        6.15137456       4.89163728       4.97678039      -0.20330387       0.39362517      -0.11003106       0.56257371       0.17719882      -0.46608738
H        4.78494285       5.81922771       5.24860671       0.18165534      -0.12641992       0.15749336      -0.55203834       0.21696846      -0.29660978
H        5.53019652       7.24056634       6.77999371       0.01414447      -0.24867570      -0.10095279       0.88655763       0.27402456       0.59052657
H        6.89595027       7.19328528       5.35678512      -0.11230873      -0.11996709       0.11745940       0.00790123      -0.12513625       1.15884414
H        7.21505715       6.10883017       7.02321961      -0.06862274       0.03547492      -0.06587314       0.15831086       0.51307937       0.31299641
N        5.66498711       5.48453459       5.69278185       0.39260636       0.48833898       0.40592719      -1.53199269      -3.78800734      -0.34224001
8
Lattice="12.0 0.0 0.0 0.0 12.0 0.0 0.0 0.0 12.0" Properties=species:S:1:pos:R:3:momenta:R:3:forces:R:3 energy=-440.1906705380944 pbc="T T T"
B        6.41337932       6.45052095       6.42191676       0.03553601       0.56154501       0.12155718       0.81152198       0.76372754       0.95898355
H        5.19816543       4.60441146       6.07322693      -0.14483688       0.08386046      -0.10312537       0.52511298       1.72394718      -0.89154114
H        5.94801700       5.28924859       4.61165821       0.02536848       0.33274406      -0.14208860      -0.91196556       0.38242133       1.64942890
H        4.58987376       6.14414667       5.39181695      -0.11050051      -0.04522541       0.02244096       1.32487139      -1.38875544       0.13836575
H        5.74887684       6.53293973       7.38834179      -0.04989123      -0.15326474       0.12782718       0.71079270       0.64825464       0.27847548
H        6.42345376       7.39558854       5.71182574      -0.03201297      -0.10078060      -0.11518267       0.69992259       0.20714368       0.83307625
H        7.41012624       5.83091635       6.55033067      -0.02927528      -0.39350508      -0.11650618      -0.07767790       0.65402132       0.13429045
N        5.49900554       5.55339641       5.58713555       0.73540048       0.55510169       0.62627643      -3.08257820      -2.99076025      -3.10107923
