B  H  N 
 1.0000000000000000
    12.0000000000000000    0.0000000000000000    0.0000000000000000
     0.0000000000000000   12.0000000000000000    0.0000000000000000
     0.0000000000000000    0.0000000000000000   12.0000000000000000
 B   H   N  
   1   6   1
Cartesian
  5.7583904929416931  5.5481545766897238  3.5957010420684878
  5.5206535455975896  7.3685417802674547  7.5208323304565896
  6.8264780263182567  7.4025388377069472  8.7960538670901371
  5.1085447603177698  6.6919082675007768  8.9576727262510190
  5.0752024302908447  6.4831771522499695  3.1926954361406357
  5.4288952535603263  4.5974611622930528  4.2817372286361968
  6.9247975697091562  5.4794175406725909  3.0423272737489819
  5.8585604890252263  7.2241665860296331  8.4233081166611647
