B  H  N 
 1.0000000000000000
    12.0000000000000000    0.0000000000000000    0.0000000000000000
     0.0000000000000000   12.0000000000000000    0.0000000000000000
     0.0000000000000000    0.0000000000000000   12.0000000000000000
 B   H   N  
   1   6   1
Cartesian
  7.3694488165547973  3.9429839394958748  5.2595043560364196
  4.2752367537254532  9.0214638881939919  6.7956134110319173
  4.3980198024175143  7.4870049773960581  6.0077774895050977
  4.2368200261390179  7.4844730993660846  7.7232225502377672
  6.5840128925267019  2.9785361118060116  5.1056066467242331
  7.7398179644281591  4.1502280862260399  6.4254998200157569
  7.7631799738609821  4.7133426333145856  4.2767774497622320
  4.3813728359164443  7.9837847327085463  6.8557513839137716
