B  H  N 
 1.0000000000000000
    12.0000000000000000    0.0000000000000000    0.0000000000000000
     0.0000000000000000   12.0000000000000000    0.0000000000000000
     0.0000000000000000    0.0000000000000000   12.0000000000000000
 B   H   N  
   1   6   1
Cartesian
  5.9759340844736215  5.2938728825988903  6.0655674437590070
  6.1270866779951234  7.1854094038957328  4.8559270761235638
  7.0484739877066076  7.1634717886316821  6.2002074296330667
  5.4342566047874570  7.3150338145328533  6.2963516389367840
  6.0405540597958307  5.1963019003537738  7.1440729238764504
  6.7263142947625729  4.6849661854671751  5.5596891217733457
  4.9515260122933995  5.2462501575140834  5.5518985064937851
  6.1586969484214000  6.8099780730187547  5.8278705204819659
