B  H  N 
 1.0000000000000000
    12.0000000000000000    0.0000000000000000    0.0000000000000000
     0.0000000000000000   12.0000000000000000    0.0000000000000000
     0.0000000000000000    0.0000000000000000   12.0000000000000000
 B   H   N  
   1   6   1
Cartesian
  6.8895846117924222  6.1059362770197971  5.6438084030937716
  4.4846094739067510  6.4006800814146567  5.7571444936869796
  5.7389445933313752  5.7647562249251099  6.8627303660609007
  4.9208060887078773  4.7941050488108425  5.6724695404940633
  7.2048297455919155  7.2058949511891583  5.2690810543778070
  6.8549332814192567  6.1992366379240735  6.8460851242342926
  7.5153905260932339  5.1184125723903424  5.1372696339390984
  5.3179715675637880  5.7088564117511034  5.9171935790819248
