B  H  N 
 1.0000000000000000
    12.0000000000000000    0.0000000000000000    0.0000000000000000
     0.0000000000000000   12.0000000000000000    0.0000000000000000
     0.0000000000000000    0.0000000000000000   12.0000000000000000
 B   H   N  
   1   6   1
Cartesian
  5.8930602896054722  6.3607271201938715  6.6220823846361156
  6.7611745669872496  4.7460709290989769  5.4062617230937775
  6.4453064016212087  6.2084680416485005  4.6707934962053201
  5.1465608423667106  5.2790302529074893  4.9895907491271458
  5.3234297063370803  7.2539290709010222  6.3010708013056691
  6.8534391576332885  6.4505516573534010  7.0762985769532483
  5.1938272978598548  5.8582647972019117  7.3292065037946657
  6.0896620456998534  5.5236376101641724  5.3086364405010897
