B  H  N 
 1.0000000000000000
    12.0000000000000000    0.0000000000000000    0.0000000000000000
     0.0000000000000000   12.0000000000000000    0.0000000000000000
     0.0000000000000000    0.0000000000000000   12.0000000000000000
 B   H   N  
   1   6   1
Cartesian
  6.0582168115243320  5.8155596484999457  6.8900575742421211
  7.1175132440870570  5.6267999408949931  4.5178272678126916
  6.6330857921380186  6.8300345082033420  5.6268685021511260
  5.5747131563237886  6.0833679171326320  4.5179163836294833
  6.9396113537142057  4.9941932781939666  7.4821727321872515
  6.4060362880103412  7.0058067218060316  6.7147203662042330
  4.8824867559129430  5.7043256842248198  7.3273212628431272
  6.2966602734705717  5.8487062033317185  5.1716200382585669
