B  H  N 
 1.0000000000000000
    12.0000000000000000    0.0000000000000000    0.0000000000000000
     0.0000000000000000   12.0000000000000000    0.0000000000000000
     0.0000000000000000    0.0000000000000000   12.0000000000000000
 B   H   N  
   1   6   1
Cartesian
  6.3411394870857096  6.4632696437666830  7.8815828484276409
  4.6727490634739999  5.1957370008505421  4.5043716659299413
  6.1098749582438252  5.6755121875984891  3.6315711459078801
  6.1926957118352535  4.4520082038075586  4.9644867769271137
  6.1903229325300675  7.5479917961924521  7.4108435484484332
  7.3272509365260028  5.8723736507240964  7.9104226300136702
  5.3604891907443335  6.0341193661232531  8.3684288540921195
  5.7041340575873871  5.3273809852378520  4.5557809628127792
