B  H  N 
 1.0000000000000000
    12.0000000000000000    0.0000000000000000    0.0000000000000000
     0.0000000000000000   12.0000000000000000    0.0000000000000000
     0.0000000000000000    0.0000000000000000   12.0000000000000000
 B   H   N  
   1   6   1
Cartesian
  3.7925819840895585  6.9813365263572678  5.2995487807416257
  6.7541938437674025  4.1790999022237827  7.3706729140254037
  8.6418446226877368  4.7412362020392678  7.2762581079620912
  7.6148031581216076  4.3119898987808085  5.7867124133620518
  4.4174631908764450  7.8209000977762164  4.6293270859745963
  3.4218619837664703  7.0763259114591861  6.4219835179411264
  3.3581553773122632  6.0295512423050672  4.7448317501232413
  7.7388470052879406  4.2788040192130836  6.8516036857886764
