8
Lattice="12.0 0.0 0.0 0.0 12.0 0.0 0.0 0.0 12.0" Properties=species:S:1:pos:R:3:momenta:R:3:forces:R:3 energy=-439.9970715927 free_energy=-439.9970715927 stress="-0.00024661934014345 -0.00036218741993525 -1.0669607709862e-06 -0.00036218741993525 -0.00060376477938157 -0.0001973389310468 -1.0669607709862e-06 -0.0001973389310468 0.0024734692992282" pbc="T T T"
B        5.96130265       6.08016426       4.91592666       0.30759339       0.27545591      -1.02019119       0.33253173       0.96432898       1.65526657
H        5.54506836       6.91702127       7.34507552      -0.08532181       0.06367911       0.34885331       0.06601706      -0.29536658      -0.08336082
H        6.57756138       5.51344283       7.46753149       0.20343750       0.05663858       0.16837532       0.29152943      -0.17451406       0.01957191
H        4.88681029       5.32361072       7.10835350      -0.27897037      -0.12438386      -0.07364523      -0.55666050      -0.43820514       0.17413216
H        5.20732274       6.95139070       4.66253101       0.02906022       0.33299580      -0.24783448       0.17246376      -0.04416234       0.32309437
H        5.65081538       5.04860930       4.53246851      -0.15790935      -0.30125582      -0.28260809      -0.22879490      -1.00280714       0.02365904
H        7.11318971       6.32534847       4.94255259       0.34644300      -0.10125413       0.00263494      -0.20862942       0.02427667      -0.08205247
N        5.71996960       5.92386791       7.05734794      -1.09327695      -0.77416783       1.05167464       0.13111770       0.96513465      -2.04663815
8
Lattice="12.0 0.0 0.0 0.0 12.0 0.0 0.0 0.0 12.0" Properties=species:S:1:pos:R:3:momenta:R:3:forces:R:3 energy=-440.19506662204 free_energy=-440.19506662204 stress="0.002050562335456 -0.00030289912801036 -2.9677320369514e-05 -0.00030289912801036 0.0021060391172128 0.00016239632791529 -2.9677320369514e-05 0.00016239632791529 0.001484375833208" pbc="T T T"
B        5.42104847       5.28091486       6.38689394       0.55098178       0.59738665      -0.79493721       1.14900282       0.14961526      -0.96670964
H        7.59914404       6.30902514       5.99374655      -0.21751732      -0.04610861       0.11523952      -0.87223586       0.96082319       0.06610703
H        6.18186855       7.55491947       6.11848702      -0.10345146      -0.21460629      -0.05410986       1.29224640      -1.04595193      -0.30260423
H        6.47465573       6.57735370       4.64694824       0.00906423      -0.12850140       0.16388720       0.32204778       0.34122508       1.46214942
H        5.45755579       4.44508053       5.51484194       0.07437524       0.26317509       0.03941939       0.00036936       0.80302994       0.59667719
H        4.40085596       5.88264324       6.46208656       0.05500361       0.13331236      -0.16977246       0.45214449      -0.20724684       0.21871782
H        6.03770740       4.96314909       7.35305176      -0.01403099       0.13570687      -0.30144845      -0.60716969       0.27707469      -0.17916003
N        6.63570701       6.66787804       5.71136755      -0.83439078      -1.11718440       0.96699526      -1.73454887      -1.28667213      -0.89864795
8
Lattice="12.0 0.0 0.0 0.0 12.0 0.0 0.0 0.0 12.0" Properties=species:S:1:pos:R:3:momenta:R:3:forces:R:3 energy=-440.13681938632 free_energy=-440.13681938632 stress="-0.0017274574933825 -0.00038501320455205 -0.00026436361499745 -0.00038501320455205 -0.0016384775565398 0.0001555062259883 -0.00026436361499745 0.0001555062259883 -0.0024219176072554" pbc="T T T"
B        6.64280784       6.06420850       6.36204806      -0.08665947      -0.14411277      -0.03512923       2.74444223      -0.71832058       1.75139405
H        4.53802986       6.24329785       5.81175014      -0.07341567       0.03948472      -0.31400601      -0.05212928      -0.15043264       0.33205165
H        5.36084493       4.95700630       5.05363128       0.00985193       0.18372869       0.08978194      -0.08941984      -0.12249464      -0.11916498
H        5.59354391       6.59119069       4.58324618      -0.13563931      -0.04752053       0.09266461       0.18545161      -0.20316931      -0.37466638
H        7.16705526       7.04299370       6.39344503      -0.16328310      -0.03880995       0.41967509       0.19108498       2.15368306      -0.74843088
H        7.46197014       5.30740722       6.12391584       0.00785923      -0.16314506       0.16879745       0.22616984      -0.87186216      -0.73462650
H        6.34588731       5.88234553       7.41675382       0.11005467      -0.15180291       0.05106978      -1.18994558      -0.61236248       1.65351186
N        5.46272298       5.94278996       5.40287804      -0.12605866      -0.03683960      -0.50593961      -2.02179397       0.52140382      -1.75711435
