8
Lattice="12.0 0.0 0.0 0.0 12.0 0.0 0.0 0.0 12.0" Properties=species:S:1:pos:R:3:momenta:R:3:forces:R:3 energy=-437.85480187609 free_energy=-437.85480187609 stress="-0.00043102168022213 -0.00040220224747178 -0.00056256140675775 -0.00040220224747178 -0.00012834249036453 -0.00062701163088081 -0.00056256140675775 -0.00062701163088081 0.00066717960068827" pbc="T T T"
B        4.53485912       5.52975519       4.42322380      -0.19217261      -1.31531606       0.67104452       0.28826247      -0.33149838       1.94685034
H        7.74445881       6.96488537       8.69041989      -0.09739901       0.18065912       0.02431985       0.62674715       0.40498625       1.65245695
H        7.02549567       6.32802995       7.48178501      -0.23596968       0.23261221      -0.11021208      -1.14469407      -1.12000680      -1.08984607
H        8.30859742       7.27103759       7.19405918      -0.04938329       0.17155818       0.17558622       0.70720786       0.18964012      -0.45453648
H        4.92635579       5.81486538       3.30958011       0.28573792      -0.07962512       0.00760045      -0.44923051      -0.18755881       0.89894308
H        3.69140258       4.72896241       4.75545432      -0.03798569      -0.03916481      -0.19517634       0.22052775       0.37612377      -1.14376008
H        5.00470173       5.93126782       5.49763666      -0.01143169      -0.02988018      -0.19105730      -0.04622924       0.14723715      -1.68744081
N        7.97674083       6.50520995       7.80683447      -0.35834066       0.45355389      -0.09254420      -0.19698281       0.51115255      -0.12228874
8
Lattice="12.0 0.0 0.0 0.0 12.0 0.0 0.0 0.0 12.0" Properties=species:S:1:pos:R:3:momenta:R:3:forces:R:3 energy=-437.93464498647 free_energy=-437.93464498647 stress="0.00011975842487905 -0.00038452403892974 -0.00055390807528334 -0.00038452403892974 -7.3292460818341e-05 -0.00037831458009032 -0.00055390807528334 -0.00037831458009032 0.00069713439760189" pbc="T T T"
B        4.53421017       5.51701512       4.42140428      -0.12607248      -0.88479247       0.89913423       0.44835727      -0.32615299       0.96291872
H        7.74103867       6.97676012       8.69357556      -0.02201747       0.14488666       0.16217347       0.69071814      -0.06989015       0.96053288
H        6.99875098       6.34219709       7.46309260      -0.32783093       0.13625664      -0.08394998      -0.08966423      -0.81587964      -0.69921662
H        8.30864645       7.28469429       7.20774215       0.07348637       0.16288154       0.20600174       0.73409851       0.31052678      -0.69359417
H        4.95896472       5.79439485       3.30642444       0.28821512      -0.28054363       0.11241123      -0.61305357      -0.24262117       1.10829735
H        3.69135355       4.71530571       4.72340164       0.00632905      -0.11558026      -0.23859747       0.11458016       0.30465566      -0.97430209
H        5.00370165       5.92747342       5.46214549      -0.07444208       0.05651765      -0.36828804       0.06340042       0.26870707      -1.08220726
N        7.97592951       6.50358588       7.79656509      -0.44784084       0.39437673      -0.42684391      -1.34275666       0.56086577       0.41543901
8
Lattice="12.0 0.0 0.0 0.0 12.0 0.0 0.0 0.0 12.0" Properties=species:S:1:pos:R:3:momenta:R:3:forces:R:3 energy=-437.98299463967 free_energy=-437.98299463967 stress="0.00070559244447564 -0.00037626583743604 -0.00057624461713225 -0.00037626583743604 -1.345137373447e-06 -0.00012921489468288 -0.00057624461713225 -0.00012921489468288 0.00035329006323687" pbc="T T T"
B        4.53033956       5.50863353       4.40774759       0.21139410      -0.97463808       1.11913632       0.12486072      -0.72294699      -0.12135928
H        7.73777498       6.99380130       8.69161431      -0.00786981       0.13610890       0.15923946       0.72308163      -0.66930277      -0.01976329
H        6.96224068       6.35139244       7.42442024      -0.30377596       0.08119150      -0.17979168       1.05236690      -0.44402932      -0.22730549
H        8.31146021       7.29889398       7.20617256       0.08852774       0.20851341       0.19795145       0.68063387       0.38430562      -0.88967569
H        4.98361722       5.76717897       3.30838569       0.28672514      -0.27118243       0.30063607      -0.62547724      -0.20042926       0.88205730
H        3.68853979       4.70110602       4.68194909       0.01276838      -0.13954037      -0.22504773       0.10035711       0.30506219      -0.81809984
H        4.98732682       5.93834690       5.39351803      -0.10883810       0.25882435      -0.48808583       0.41347403       0.62288505       0.07281810
N        7.96776351       6.50584398       7.77057197      -0.74870110       0.35056731      -0.64714636      -2.46557745       0.71463593       1.11866671
8
Lattice="12.0 0.0 0.0 0.0 12.0 0.0 0.0 0.0 12.0" Properties=species:S:1:pos:R:3:momenta:R:3:forces:R:3 energy=-437.98077875293 free_energy=-437.98077875293 stress="0.0010674812277596 -0.00033272264667391 -0.00044524047363652 -0.00033272264667391 9.4405270284444e-05 -1.6503901529675e-05 -0.00044524047363652 -1.6503901529675e-05 -3.8439962582087e-05" pbc="T T T"
B        4.52785669       5.49547178       4.39498230       0.19100064      -1.10728078       0.80313417      -0.16405560      -0.90855749      -0.86462338
H        7.73005537       6.99971504       8.68316682      -0.03419491       0.04410944       0.10852055       0.64956804      -1.03077831      -0.60972538
H        6.93694848       6.35105124       7.37501845      -0.15444009       0.05921233      -0.28262829       1.78012549      -0.17513486       0.16614454
H        8.31683649       7.31057005       7.19930194       0.12422008       0.10828579       0.10724222       0.53604894       0.19575358      -0.84414307
H        4.99650348       5.74475255       3.31683318       0.12608189      -0.17560018       0.34111943      -0.51769849      -0.17817738       0.46568252
H        3.68316351       4.68942995       4.63384519       0.01904793       0.01227880      -0.26620220       0.07029958       0.22957271      -0.58050210
H        4.97795415       5.96707320       5.32931168       0.01852203       0.42416677      -0.35881281       0.62498383       0.86150251       0.99603784
N        7.95778553       6.50417038       7.74551913      -0.80559812       0.31710293      -0.23826534      -2.98102841       0.99699462       1.27446377
8
Lattice="12.0 0.0 0.0 0.0 12.0 0.0 0.0 0.0 12.0" Properties=species:S:1:pos:R:3:momenta:R:3:forces:R:3 energy=-437.99365643205 free_energy=-437.99365643205 stress="0.0011179997609909 -0.00029903406111832 -0.00016552495268729 -0.00029903406111832 0.00023363927912849 0.00011567373455428 -0.00016552495268729 0.00011567373455428 -0.00015461965089826" pbc="T T T"
B        4.52275438       5.48007089       4.38047331       0.38649031      -1.03449743       0.55232316      -0.19457159      -0.64546553      -0.68548921
H        7.72220470       6.99677388       8.67519601       0.04530068      -0.02778732       0.09047396       0.58737027      -1.22259371      -1.07973473
H        6.92130457       6.34928587       7.32975176      -0.01796347       0.05499660      -0.17268441       2.03177406      -0.03979898       0.42064592
H        8.32495358       7.31151488       7.17793446       0.18906688       0.01168783      -0.06102961       0.29070659      -0.22195870      -0.52359680
H        4.98558977       5.72279919       3.32480399      -0.16831992      -0.17974245       0.25899255      -0.24507546      -0.12827613      -0.19366619
H        3.67504642       4.68848512       4.59202458      -0.08442834       0.06985621      -0.14290717      -0.09690208      -0.01100730      -0.31765225
H        4.97594316       6.00667239       5.27836857      -0.02483317       0.53697492      -0.23948347       0.55097389       0.78924565       1.21387581
N        7.94414709       6.49848791       7.72313839      -0.79196838       0.28015898      -0.09164497      -2.93013986       1.47320592       1.16789654
8
Lattice="12.0 0.0 0.0 0.0 12.0 0.0 0.0 0.0 12.0" Properties=species:S:1:pos:R:3:momenta:R:3:forces:R:3 energy=-438.06213059842 free_energy=-438.06213059842 stress="0.00077281039328851 -0.00028955946964729 0.00010860193403568 -0.00028955946964729 0.00026923280311741 0.00018719632860614 0.00010860193403568 0.00018719632860614 -0.00042769512427106" pbc="T T T"
B        4.52055242       5.46998438       4.36984772       0.32362599      -0.87347887       0.79060786      -0.27586916      -0.28079282       0.05855847
H        7.72162038       6.98012109       8.66610908       0.06612721      -0.26454488      -0.03907845       0.50582465      -1.10413782      -1.08857218
H        6.92867630       6.35455601       7.30066855       0.26676434       0.06072950      -0.14023278       1.61607866      -0.09304899       0.39119984
H        8.33384936       7.30820393       7.15681705       0.14634448      -0.06101799      -0.04430423       0.15832611      -0.47237605      -0.22239111
H        4.96667704       5.70436178       3.33389092      -0.06178728      -0.16089679       0.13031140       0.13884105      -0.03377739      -0.95901187
H        3.66615064       4.69179607       4.55742893      -0.02790536       0.00242386      -0.21939815      -0.19246327      -0.19573027      -0.10440477
H        4.96793612       6.05339486       5.24752534      -0.03022576       0.46939179      -0.14324877       0.34440674       0.51459033       1.02114385
N        7.93155954       6.50069200       7.70769593      -1.10574401       0.56570681      -0.15888938      -2.30041029       1.65455449       0.89967606
8
Lattice="12.0 0.0 0.0 0.0 12.0 0.0 0.0 0.0 12.0" Properties=species:S:1:pos:R:3:momenta:R:3:forces:R:3 energy=-438.15377671721 free_energy=-438.15377671721 stress="0.00018661233978934 -0.00030142101896856 0.00025523144476807 -0.00030142101896856 0.00019000720379758 0.00011173611707244 0.00025523144476807 0.00011173611707244 -0.0008228738744831" pbc="T T T"
B        4.51918822       5.47088844       4.37843053       0.14530253      -0.53839043       0.87224706      -0.27272066       0.00423189       0.26617151
H        7.72680842       6.96170742       8.65813836       0.17972338      -0.24544367      -0.13434971       0.29850752      -0.76150551      -0.51429801
H        6.95371926       6.36367327       7.28239427       0.30827936       0.02505941      -0.22724992       0.72405105      -0.26729630       0.20347323
H        8.34282902       7.30198890       7.15356330       0.19857788      -0.09598656      -0.08112363       0.22969590      -0.46108985      -0.11555888
H        4.95057770       5.68988263       3.34186164      -0.13016895      -0.22288526       0.00571374       0.33173959       0.00115608      -1.20211277
H        3.65717098       4.69801110       4.53441628      -0.05662611      -0.03985402      -0.25665581      -0.20287516      -0.25084762       0.11440140
H        4.96567561       6.10121365       5.23685792       0.08823873       0.37349058      -0.08758158       0.15915906       0.24945485       0.83765596
N        7.91874089       6.51209549       7.70763496      -1.11621106       0.50604892       0.06772053      -1.26662602       1.47373626       0.40813034
8
Lattice="12.0 0.0 0.0 0.0 12.0 0.0 0.0 0.0 12.0" Properties=species:S:1:pos:R:3:momenta:R:3:forces:R:3 energy=-438.18177406657 free_energy=-438.18177406657 stress="-0.00033717646786797 -0.00014545531537346 0.00029535959184042 -0.00014545531537346 0.0003589635461135 -0.00015153721747267 0.00029535959184042 -0.00015153721747267 -0.0011842156112161" pbc="T T T"
B        4.50764226       5.47673916       4.38843800      -0.03994397      -0.26595780       0.80989369      -0.20184855       0.19075261       0.55365955
H        7.73244421       6.94831138       8.64784420       0.13606306      -0.21593440      -0.06225445       0.00115903      -0.33539789       0.31063085
H        6.97467874       6.37184563       7.26022556       0.30485101      -0.02605131      -0.29976718      -0.29755053      -0.44880189      -0.02517992
H        8.35630420       7.29937014       7.14064818       0.25165271      -0.18917382      -0.16182505       0.01214115      -0.90565719       0.34823947
H        4.93212621       5.67409488       3.35215580      -0.00028181      -0.26443590       0.05876582       0.48831236       0.07158012      -1.41178496
H        3.64369580       4.70062986       4.51477893       0.07039077      -0.09653503      -0.15948676      -0.20601449      -0.22625142       0.29606646
H        4.96377811       6.13633382       5.23743799       0.18812387       0.13194703       0.06637960      -0.06480784      -0.03228816       0.57757336
N        7.89817590       6.52402101       7.71025978      -1.25713883       0.70983213      -0.10825916       0.27158635       1.68733615      -0.65020817
8
Lattice="12.0 0.0 0.0 0.0 12.0 0.0 0.0 0.0 12.0" Properties=species:S:1:pos:R:3:momenta:R:3:forces:R:3 energy=-438.19017701046 free_energy=-438.19017701046 stress="-0.00063155636535599 -8.544849346451e-05 0.00030899764481424 -8.544849346451e-05 0.00033899019118226 -0.00024804464983392 0.00030899764481424 -0.00024804464983392 -0.0013577924988918" pbc="T T T"
B        4.49467713       5.49267828       4.40004621       0.05958516       0.01266618       0.80054212      -0.02243260       0.24823728       0.64458354
H        7.72430435       6.93982455       8.64418139      -0.00053270      -0.30948199      -0.11670884      -0.15555269       0.03141425       0.99882626
H        6.98440525       6.38911919       7.24054048       0.16055248      -0.03246983      -0.23713305      -0.96399183      -0.60001499      -0.22253874
H        8.36639979       7.29311193       7.13584961       0.24585981      -0.31694335      -0.05331342       0.02741812      -0.85877123       0.51222253
H        4.91720787       5.66342342       3.35581861      -0.00333189      -0.32853727       0.00840200       0.50156026       0.13537367      -1.31710036
H        3.63360021       4.70688807       4.50852616       0.03051987      -0.13924895      -0.05147281      -0.19096613      -0.13044332       0.41213067
H        4.96862982       6.15961580       5.25217258       0.22888806       0.00060600       0.11005152      -0.27235722      -0.24942735       0.27521003
N        7.87703893       6.54662681       7.71259669      -1.03458767       0.91800082      -0.33068992       1.07899711       1.43349948      -1.30479761
8
Lattice="12.0 0.0 0.0 0.0 12.0 0.0 0.0 0.0 12.0" Properties=species:S:1:pos:R:3:momenta:R:3:forces:R:3 energy=-438.21010249268 free_energy=-438.21010249268 stress="-0.00035833949194056 5.0217469018897e-05 0.00040298213453227 5.0217469018897e-05 0.00029633876545779 -0.00030967682978394 0.00040298213453227 -0.00030967682978394 -0.0013612804180063" pbc="T T T"
B        4.48196608       5.51702014       4.41303993       0.00718980       0.03094817       0.75341856      -0.00387166       0.04752060       0.38508581
H        7.70719802       6.94049282       8.64382970      -0.00282343      -0.19687195      -0.04497542      -0.17723386       0.35259928       1.53628275
H        6.97054863       6.41000914       7.22891399      -0.09665037      -0.03619254      -0.14706517      -0.65966015      -0.54278745      -0.06493935
H        8.37859314       7.28438462       7.13034814       0.28404336      -0.28731699      -0.15043325       0.06502067      -0.65215026       0.57009065
H        4.90501698       5.66413327       3.35617030       0.00932486      -0.19404400      -0.13375021       0.42132908       0.16592907      -1.02627280
H        3.62140686       4.71561538       4.50923604      -0.04820113      -0.09692129      -0.07945096      -0.03196023       0.09701132       0.48388389
H        4.96902456       6.18592161       5.26302009       0.11231579       0.03556468       0.01837903      -0.36971611      -0.30693096       0.17160829
N        7.85901177       6.57551223       7.71557115      -0.54834812       0.56893608      -0.09896613       0.74920492       0.82989412      -2.05798070
8
Lattice="12.0 0.0 0.0 0.0 12.0 0.0 0.0 0.0 12.0" Properties=species:S:1:pos:R:3:momenta:R:3:forces:R:3 energy=-438.22108196677 free_energy=-438.22108196677 stress="0.00017916097500559 0.0002550725654916 0.00040869837641548 0.0002550725654916 0.00032723736827751 -0.00042162693325911 0.00040869837641548 -0.00042162693325911 -0.00094126346629997" pbc="T T T"
B        4.46882928       5.53916853       4.42852426       0.01380968       0.29616439       0.71299675       0.09533097      -0.13221709      -0.34177239
H        7.69169638       6.94625771       8.65076829      -0.08465782      -0.13811445       0.02397580      -0.15772201       0.58858052       1.86567619
H        6.94696585       6.43128917       7.22362601      -0.07723712      -0.00803842      -0.09613330       0.04382825      -0.37552145       0.30141254
H        8.39603414       7.27185680       7.12552024       0.22716794      -0.40560023      -0.06692680      -0.04268019      -0.61242107       0.75245260
H        4.90064172       5.67210170       3.34923171       0.17281127      -0.11451918      -0.21824982       0.18099297       0.13112397      -0.33569583
H        3.60396586       4.72814320       4.51251845      -0.09806001      -0.07459176      -0.05157284       0.12373954       0.29111474       0.52393670
H        4.95998398       6.20620677       5.27755094       0.00985789      -0.09787291       0.02048443      -0.38423674      -0.28660358       0.16818453
N        7.84433308       6.59936738       7.72443780      -0.42050460       0.38242534      -0.21878772       0.13984299       0.38923395      -2.93392941
8
Lattice="12.0 0.0 0.0 0.0 12.0 0.0 0.0 0.0 12.0" Properties=species:S:1:pos:R:3:momenta:R:3:forces:R:3 energy=-438.23727988748 free_energy=-438.23727988748 stress="0.00049649319741821 0.00026524051323195 0.00026303419003018 0.00026524051323195 0.00023638924164807 -0.0003351550141895 0.00026303419003018 -0.0003351550141895 -0.00034223716007659" pbc="T T T"
B        4.46138151       5.57294973       4.44084774       0.08315604       0.30076089       0.25375867      -0.07624573      -0.68253040      -1.37792145
H        7.67149148       6.97171763       8.66593143      -0.06524269      -0.00917751       0.14851644       0.01300371       0.49916387       1.37007723
H        6.93312361       6.45655202       7.22146903       0.00025337      -0.09055373      -0.09555054       0.45005253      -0.26634011       0.47985033
H        8.41145278       7.25548955       7.12904019       0.27782712      -0.47713972      -0.01088238       0.26665385      -0.12024239       0.48392408
H        4.90460259       5.69877413       3.33406857       0.07525969      -0.00917185      -0.15437067      -0.12177036       0.08999462       0.45840237
H        3.58854722       4.74451045       4.51712597       0.00459969      -0.22328403       0.04216054       0.44259839       0.63587114       0.50567236
H        4.94901172       6.22427308       5.28642380      -0.06918526      -0.21186048       0.06918777      -0.22871733      -0.03999209       0.42906735
N        7.83364990       6.63431693       7.73025546      -0.53913891       0.57511772      -0.15706339      -0.74463540      -0.10351459      -2.34405660
8
Lattice="12.0 0.0 0.0 0.0 12.0 0.0 0.0 0.0 12.0" Properties=species:S:1:pos:R:3:momenta:R:3:forces:R:3 energy=-438.24426242428 free_energy=-438.24426242428 stress="0.00057176500125432 0.00020967857867753 0.00011356290102259 0.00020967857867753 0.00024036814895408 -5.2056339947675e-05 0.00011356290102259 -5.2056339947675e-05 0.00035729860875117" pbc="T T T"
B        4.45740412       5.60176054       4.43599940       0.37149449      -0.19529816       0.00489616      -0.40949104      -1.16043392      -1.72870975
H        7.65150117       7.00356182       8.68165366      -0.15351368       0.08341898       0.22373149       0.29809171       0.13329105       0.10306030
H        6.92791130       6.47233814       7.21258490      -0.01183565      -0.16581075      -0.02087118       0.52948864      -0.19974435       0.48560979
H        8.42249754       7.24330115       7.12247997       0.15123371      -0.33616995      -0.03928307       0.64294790       0.35098926       0.14313483
H        4.90377216       5.72799917       3.31834634       0.03439493       0.04812789      -0.00148319      -0.22141673       0.09547426       0.75525245
H        3.57750246       4.75669885       4.51420713      -0.06474443      -0.06852268      -0.00212301       0.73959564       0.93415232       0.43096952
H        4.93117786       6.23563314       5.29190173      -0.19751019      -0.13751506       0.08663308      -0.09274091       0.13410869       0.55739578
N        7.82438609       6.66779994       7.72262311      -0.33965392       0.64104478      -0.16442013      -1.48262604      -0.30306925      -0.74653161
8
Lattice="12.0 0.0 0.0 0.0 12.0 0.0 0.0 0.0 12.0" Properties=species:S:1:pos:R:3:momenta:R:3:forces:R:3 energy=-438.23314365284 free_energy=-438.23314365284 stress="0.00076742792032104 0.00023835421737974 -6.9371361281302e-05 0.00023835421737974 0.00029640059346596 8.3019836577764e-05 -6.9371361281302e-05 8.3019836577764e-05 0.00096864824044671" pbc="T T T"
B        4.45266645       5.61336087       4.42708880       0.26525746      -0.28652763      -0.05949683      -0.64836746      -1.35251924      -1.94848008
H        7.63075608       7.03644642       8.69133664      -0.10827744       0.22256266       0.06168813       0.52408288      -0.19293079      -0.97188103
H        6.91695850       6.46328216       7.20795987      -0.00154212      -0.29139825       0.03252987       0.76642237      -0.05976722       0.53830326
H        8.43387731       7.23150785       7.10841801       0.17471699      -0.20419179      -0.04830378       0.52693565       0.34440017       0.17834142
H        4.90313076       5.74756754       3.30866336       0.07032316       0.16331696       0.01372600      -0.22882768       0.08178045       0.84980311
H        3.56612269       4.76849215       4.50024149       0.07927493      -0.01075268      -0.10187100       0.83375135       0.98209152       0.38869681
H        4.90256952       6.23592056       5.29276574      -0.21912479      -0.13162471       0.09808742       0.05932208       0.29164633       0.72442063
N        7.81469566       6.68423700       7.71502400      -0.45044561       0.41901525       0.08245370      -1.83125371      -0.09191469       0.23972685
8
Lattice="12.0 0.0 0.0 0.0 12.0 0.0 0.0 0.0 12.0" Properties=species:S:1:pos:R:3:momenta:R:3:forces:R:3 energy=-438.25221352437 free_energy=-438.25221352437 stress="0.00063939947533088 0.00017637420542503 -0.00028797224533952 0.00017637420542503 0.00025032711858665 2.9683867240514e-05 -0.00028797224533952 2.9683867240514e-05 0.0010828488219555" pbc="T T T"
B        4.43961533       5.61853837       4.42449758       0.39018388      -0.46631361      -0.13079292      -0.59418904      -1.30151938      -2.18279116
H        7.61122610       7.06511514       8.69225503      -0.00830927       0.18225590      -0.04681351       0.53519906      -0.34232489      -1.28897293
H        6.90878174       6.44706068       7.20981180       0.09581619      -0.25320536       0.04943758       0.58194935      -0.02501528       0.41090846
H        8.43984718       7.21915010       7.10475225       0.25428782      -0.21315346       0.03233306       0.24503856       0.14393372       0.32802987
H        4.89335843       5.76376993       3.30774497       0.02799357       0.04828415      -0.00216167      -0.23338801       0.06634683       0.88371061
H        3.56015282       4.78084990       4.49124777       0.12736936       0.07823672      -0.04475685       0.65485667       0.79166034       0.38664676
H        4.87451598       6.22991640       5.29447914      -0.04484701      -0.14759448       0.04384792       0.18848393       0.44620265       0.92662373
N        7.79279388       6.69684700       7.71413855      -1.01405418       0.66373082       0.17013451      -1.37744555       0.23264275       0.53470226
8
Lattice="12.0 0.0 0.0 0.0 12.0 0.0 0.0 0.0 12.0" Properties=species:S:1:pos:R:3:momenta:R:3:forces:R:3 energy=-438.31011499355 free_energy=-438.31011499355 stress="0.00029057196852588 5.7483342166755e-05 -0.00032577968988269 5.7483342166755e-05 0.00015642395438408 -2.3657334240119e-05 -0.00032577968988269 -2.3657334240119e-05 0.00067621430194641" pbc="T T T"
B        4.42833788       5.61988860       4.42099846       0.48165772      -0.28068851      -0.34721300      -0.48054939      -1.10860752      -1.85114472
H        7.60203667       7.08035718       8.68445360       0.11721091       0.03817835      -0.01194479       0.39058490      -0.33853784      -1.04543414
H        6.90550217       6.43251874       7.21407523       0.14611005      -0.20222342       0.02708060       0.14190224      -0.10067380       0.13849261
H        8.44411310       7.20692621       7.11540806       0.13713709      -0.20788793       0.16488074       0.13147622       0.03819183       0.26233650
H        4.87833466       5.77462012       3.31554640      -0.01113237       0.05884787       0.16262089      -0.14906187       0.08568424       0.62934879
H        3.55588690       4.79307379       4.49619326       0.10845348       0.02691637       0.12389217       0.43291240       0.56912045       0.33732740
H        4.86342307       6.21577792       5.30165388       0.12805492      -0.24414407       0.11842409       0.21230645       0.45630855       0.89852810
N        7.76891274       6.70763261       7.71339358      -1.26282205       0.71474132      -0.17339186      -0.68463617       0.41594406       0.62890850
8
Lattice="12.0 0.0 0.0 0.0 12.0 0.0 0.0 0.0 12.0" Properties=species:S:1:pos:R:3:momenta:R:3:forces:R:3 energy=-438.35580417683 free_energy=-438.35580417683 stress="-0.00019729677347829 -0.00011371428328041 -1.4159590714735e-05 -0.00011371428328041 6.71759939792e-05 0.00011662878354092 -1.4159590714735e-05 0.00011662878354092 -4.8107502206839e-05" pbc="T T T"
B        4.42499281       5.62803857       4.40875254       0.26681338      -0.27994272      -0.54095851      -0.55399281      -1.00396539      -0.72724399
H        7.60952490       7.08956271       8.67064357       0.13843034      -0.05906853      -0.08748120       0.21802985      -0.27816969      -0.66277620
H        6.91045370       6.42214886       7.21467269       0.11972869      -0.20536798       0.08708919      -0.31805566      -0.23584665      -0.13396800
H        8.44499045       7.19474722       7.12553785       0.03496001      -0.25508317       0.16243605       0.53831135       0.26933900      -0.21952522
H        4.86862343       5.78593002       3.32935643      -0.01292992      -0.04639713       0.23231086       0.10274754       0.19371506      -0.04970697
H        3.55500955       4.80525278       4.49986215       0.08406079      -0.04986777       0.09219426       0.35779535       0.50602080       0.23555908
H        4.86207696       6.20510369       5.31507463       0.06956651      -0.18912374       0.27071538       0.10902261       0.30675569       0.55556539
N        7.75396629       6.72493876       7.70452497      -0.84156454       0.99916036      -0.15832742      -0.45047198       0.23802278       0.99421042
8
Lattice="12.0 0.0 0.0 0.0 12.0 0.0 0.0 0.0 12.0" Properties=species:S:1:pos:R:3:momenta:R:3:forces:R:3 energy=-438.36914641814 free_energy=-438.36914641814 stress="-0.00042951195735263 -0.00019938167728335 0.0002855622915985 -0.00019938167728335 -1.3877843479506e-05 0.00019341365942722 0.0002855622915985 0.00019341365942722 -0.00052903579534639" pbc="T T T"
B        4.42032500       5.63005653       4.39952279       0.27871991      -0.51309790      -0.57172118      -0.37878530      -0.70141361       0.53901776
H        7.60875474       7.09009354       8.65708965      -0.03823869      -0.08940981      -0.07114647       0.12109806      -0.05944344      -0.04740493
H        6.91118820       6.40364576       7.22068141       0.01883406      -0.33203881       0.11638247      -0.47281714      -0.30845571      -0.24474982
H        8.44150398       7.18636615       7.12191386       0.05256893      -0.09615567      -0.09695022       0.62387386       0.30423377      -0.32247611
H        4.86231426       5.79091225       3.34291035       0.01521815       0.04321274       0.14725799       0.33551306       0.31268705      -0.66254181
H        3.55849602       4.81363385       4.50315971       0.15849176       0.11939582       0.09409873       0.14986818       0.33384607       0.15167212
H        4.86187909       6.18864144       5.34085364       0.05720321      -0.26544632       0.28808508      -0.09119832       0.05736228      -0.01362168
N        7.74226143       6.73721594       7.70084034      -0.66986740       1.05517485       0.14580224      -0.28056990       0.04347609       0.59601358
8
Lattice="12.0 0.0 0.0 0.0 12.0 0.0 0.0 0.0 12.0" Properties=species:S:1:pos:R:3:momenta:R:3:forces:R:3 energy=-438.36541152783 free_energy=-438.36541152783 stress="-0.00012693146581213 -9.0860969059939e-05 0.00049264597637332 -9.0860969059939e-05 -3.1182888477067e-05 0.00026122666277007 0.00049264597637332 0.00026122666277007 -0.00038723196010046" pbc="T T T"
B        4.41223886       5.62325793       4.39198348       0.21016243      -0.33674506      -0.59068251      -0.00845664      -0.29040865       1.53452099
H        7.59569113       7.08166532       8.65284042       0.00768477      -0.06275799       0.02049065       0.11811216       0.11047689       0.30517892
H        6.89556606       6.36169892       7.23128565       0.01969904      -0.41615348       0.13502383       0.14548271      -0.03768333      -0.00075415
H        8.43862981       7.18098273       7.11331662       0.03174556      -0.02187245      -0.06066136       0.23622780       0.09549941      -0.07236165
H        4.85707161       5.78774247       3.34715958       0.05844998      -0.03862698      -0.00503573       0.43393692       0.37747266      -0.93820954
H        3.56137019       4.81901727       4.51799367       0.04854498       0.04696897       0.16128463      -0.17461470       0.03898629       0.03037511
H        4.85146921       6.16038133       5.37378757      -0.04207692      -0.31712120       0.32627989      -0.23586281      -0.12399238      -0.61178439
N        7.72847800       6.74142088       7.70036876      -0.44864415       1.07383198       0.05987774      -0.51303741      -0.18462770      -0.24924855
8
Lattice="12.0 0.0 0.0 0.0 12.0 0.0 0.0 0.0 12.0" Properties=species:S:1:pos:R:3:momenta:R:3:forces:R:3 energy=-438.32851897422 free_energy=-438.32851897422 stress="-4.9463333250069e-05 -5.5747019076918e-05 0.00052482129452233 -5.5747019076918e-05 -1.3604963818625e-05 0.00034461776571759 0.00052482129452233 0.00034461776571759 -3.7831791664582e-05" pbc="T T T"
B        4.40875813       5.61677372       4.37997505       0.37002644      -0.66670582      -0.65059723       0.14346985      -0.06584729       2.49832397
H        7.59271825       7.07438249       8.65378091      -0.00117862      -0.01787985       0.14936147       0.15026482       0.09896944       0.19824853
H        6.89732694       6.32556287       7.23988490       0.11414268      -0.28401244       0.16798774       0.24171759       0.03237101      -0.01199910
H        8.44110763       7.17520681       7.10383410       0.15118804       0.00070818      -0.00977356      -0.02879404      -0.04238074       0.09703495
H        4.86068298       5.78179032       3.34621909       0.17308383       0.02623833       0.02073160       0.51537381       0.41589630      -1.16340967
H        3.55889237       4.82479319       4.53448817       0.01965791       0.07831310       0.29826909      -0.32571804      -0.10566418      -0.14037367
H        4.83920614       6.13384421       5.40298035      -0.13587880      -0.17359301       0.31352398      -0.31841300      -0.24264553      -1.17942901
N        7.71916536       6.74731035       7.69450058      -0.79452706       0.97022745      -0.24753521      -0.38036209      -0.10273568      -0.29984736
8
Lattice="12.0 0.0 0.0 0.0 12.0 0.0 0.0 0.0 12.0" Properties=species:S:1:pos:R:3:momenta:R:3:forces:R:3 energy=-438.29161939715 free_energy=-438.29161939715 stress="0.00014728349007037 5.9207231647609e-05 0.00024431786050897 5.9207231647609e-05 7.626054758776e-05 0.0002717204861398 0.00024431786050897 0.0002717204861398 0.00048431467777554" pbc="T T T"
B        4.40541534       5.61301473       4.37125659       0.33594434      -0.46866878      -0.50430361       0.06716598      -0.04921506       3.00571419
H        7.58793717       7.06551354       8.65984446       0.01138810      -0.16860184       0.02718593       0.22167088       0.04798316      -0.07917417
H        6.90346576       6.30132723       7.24868500       0.09741601      -0.25039336       0.05129389       0.09478612      -0.03441473      -0.16821419
H        8.45457829       7.16913573       7.09582201       0.23744826      -0.10766411      -0.03667312      -0.52868819      -0.29541436       0.46393698
H        4.86433823       5.78330296       3.34015554       0.00948144       0.03212455      -0.07487748       0.48227733       0.38368109      -1.12371594
H        3.54542171       4.83086427       4.55412632      -0.18129866      -0.00211851       0.24349136      -0.22916534      -0.05136149      -0.33705298
H        4.82400304       6.11601740       5.42296587      -0.07546838      -0.20813796       0.16262445      -0.30574416      -0.28159033      -1.53020215
N        7.70983135       6.75484570       7.68939926      -0.52877107       1.11218102       0.16911247       0.19488394       0.27164137      -0.23208971
8
Lattice="12.0 0.0 0.0 0.0 12.0 0.0 0.0 0.0 12.0" Properties=species:S:1:pos:R:3:momenta:R:3:forces:R:3 energy=-438.24233445832 free_energy=-438.24233445832 stress="0.00078055169079451 0.0004699311391645 -4.3168624927569e-05 0.0004699311391645 0.00033631193067229 5.5413427309861e-05 -4.3168624927569e-05 5.5413427309861e-05 0.00073324035404094" pbc="T T T"
B        4.41631908       5.61905086       4.37256532       0.75184413      -0.32776165      -0.27431781      -0.68867398      -0.62334641       3.22131931
H        7.58751125       7.05908889       8.66899599      -0.09061479      -0.11647445       0.04076361       0.30234491       0.19318128       0.12727219
H        6.91176366       6.28385846       7.26616278      -0.02685212      -0.27026901       0.13448675       0.44375662       0.16749927      -0.08389348
H        8.47677115       7.16554520       7.09687818       0.06183472      -0.21058314      -0.05572600      -0.88066916      -0.42381474       0.76412188
H        4.86368251       5.79259792       3.33100401      -0.10348790      -0.03822288      -0.15734212       0.42862211       0.34938106      -0.93411437
H        3.52322885       4.83445480       4.58593955      -0.31200303      -0.07440601       0.26339374       0.41550865       0.45716703      -0.62848373
H        4.81675202       6.09878506       5.44413298      -0.16800340      -0.27877678       0.06631183      -0.14121277      -0.18198694      -1.64429509
N        7.71283597       6.77264214       7.69647485      -0.19784294       1.26066719       0.01660056       0.12074931       0.07086056      -0.82341002
8
Lattice="12.0 0.0 0.0 0.0 12.0 0.0 0.0 0.0 12.0" Properties=species:S:1:pos:R:3:momenta:R:3:forces:R:3 energy=-438.20282293204 free_energy=-438.20282293204 stress="0.0011956892901576 0.0007260896142235 -0.00022013400867899 0.0007260896142235 0.00050664835361582 -3.6414914302685e-05 -0.00022013400867899 -3.6414914302685e-05 0.00092348191134437" pbc="T T T"
B        4.43251980       5.62625236       4.37609483       0.65897808      -0.28065919      -0.14691645      -1.35464215      -1.09430506       2.87333698
H        7.58654606       7.05777882       8.68191953      -0.04938206      -0.16006014       0.08136322       0.45880428       0.21993087      -0.08182899
H        6.91444752       6.27287741       7.28412866      -0.06739198      -0.15703650       0.16224700       0.97895870       0.49545341       0.04776919
H        8.48997261       7.15991927       7.10505797       0.04093661      -0.08533224       0.07210012      -0.65685041      -0.26641594       0.60512468
H        4.86496432       5.80561102       3.31808047      -0.04744295       0.04619701      -0.21877551       0.32962168       0.28277121      -0.59384561
H        3.51002739       4.84008073       4.61072517      -0.15586085      -0.02941363       0.18758524       0.92213059       0.80502857      -0.84592355
H        4.81074983       6.08921022       5.44734656      -0.16197060      -0.16387605      -0.12155943       0.11687056       0.00751238      -1.41941618
N        7.72144844       6.79080937       7.70091023      -0.29487032       0.78066116       0.01471798      -0.79107480      -0.44137062      -0.58781103
8
Lattice="12.0 0.0 0.0 0.0 12.0 0.0 0.0 0.0 12.0" Properties=species:S:1:pos:R:3:momenta:R:3:forces:R:3 energy=-438.16968155949 free_energy=-438.16968155949 stress="0.0015138062508296 0.00088418373111428 -0.00061029122474357 0.00088418373111428 0.00056244820838574 -0.00032550277846488 -0.00061029122474357 -0.00032550277846488 0.0010482646766882" pbc="T T T"
B        4.43801244       5.62491761       4.38860210       0.34778540      -0.50449197       0.11847257      -1.59414507      -1.35463705       1.78642092
H        7.57905871       7.04371899       8.69821971      -0.09438938      -0.13098359       0.04073572       0.55284650       0.30516673      -0.00477747
H        6.90968760       6.26378658       7.31006053      -0.02041040      -0.10977966       0.15669451       1.25282913       0.65750514      -0.00426336
H        8.50025611       7.15958538       7.12635974       0.16208559       0.00397598       0.13598560      -0.73155583      -0.29558482       0.60092105
H        4.86374666       5.81003518       3.30178029       0.02026017      -0.00160699      -0.30310904       0.06494795       0.14833715       0.14979971
H        3.49974389       4.84041462       4.63658731      -0.04461835       0.00696026       0.09460376       1.14937940       0.93832167      -0.96770849
H        4.80192279       6.07254321       5.44601561      -0.05362361      -0.24053877      -0.17693329       0.39342393       0.26880003      -0.95480214
N        7.72032569       6.79880700       7.71358181      -0.38649902       0.93224950      -0.03885691      -1.08639429      -0.66603772      -0.60650814
8
Lattice="12.0 0.0 0.0 0.0 12.0 0.0 0.0 0.0 12.0" Properties=species:S:1:pos:R:3:momenta:R:3:forces:R:3 energy=-438.13900751834 free_energy=-438.13900751834 stress="0.0013944165273035 0.00070780518580956 -0.0012006664535436 0.00070780518580956 0.00036677880648649 -0.00076141427559914 -0.0012006664535436 -0.00076141427559914 0.0010047450072731" pbc="T T T"
B        4.43349994       5.61843946       4.40453165       0.12399282      -0.20313842       0.18213876      -1.56335449      -1.53121901       0.27147089
H        7.55218573       7.02854957       8.71291881      -0.25580324      -0.09173408      -0.01576644       0.68883717       0.39062403       0.01495796
H        6.91269499       6.25910501       7.34062714       0.09441208      -0.00130286       0.17756779       0.89981149       0.37563356      -0.42107051
H        8.50722586       7.15674072       7.15559644       0.01124704      -0.03761711       0.13516062      -0.83337280      -0.34296500       0.60128825
H        4.86596136       5.80436952       3.28708119       0.11049609      -0.03377331      -0.29381209      -0.24701097       0.01031701       0.95498931
H        3.49277414       4.84325928       4.66041265       0.03537255       0.03991100       0.04784507       1.09388218       0.87373518      -1.01991121
H        4.79010054       6.04749221       5.43710162      -0.05925387      -0.12233671      -0.26482505       0.72952334       0.64780922      -0.19428060
N        7.71161545       6.80098934       7.72653628      -0.12327088       0.40996318       0.05655511      -0.77254205      -0.42311262      -0.20529838
8
Lattice="12.0 0.0 0.0 0.0 12.0 0.0 0.0 0.0 12.0" Properties=species:S:1:pos:R:3:momenta:R:3:forces:R:3 energy=-438.08947080758 free_energy=-438.08947080758 stress="0.00092967687106759 0.00035078993983857 -0.0015458234655985 0.00035078993983857 7.8387514012475e-05 -0.0010686709537268 -0.0015458234655985 -0.0010686709537268 0.00075890267130522" pbc="T T T"
B        4.43203361       5.61867366       4.41866849      -0.20192121      -0.42876219      -0.02442431      -1.51308459      -1.71313434      -1.29861741
H        7.53088351       7.03243041       8.72529991      -0.10457089       0.02777540       0.01404205       0.80848969       0.44068411      -0.04106573
H        6.92186953       6.26402273       7.36387040       0.10894881       0.07114338       0.02559876       0.51521161       0.07172523      -0.71773442
H        8.50280532       7.14965183       7.18011349      -0.06267863      -0.10826944       0.15823929      -0.37796745      -0.12543307       0.30939559
H        4.87184084       5.80667795       3.27470009       0.03965381       0.00700912      -0.15481225      -0.49930421      -0.09981586       1.57782417
H        3.49719468       4.85034817       4.67641909       0.11707431       0.05037787       0.06495070       0.94161727       0.75230883      -1.00294364
H        4.78730616       6.03666255       5.41975176       0.01882702      -0.12868781      -0.25466497       1.08344934       1.06114039       0.73500480
N        7.71000361       6.80696329       7.74031761       0.02741566       0.47311369       0.19379552      -0.96534867      -0.39272046       0.44173250
8
Lattice="12.0 0.0 0.0 0.0 12.0 0.0 0.0 0.0 12.0" Properties=species:S:1:pos:R:3:momenta:R:3:forces:R:3 energy=-438.08904977205 free_energy=-438.08904977205 stress="3.2466580267908e-05 -0.00025737479265945 -0.0016084366495171 -0.00025737479265945 -0.00035346159753167 -0.0011651338732336 -0.0016084366495171 -0.0011651338732336 0.00050146299511468" pbc="T T T"
B        4.42141790       5.61178554       4.41909294      -0.55089622      -0.51528441      -0.10651759      -1.01943840      -1.35541922      -1.96699528
H        7.51524336       7.03443256       8.72850496      -0.13073027       0.05992648       0.09101101       0.83708277       0.40417551      -0.17048118
H        6.93266936       6.27438084       7.36531434       0.21709333       0.10788500      -0.11187161      -0.24014277      -0.45865408      -1.07157814
H        8.48959423       7.14147512       7.19662094       0.00648293      -0.04541854       0.16445559       0.23224145       0.14186075      -0.08337701
H        4.86937045       5.81715858       3.27149504       0.03108646       0.14343697       0.07661129      -0.62203014      -0.19793056       1.74565372
H        3.51040577       4.85852488       4.67622905       0.26614796       0.22200595      -0.03503156       0.42691580       0.32564046      -0.91325586
H        4.78159085       6.02918395       5.40414825       0.09760155       0.02387368      -0.12339972       1.22696835       1.22803018       1.14578154
N        7.70332093       6.80607830       7.74333073       0.01075665      -0.02981023       0.06563733      -0.85106929      -0.09286910       1.31878788
8
Lattice="12.0 0.0 0.0 0.0 12.0 0.0 0.0 0.0 12.0" Properties=species:S:1:pos:R:3:momenta:R:3:forces:R:3 energy=-438.13567889076 free_energy=-438.13567889076 stress="-0.00086991462673781 -0.00088769494834809 -0.0013518515091205 -0.00088769494834809 -0.00077411522598337 -0.00091033988943588 -0.0013518515091205 -0.00091033988943588 0.00043870622491832" pbc="T T T"
B        4.40360030       5.59629246       4.40015557      -0.66480241      -0.66385289      -0.34803681      -0.06572337      -0.43321227      -1.66995557
H        7.49006565       7.03095396       8.72123922      -0.07798244       0.05488168       0.09016279       0.90041194       0.23039233      -0.75444843
H        6.94078383       6.27003793       7.33242530       0.14631416      -0.00804135      -0.26179234      -0.70589247      -0.76452565      -1.20810313
H        8.47588886       7.12815769       7.19505622      -0.00007182       0.02058113       0.11138862       0.76867586       0.38529723      -0.37559858
H        4.85943767       5.82191410       3.27876078       0.01737761       0.16482179       0.32928288      -0.56509170      -0.23873587       1.33021192
H        3.52411114       4.87184231       4.65314452       0.25326550       0.15976581      -0.03553983      -0.48547315      -0.44699269      -0.69259900
H        4.77970132       6.02776895       5.37730479       0.09927916       0.14981316      -0.07163136       1.12897435       1.11937222       1.04475955
N        7.69277618       6.79659862       7.72780800       0.17827014       0.09132201       0.20547422      -0.98228596       0.15398432       2.33121045
8
Lattice="12.0 0.0 0.0 0.0 12.0 0.0 0.0 0.0 12.0" Properties=species:S:1:pos:R:3:momenta:R:3:forces:R:3 energy=-438.1978545823 free_energy=-438.1978545823 stress="-0.0011732331403036 -0.001097456733858 -0.00079333270965091 -0.001097456733858 -0.00091508768215956 -0.00047428485203357 -0.00079333270965091 -0.00047428485203357 0.00034027337264246" pbc="T T T"
B        4.38532021       5.58002873       4.37896146      -0.56724653      -0.61815055      -0.24678370       0.87484242       0.60118443      -0.69862814
H        7.47159659       7.02458158       8.70539744      -0.09383976      -0.01740683      -0.00374561       0.81537594       0.13229916      -0.88711342
H        6.94084656       6.25803012       7.27924137       0.07618698       0.03162310      -0.42950784      -0.38229964      -0.47355940      -0.81957506
H        8.46766255       7.12166651       7.18475336       0.00111066       0.07227768       0.07640756       0.83684708       0.43852925      -0.32797931
H        4.84361887       5.82259070       3.29460256      -0.04682085       0.09981462       0.29982594      -0.36769677      -0.21553592       0.58733149
H        3.53233745       4.87833349       4.63259532       0.12913334       0.13653950      -0.06423924      -1.33492919      -1.18790183      -0.44666553
H        4.77838440       6.04280005       5.35446549       0.11176593       0.34785232      -0.09237825       0.84100182       0.80267963       0.57102517
N        7.68213304       6.78749570       7.71196632       0.34535513      -0.07987565       0.47844586      -1.28627733      -0.08308178       2.02022144
8
Lattice="12.0 0.0 0.0 0.0 12.0 0.0 0.0 0.0 12.0" Properties=species:S:1:pos:R:3:momenta:R:3:forces:R:3 energy=-438.22716829708 free_energy=-438.22716829708 stress="-0.0012020239719898 -0.0010363926287449 -5.1062448727389e-05 -0.0010363926287449 -0.00082545890486078 2.5915840611128e-05 -5.1062448727389e-05 2.5915840611128e-05 -4.5308302032088e-05" pbc="T T T"
B        4.38222942       5.57007626       4.35656943      -0.30321062      -0.39781035      -0.51378189       1.20142803       1.23130871       0.74621983
H        7.46375204       7.01532101       8.68325144      -0.00964160      -0.02593657      -0.01602410       0.67843707       0.14124757      -0.63320324
H        6.94395843       6.26336304       7.21317841      -0.04362691       0.17404001      -0.47756903       0.11937298      -0.03274768      -0.20594167
H        8.46295034       7.11989157       7.16749926       0.01708780       0.05471380      -0.02644825       0.99113376       0.55474555      -0.26212342
H        4.83676774       5.83088429       3.31674856      -0.02976184       0.19824801       0.46237612      -0.01028405      -0.11012896      -0.50209436
H        3.53704966       4.88010843       4.61176547       0.03510064      -0.05887555      -0.04436762      -1.65082649      -1.49357075      -0.29212987
H        4.79702303       6.07264027       5.32885134       0.22505210       0.38031675      -0.04446584       0.47372840       0.37284783       0.06050672
N        7.68329845       6.78092708       7.69782026       0.06854320      -0.34803575       0.67657750      -1.80732562      -0.64458076       1.08373347
8
Lattice="12.0 0.0 0.0 0.0 12.0 0.0 0.0 0.0 12.0" Properties=species:S:1:pos:R:3:momenta:R:3:forces:R:3 energy=-438.22171188321 free_energy=-438.22171188321 stress="-0.00068773990614874 -0.00065876825801583 0.0003522632115173 -0.00065876825801583 -0.00049320793582062 0.00045420769315035 0.0003522632115173 0.00045420769315035 5.3892773802155e-05" pbc="T T T"
B        4.37582054       5.56909265       4.33025097      -0.17065114       0.04491204      -0.57501184       1.03669783       1.36993394       2.45747040
H        7.46041375       7.01700725       8.66815503       0.08280818       0.04351966       0.12315177       0.57437500       0.01252358      -0.83040609
H        6.93710527       6.28279867       7.15166116       0.02436918       0.25483425      -0.27162170       0.39648072       0.21829363       0.24722583
H        8.47141548       7.12839792       7.14822230       0.21272634       0.08284939       0.07221797       0.36549612       0.28621782       0.21232415
H        4.83470347       5.83971735       3.33184497       0.05613182       0.01252975       0.25236017       0.37146535       0.06444041      -1.61665249
H        3.52858452       4.87160208       4.58894935      -0.15628991      -0.14706133       0.03933342      -1.40465158      -1.30527438      -0.29322945
H        4.81772069       6.10964147       5.30614347       0.20791236       0.33540090      -0.01930562       0.01139211      -0.12845528      -0.53476142
N        7.67784956       6.77742028       7.67934376      -0.29395913      -0.64640151       0.39320784      -1.35400749      -0.49562807       0.35593262
8
Lattice="12.0 0.0 0.0 0.0 12.0 0.0 0.0 0.0 12.0" Properties=species:S:1:pos:R:3:momenta:R:3:forces:R:3 energy=-438.18725418108 free_energy=-438.18725418108 stress="4.4862281828331e-05 -0.00014473808750862 0.00020872860167242 -0.00014473808750862 -1.363365678145e-05 0.00062674572265508 0.00020872860167242 0.00062674572265508 0.00061418277203921" pbc="T T T"
B        4.37469162       5.58209304       4.30904507      -0.25975688       0.56578503      -0.23451476       0.25478923       0.85083902       3.66694276
H        7.46278387       7.03390961       8.66936304       0.00771915       0.07116770       0.13144688       0.63570227      -0.26233483      -1.68624448
H        6.93999957       6.31283813       7.11368065       0.01501909       0.15660532      -0.13274272       0.19468650       0.12255934       0.25990747
H        8.49195592       7.14122245       7.13107987       0.11739111       0.02592911       0.01947402      -0.37768598      -0.04836017       0.69294169
H        4.83870385       5.84830560       3.33063696       0.02789761      -0.02115685       0.08543334       0.59663516       0.16777033      -2.25943544
H        3.50804408       4.85877755       4.57807669      -0.22117625      -0.22652538       0.10158503      -0.50511715      -0.54279075      -0.48575497
H        4.83961154       6.15316337       5.28494251       0.18186625       0.32125867      -0.04698632      -0.33071033      -0.47477079      -0.90716601
N        7.67773230       6.78161372       7.66212240       0.09738398      -0.90878459       0.08908718      -0.47022647       0.20891949       0.72407049
8
Lattice="12.0 0.0 0.0 0.0 12.0 0.0 0.0 0.0 12.0" Properties=species:S:1:pos:R:3:momenta:R:3:forces:R:3 energy=-438.19136835104 free_energy=-438.19136835104 stress="0.00058893152600005 0.00031201587810296 0.00010456115375436 0.00031201587810296 0.0003942976274351 0.00060039686573985 0.00010456115375436 0.00060039686573985 0.00091515090339016" pbc="T T T"
B        4.37687791       5.60093858       4.31044716      -0.05915669       0.74489559       0.13237527      -0.22410814       0.39246965       3.72203571
H        7.47011096       7.04976247       8.67551671       0.08174042       0.02820401      -0.06804199       0.55467960      -0.38433438      -1.88003826
H        6.94366878       6.33875342       7.09777865      -0.01504742       0.13670757      -0.25200997       0.16727164       0.12862860       0.34661231
H        8.50385428       7.15652797       7.14358220       0.07827676       0.01751517       0.16517622      -0.58004479      -0.16563333       0.76277447
H        4.84319133       5.85807787       3.32448329       0.03026138      -0.02367034      -0.22148709       0.48549665       0.09391058      -2.10469921
H        3.49614572       4.84347203       4.58634415      -0.02816426      -0.32601386       0.09142048       0.26217511       0.14380611      -0.62399199
H        4.85717513       6.19817014       5.27349678       0.07759242       0.36276516      -0.18463762      -0.50725451      -0.62869790      -0.97851199
N        7.68094476       6.78686482       7.66494513      -0.19613972      -0.95268589       0.34917034      -0.16165030       0.44156913       0.76161854
8
Lattice="12.0 0.0 0.0 0.0 12.0 0.0 0.0 0.0 12.0" Properties=species:S:1:pos:R:3:momenta:R:3:forces:R:3 energy=-438.24848855278 free_energy=-438.24848855278 stress="0.0009908444390508 0.00067496321911692 -5.973921472448e-06 0.00067496321911692 0.00067079611554566 0.00042111567092307 -5.973921472448e-06 0.00042111567092307 0.0012995383924946" pbc="T T T"
B        4.37155086       5.61819452       4.33227928      -0.32712130       0.49457093       0.36348517      -0.01291167       0.27305775       2.52252440
H        7.47735297       7.06591854       8.68794934       0.15286011       0.11366681      -0.14697680       0.27664166      -0.41064539      -1.55139227
H        6.94415072       6.36291628       7.08502564       0.05796413       0.21579568      -0.32040982       0.33646136       0.27839889       0.70916131
H        8.50751691       7.16953510       7.18101680       0.00079407       0.01162322       0.19716628      -0.63171662      -0.23028897       0.72668855
H        4.84668180       5.86933088       3.31205066       0.08836135      -0.01302346      -0.36247780      -0.02594713      -0.17231354      -1.06118267
H        3.49248309       4.83046490       4.61062426       0.03805186      -0.12838129      -0.02083171       0.61733475       0.52281748      -0.64386907
H        4.86522972       6.23600476       5.26930209       0.10759870       0.21273825      -0.20827442      -0.56173310      -0.62212220      -0.80377413
N        7.67625164       6.79190712       7.68684393      -0.14650912      -0.91594174       0.50957110       0.00160174       0.38039167       0.09489393
8
Lattice="12.0 0.0 0.0 0.0 12.0 0.0 0.0 0.0 12.0" Properties=species:S:1:pos:R:3:momenta:R:3:forces:R:3 energy=-438.27743766887 free_energy=-438.27743766887 stress="0.00090530193094383 0.00072291237716831 -4.0560313789929e-05 0.00072291237716831 0.00064956089013455 0.00015035238234946 -4.0560313789929e-05 0.00015035238234946 0.0013239977672801" pbc="T T T"
B        4.36101820       5.62170366       4.36543068      -0.52758026       0.29614492       0.44771406       0.86655909       0.69599751       1.06476951
H        7.49113728       7.07013911       8.69615160       0.24549710      -0.02231206      -0.21340800      -0.18707869      -0.24389091      -0.47631763
H        6.95015102       6.38654358       7.08501690       0.15959878       0.27962740      -0.18465695       0.15773691       0.21505058       0.84676492
H        8.50154918       7.17413794       7.23137799       0.00166210       0.05696013       0.27002134      -0.48343355      -0.23833063       0.57103631
H        4.85658637       5.87477536       3.30384840       0.20826061       0.08919378      -0.33876360      -0.62351466      -0.46175992       0.16609264
H        3.49845082       4.82586206       4.63634994       0.12415130       0.05054929      -0.07418087       0.43692009       0.42570092      -0.51574660
H        4.87490391       6.25535567       5.28021772       0.16671256       0.18523644      -0.20765910      -0.66283640      -0.65837189      -0.69996225
N        7.66866575       6.78575957       7.71982693      -0.40364952      -0.94147893       0.31047902       0.49827054       0.28245181      -0.95517477
8
Lattice="12.0 0.0 0.0 0.0 12.0 0.0 0.0 0.0 12.0" Properties=species:S:1:pos:R:3:momenta:R:3:forces:R:3 energy=-438.21347194717 free_energy=-438.21347194717 stress="0.00047653196322877 0.00054646646969297 -0.00017130380078078 0.00054646646969297 0.00044931048228665 -0.00020770563784856 -0.00017130380078078 -0.00020770563784856 0.00089432056290901" pbc="T T T"
B        4.35281063       5.61864403       4.39976692      -0.19482188       0.22722402       0.61274111       1.76878061       1.23587377      -0.39219507
H        7.50647508       7.06198962       8.70294305       0.15794790      -0.03275602      -0.15991612      -0.66252952      -0.01267331       0.78241358
H        6.96106158       6.41148604       7.09592765       0.18514587       0.33349785      -0.11522072      -0.43087421      -0.08072360       0.50534223
H        8.49543589       7.17283474       7.29184864      -0.04709229      -0.00184337       0.35241051      -0.15043124      -0.18828442       0.22731791
H        4.87256673       5.87693999       3.29705695       0.18825923       0.05465942      -0.33242581      -1.12840323      -0.71319297       1.18931438
H        3.50456411       4.82716526       4.65213328       0.03147372       0.07464927      -0.14169648       0.09242867       0.13872662      -0.30902961
H        4.88445307       6.26971998       5.28434581       0.09398844       0.17762611      -0.27405236      -0.71544797      -0.65947919      -0.47313046
N        7.66016240       6.77437303       7.74946525      -0.43758131      -0.83691532       0.06696802       1.23031324       0.29895296      -1.52822166
8
Lattice="12.0 0.0 0.0 0.0 12.0 0.0 0.0 0.0 12.0" Properties=species:S:1:pos:R:3:momenta:R:3:forces:R:3 energy=-438.12479325058 free_energy=-438.12479325058 stress="-0.00015063902215647 0.00022289107555698 -0.0002529463857376 0.00022289107555698 0.00019842815789978 -0.00041510625719971 -0.0002529463857376 -0.00041510625719971 0.00049532761441892" pbc="T T T"
B        4.35339840       5.61835921       4.42120941       0.05981927       0.37543983       0.47676436       2.10348874       1.38400259      -1.57089846
H        7.51733700       7.05475834       8.71214826       0.05618069      -0.04175803       0.02964377      -0.92682066       0.03908370       1.29365930
H        6.97289296       6.43548210       7.10058117       0.04064094       0.20030790      -0.12508509      -0.90445050      -0.29792566       0.15425481
H        8.48938265       7.16858145       7.34177675      -0.07022173       0.02240731       0.31061463       0.58225414       0.07671646      -0.28374765
H        4.88113431       5.87684598       3.28785174       0.01042655      -0.10888067      -0.14544692      -1.36356568      -0.83367061       1.75193084
H        3.51061735       4.83141855       4.65117723       0.01328199       0.09821106      -0.18895821      -0.13617725      -0.06795630      -0.12711309
H        4.89058941       6.27822379       5.27099662       0.01728149       0.14987512      -0.27060062      -0.58661056      -0.48038114      -0.04012011
N        7.65895585       6.76669870       7.76628543      -0.14760645      -0.69751913      -0.07883306       1.23429106       0.19004022      -1.18026354
8
Lattice="12.0 0.0 0.0 0.0 12.0 0.0 0.0 0.0 12.0" Properties=species:S:1:pos:R:3:momenta:R:3:forces:R:3 energy=-438.08711662996 free_energy=-438.08711662996 stress="-0.00049354685131307 -1.1441838525397e-05 -0.00040023144186676 -1.1441838525397e-05 6.5828283473358e-05 -0.00034427789758943 -0.00040023144186676 -0.00034427789758943 0.00066943003089828" pbc="T T T"
B        4.35250374       5.60996686       4.42089733       0.31480146       0.40591919       0.27891134       2.28176721       1.48300725      -2.22548729
H        7.51758407       7.03818982       8.72318673      -0.02693354      -0.06193013       0.15274036      -0.96347281      -0.26432548       0.52393615
H        6.97554570       6.44841543       7.08473467       0.07463941       0.23290065      -0.17183950      -1.25917127      -0.42205654      -0.15736113
H        8.48644370       7.16969740       7.36573718       0.06823127       0.14974689       0.22952545       0.68976757       0.08056167      -0.46441633
H        4.87883824       5.85727713       3.27681327      -0.02810855      -0.10453533       0.04094811      -1.37818946      -0.82837664       1.88314745
H        3.51355630       4.83030260       4.62456618       0.07073208       0.12640637      -0.26012419      -0.40132765      -0.30910000       0.06676882
H        4.89114864       6.28082941       5.24287003       0.02966640       0.07296021      -0.19578015      -0.48532589      -0.34350182       0.28932923
N        7.65258473       6.75052649       7.76096810      -0.52110070      -0.82273242      -0.06723415       1.51764721       0.59039047       0.08342023
8
Lattice="12.0 0.0 0.0 0.0 12.0 0.0 0.0 0.0 12.0" Properties=species:S:1:pos:R:3:momenta:R:3:forces:R:3 energy=-438.0966477917 free_energy=-438.0966477917 stress="-0.0004544449468084 -6.2650098580471e-05 -0.00045470407387861 -6.2650098580471e-05 2.4555539044393e-06 -0.00024921495751597 -0.00045470407387861 -0.00024921495751597 0.00074765384757317" pbc="T T T"
B        4.34666609       5.59509614       4.40775180       0.50684889       0.42455073      -0.13491449       2.34876211       1.62006165      -2.38111562
H        7.50335422       7.01440087       8.72339122      -0.12668592      -0.09581122       0.13515105      -0.97014599      -0.50203865      -0.16813627
H        6.96464949       6.45165941       7.05634837      -0.08071943       0.21695330      -0.16364948      -1.27520108      -0.37357885      -0.20079875
H        8.48568585       7.17502932       7.37269610       0.10298829       0.27378509       0.20232978       0.07775722      -0.26014532      -0.30625494
H        4.86653789       5.82955993       3.27660878      -0.05369869      -0.07428207       0.23400256      -1.21723928      -0.76450805       1.60879279
H        3.51431415       4.82497068       4.59011900       0.10977528       0.02884826      -0.14787774      -0.73651943      -0.63340261       0.23277200
H        4.87274054       6.28132080       5.20997113      -0.11452043       0.22128001      -0.19722667      -0.37837912      -0.22042781       0.55370190
N        7.63978528       6.72607271       7.74637096      -0.36018182      -0.99797894       0.07860431       2.14966764       1.12735057       0.66402734
8
Lattice="12.0 0.0 0.0 0.0 12.0 0.0 0.0 0.0 12.0" Properties=species:S:1:pos:R:3:momenta:R:3:forces:R:3 energy=-438.15606077827 free_energy=-438.15606077827 stress="-7.2035839147065e-05 8.0773883868595e-05 -0.0003787230955058 8.0773883868595e-05 6.587152816739e-05 -0.00018390907268241 -0.0003787230955058 -0.00018390907268241 0.00076590897179163" pbc="T T T"
B        4.34819233       5.58907454       4.38663316       0.91442914       0.60312844      -0.21205457       1.55412964       1.00216324      -2.26456778
H        7.46962217       7.00107684       8.71740812      -0.37466250      -0.01275942       0.19415785      -0.77971881      -0.68469622      -0.96163054
H        6.94564702       6.45979058       7.02018530      -0.21571403       0.18783353      -0.11494059      -0.74801509      -0.12446646       0.21414225
H        8.48742647       7.18955530       7.36660002       0.04940424       0.20385600       0.08786210      -0.54206111      -0.59480651      -0.07340761
H        4.84923868       5.80742067       3.28259188      -0.17971800      -0.17325604       0.32521659      -0.85109001      -0.61938848       0.95521765
H        3.51257353       4.81044470       4.54975813      -0.05360960      -0.03053485      -0.20619862      -0.57509948      -0.50682662       0.28847382
H        4.84649135       6.28507148       5.16767072      -0.29261968       0.10906186      -0.23318618      -0.11116858       0.12571575       1.03587475
N        7.63410943       6.70739106       7.72714829       0.13780702      -0.88980262       0.16520489       2.05236314       1.41778276       0.80862047
8
Lattice="12.0 0.0 0.0 0.0 12.0 0.0 0.0 0.0 12.0" Properties=species:S:1:pos:R:3:momenta:R:3:forces:R:3 energy=-438.17181995884 free_energy=-438.17181995884 stress="0.00033328597839051 0.00019753800375489 -0.00014591018231748 0.00019753800375489 4.8935193011012e-05 -0.00022163481657692 -0.00014591018231748 -0.00022163481657692 0.00044589383410143" pbc="T T T"
B        4.36138838       5.58283001       4.36704455       0.91785269       0.32087028      -0.10805377       0.27857783       0.01853635      -1.97051591
H        7.44382195       6.98676217       8.70443548      -0.27631292      -0.02212899       0.00922928      -0.54496984      -0.72638873      -1.39648512
H        6.92490526       6.47474302       6.98731124      -0.25358967       0.23325802      -0.09287586      -0.00754329       0.13514853       0.79040702
H        8.49734969       7.19324476       7.35436919       0.05918473       0.03611110       0.07679739      -0.92212760      -0.78245903       0.08883001
H        4.84202053       5.77766123       3.29556452      -0.06636649      -0.23809091       0.26811783      -0.31994759      -0.43694122       0.03209468
H        3.50265031       4.80675524       4.51388453      -0.19183397       0.12088676      -0.13439881      -0.21740002      -0.23516221       0.29800066
H        4.81811743       6.28584476       5.12889866      -0.32018299       0.15073414      -0.11957380       0.27585476       0.65515511       1.65526743
N        7.63921502       6.69111758       7.70809299       0.11794902      -0.60235636       0.10647602       1.45855884       1.38284111       0.50139064
8
Lattice="12.0 0.0 0.0 0.0 12.0 0.0 0.0 0.0 12.0" Properties=species:S:1:pos:R:3:momenta:R:3:forces:R:3 energy=-438.17958017541 free_energy=-438.17958017541 stress="0.00061102164215174 0.00029416559138692 0.00028492113197202 0.00029416559138692 7.9492336413816e-05 -0.00014560348101726 0.00028492113197202 -0.00014560348101726 -6.8031104350888e-05" pbc="T T T"
B        4.37719263       5.58012777       4.35344967       0.77728991       0.05956834      -0.22061546      -0.69776031      -0.46237085      -0.96435909
H        7.42368059       6.97467437       8.68665446      -0.29743800      -0.04842829      -0.15030042      -0.35366838      -0.63182437      -1.34605888
H        6.90895525       6.49439711       6.96956690      -0.21194000       0.27602765       0.04024531       0.57148359       0.25879863       1.13388911
H        8.50980013       7.18511809       7.34840002       0.02718589      -0.05880260       0.08405330      -0.96334944      -0.75280220       0.11754213
H        4.84321005       5.74735930       3.31334554      -0.14984364      -0.29790822       0.34860584       0.26669336      -0.25043526      -0.99940621
H        3.49019987       4.81488191       4.48998254      -0.20450211       0.09176543      -0.06278775       0.10816952      -0.00680108       0.29350846
H        4.80303325       6.29677177       5.11639163      -0.12106020       0.25133286       0.11939756       0.34025601       0.72122319       1.68509184
N        7.64804897       6.68282209       7.69537663       0.16835322      -0.27334422      -0.15351691       0.72925036       1.12543025       0.07803160
8
Lattice="12.0 0.0 0.0 0.0 12.0 0.0 0.0 0.0 12.0" Properties=species:S:1:pos:R:3:momenta:R:3:forces:R:3 energy=-438.19501968237 free_energy=-438.19501968237 stress="0.00070504896994428 0.00044130231347935 0.00090575349752213 0.00044130231347935 0.00029123352667572 6.4488391702179e-05 0.00090575349752213 6.4488391702179e-05 -0.00093650223541069" pbc="T T T"
B        4.39489016       5.58321981       4.34511426       0.53907091       0.09003363      -0.34181080      -1.52904518      -0.39035887       1.04142443
H        7.41304592       6.96737389       8.66223854      -0.22118716      -0.15455940      -0.18883941      -0.30116550      -0.38578588      -0.63371919
H        6.90018538       6.52800760       6.97241486      -0.17813713       0.35475513       0.15963494       0.86539751       0.23169012       1.12444460
H        8.51998466       7.17585992       7.35193653      -0.04808800      -0.14332235       0.04872005      -0.65247290      -0.54036691       0.00273087
H        4.84737165       5.72568530       3.33776146      -0.01650998      -0.22412707       0.16616462       0.94361855      -0.06863008      -2.25473365
H        3.48001534       4.82414008       4.48598343      -0.22869674       0.08786187      -0.00183196       0.52222717       0.27737313       0.22223739
H        4.79740705       6.32680999       5.13140634      -0.24208443       0.33496307       0.30066731       0.08078269       0.18365723       1.00630650
N        7.66128391       6.68207781       7.69116677       0.38491098      -0.34552600      -0.13826821       0.07241823       0.69278973      -0.51030700
8
Lattice="12.0 0.0 0.0 0.0 12.0 0.0 0.0 0.0 12.0" Properties=species:S:1:pos:R:3:momenta:R:3:forces:R:3 energy=-438.21610992702 free_energy=-438.21610992702 stress="0.000366842760603 0.00038707023733817 0.0012940206032739 0.00038707023733817 0.00042739301037933 0.00023439570298641 0.0012940206032739 0.00023439570298641 -0.0015290679567739" pbc="T T T"
B        4.41612737       5.58883797       4.35415697       0.27659361       0.07561980      -0.01397027      -1.80200504       0.10810607       2.24295632
H        7.40536610       6.95414491       8.64589682      -0.26607262      -0.14565307      -0.37125491      -0.31912121      -0.02302107       0.53378918
H        6.90747170       6.56315023       7.00016592      -0.03946719       0.27678640       0.13677286       0.79292561       0.07671967       0.76512362
H        8.52298027       7.15998499       7.36707266      -0.12554420      -0.26117010       0.02036307       0.26405396      -0.00801696      -0.24975011
H        4.87010165       5.71093629       3.35410318       0.12799461      -0.14145417      -0.10278945       1.19805233      -0.02764952      -2.51382198
H        3.47701973       4.84001501       4.49736944      -0.14225281       0.15764126      -0.02211481       0.80107113       0.42519432       0.15390496
H        4.79237131       6.36361291       5.17592706      -0.16229757       0.30873126       0.31600706      -0.17980435      -0.50348054       0.13276933
N        7.68032700       6.68488187       7.70280714       0.32151152      -0.27053272       0.04085407      -0.75558960      -0.04448884      -1.06678261
8
Lattice="12.0 0.0 0.0 0.0 12.0 0.0 0.0 0.0 12.0" Properties=species:S:1:pos:R:3:momenta:R:3:forces:R:3 energy=-438.2133510494 free_energy=-438.2133510494 stress="6.9135406366068e-05 0.00022570099313177 0.0012588358561119 0.00022570099313177 0.00048915424907856 0.00037226189517978 0.0012588358561119 0.00037226189517978 -0.0013191741818044" pbc="T T T"
B        4.43341709       5.58327140       4.37566398       0.31262844      -0.30402496       0.09977275      -1.43080577       0.82653205       2.18538909
H        7.38347992       6.94488085       8.64226724      -0.43857640      -0.01974633      -0.13552744      -0.18048228       0.22537464       1.23245162
H        6.91478529       6.59108006       7.03665475      -0.09540190       0.42859728       0.21199857       0.68301588      -0.08524948       0.35334401
H        8.52238041       7.14543586       7.38309914      -0.13104134      -0.01339994      -0.07192292       1.09925733       0.49394427      -0.41776021
H        4.89947512       5.69709426       3.35773276       0.20264219      -0.06612007      -0.18888172       0.93331028      -0.12010873      -1.72710123
H        3.47761959       4.85456414       4.52117615      -0.11386036       0.19828202       0.00880053       0.84542415       0.36240160       0.11418791
H        4.79070391       6.38720054       5.22674654      -0.20005826       0.25708014       0.29660802      -0.33073835      -1.06639352      -0.55610636
N        7.69847520       6.67893580       7.72314948       0.45498945      -0.48064070      -0.21752043      -1.62068381      -0.64443589      -1.18391350
8
Lattice="12.0 0.0 0.0 0.0 12.0 0.0 0.0 0.0 12.0" Properties=species:S:1:pos:R:3:momenta:R:3:forces:R:3 energy=-438.19695846137 free_energy=-438.19695846137 stress="-4.0769845126538e-05 4.5739023197702e-05 0.00062948495429433 4.5739023197702e-05 0.0005627297574267 0.00051845937528803 0.00062948495429433 0.00051845937528803 -0.00035971984777073" pbc="T T T"
B        4.44296296       5.57240432       4.39849163       0.12469437       0.11728500       0.65126624      -0.77418393       1.53629939       1.31414258
H        7.35381764       6.93359179       8.65333441      -0.34228038      -0.02923370      -0.04109482       0.30854501       0.17503195       0.86035855
H        6.91954109       6.61430366       7.07336427      -0.05470417       0.28005860       0.16821870       0.30682483      -0.23986954      -0.25808999
H        8.52135804       7.13537554       7.39001229      -0.07665714      -0.01354646      -0.10040477       1.36797621       0.71915946      -0.36516452
H        4.93112244       5.68582106       3.34666559       0.21847029       0.00580547      -0.35881037       0.40616525      -0.26499767      -0.41566514
H        3.47864196       4.86462446       4.53987112      -0.03617111       0.13034711      -0.02624300       0.73965475       0.17936106       0.10916440
H        4.77267417       6.40546826       5.26848907      -0.32348080       0.22679597       0.22874605      -0.35453481      -1.44789142      -0.99110170
N        7.70977634       6.66391454       7.73859405       0.48209359      -0.71866494      -0.51864391      -2.00393446      -0.68026087      -0.25047569
8
Lattice="12.0 0.0 0.0 0.0 12.0 0.0 0.0 0.0 12.0" Properties=species:S:1:pos:R:3:momenta:R:3:forces:R:3 energy=-438.15103894274 free_energy=-438.15103894274 stress="0.00018298169664948 -1.0043980296856e-05 -0.00020440693691155 -1.0043980296856e-05 0.00059618643231345 0.00051100157668798 -0.00020440693691155 0.00051100157668798 0.00061782854453084" pbc="T T T"
B        4.44044117       5.56884702       4.42088702      -0.04837045       0.39837336       0.36516129      -0.24497899       1.82025724       0.25517977
H        7.31889622       6.92123443       8.67072162      -0.30358505      -0.13441842       0.02734756       0.85649618       0.09448126       0.35164870
H        6.91312513       6.62879302       7.10814199      -0.03458986       0.19236069       0.16187433      -0.01118742      -0.31888261      -0.78581168
H        8.52457019       7.12802942       7.39039203       0.20991301       0.01950426      -0.19585803       0.93319091       0.55541883      -0.04081664
H        4.95007284       5.67368485       3.32927838       0.17677522      -0.09167239      -0.26212473      -0.08701831      -0.33216954       0.79192106
H        3.47542981       4.87197058       4.55600211       0.00646843       0.12144578      -0.01908499       0.59835003       0.02335341       0.11344747
H        4.73907302       6.41044719       5.30245705      -0.22235176      -0.00559106       0.14079561      -0.24945666      -1.50854477      -1.14397647
N        7.70943593       6.65355085       7.75330049       0.20815829      -0.50317518      -0.21505853      -1.80128761      -0.35210239       0.46052454
8
Lattice="12.0 0.0 0.0 0.0 12.0 0.0 0.0 0.0 12.0" Properties=species:S:1:pos:R:3:momenta:R:3:forces:R:3 energy=-438.11907995067 free_energy=-438.11907995067 stress="0.00084439275811399 0.00018956173161401 -0.00097726573474922 0.00018956173161401 0.00059884834446875 0.00025217234413717 -0.00097726573474922 0.00025217234413717 0.0011330266097497" pbc="T T T"
B        4.42389269       5.56441281       4.43159397       0.19029529       0.48467921       0.41664320       0.05688308       1.65845986      -0.50399103
H        7.28033983       6.89548112       8.68293019      -0.15034397      -0.18904548       0.03596391       1.23062916       0.09287738       0.06800513
H        6.88941204       6.63452475       7.12812452      -0.13285520       0.07581563      -0.00416437      -0.11029244      -0.31000759      -1.07954849
H        8.53197366       7.13179765       7.38117733       0.22655121       0.12248803      -0.21144838      -0.43825262      -0.13784031       0.63585347
H        4.94920917       5.65365188       3.31706981       0.07246722      -0.16809746      -0.13021227      -0.36078155      -0.31108738       1.40123539
H        3.46802634       4.86820235       4.57048453       0.08192374       0.01376634       0.14238722       0.42007007      -0.10143221       0.09777030
H        4.70242147       6.39366782       5.31043917      -0.20319512      -0.21543709      -0.08213349      -0.09923141      -1.24275727      -0.97854757
N        7.69281541       6.64238495       7.75987516      -0.09227125      -0.12849456      -0.16403937      -0.70868271       0.35630105       0.35844117
8
Lattice="12.0 0.0 0.0 0.0 12.0 0.0 0.0 0.0 12.0" Properties=species:S:1:pos:R:3:momenta:R:3:forces:R:3 energy=-438.09701622157 free_energy=-438.09701622157 stress="0.0014559300200545 0.00040191258918732 -0.0014539076326342 0.00040191258918732 0.00049915930810494 -9.5788523504367e-05 -0.0014539076326342 -9.5788523504367e-05 0.0013055790321312" pbc="T T T"
B        4.41098344       5.56445152       4.43442723       0.22372389       0.29125519      -0.10595368      -0.15286526       0.98264367      -1.06503909
H        7.25999231       6.87468093       8.69222819      -0.00646946      -0.13412079       0.09491759       1.36634751       0.11158118      -0.13924111
H        6.87037173       6.63106245       7.12897153       0.04257855      -0.01406518      -0.01818696      -0.05284201      -0.26367275      -1.05966369
H        8.54099202       7.13758398       7.36798904       0.25115749       0.03524155      -0.02874918      -1.52937045      -0.70401067       1.15187038
H        4.93308709       5.63064456       3.30777181      -0.09437140      -0.17950204      -0.05802397      -0.41972595      -0.21919856       1.60573028
H        3.45900798       4.86241602       4.58808818       0.06384260       0.05036621       0.18590514       0.45274601      -0.05939239       0.03508586
H        4.67325490       6.36544210       5.30385024      -0.06420091      -0.22942128      -0.04657606       0.13671051      -0.70098107      -0.55937348
N        7.67581998       6.63860955       7.76030125      -0.42386830       0.17652504      -0.02066448       0.20009608       0.86670331       0.02963373
8
Lattice="12.0 0.0 0.0 0.0 12.0 0.0 0.0 0.0 12.0" Properties=species:S:1:pos:R:3:momenta:R:3:forces:R:3 energy=-438.10214761834 free_energy=-438.10214761834 stress="0.0014950474014742 0.00036971909724118 -0.0016734277425464 0.00036971909724118 0.00022973472414311 -0.00038664172161932 -0.0016734277425464 -0.00038664172161932 0.0010583040265593" pbc="T T T"
B        4.39835144       5.56048043       4.42796555      -0.05486320       0.19121556      -0.33470177      -0.31576735       0.40621859      -1.32049969
H        7.25108452       6.85624142       8.69532837       0.06510859      -0.10467423       0.07122639       1.34222776       0.11148811      -0.26808068
H        6.86369238       6.61931296       7.11933216       0.10238860      -0.05703818      -0.02845484      -0.18523832      -0.22926520      -1.09405934
H        8.54459166       7.13459191       7.36179706       0.05253479      -0.02418463      -0.05649234      -2.05546062      -0.98215847       1.36688203
H        4.90759162       5.60635688       3.30467163      -0.20898987      -0.21751254       0.12331270      -0.32734780      -0.12745021       1.44116315
H        3.45540834       4.86540809       4.60785112       0.06492613       0.16345320       0.25733150       0.26206635      -0.19756115      -0.04025723
H        4.65458134       6.32505650       5.29146380      -0.04391110      -0.39000070      -0.09762554       0.39765392      -0.07840778      -0.06407394
N        7.66094939       6.63431831       7.75570127       0.01618116       0.43622320       0.06773831       0.88999483       1.11503150      -0.01907601
8
Lattice="12.0 0.0 0.0 0.0 12.0 0.0 0.0 0.0 12.0" Properties=species:S:1:pos:R:3:momenta:R:3:forces:R:3 energy=-438.17850511837 free_energy=-438.17850511837 stress="0.00089543594260425 3.4560369188044e-05 -0.0014149163424465 3.4560369188044e-05 -0.00017059044328343 -0.00055824502524159 -0.0014149163424465 -0.00055824502524159 0.00031781901917823" pbc="T T T"
B        4.39967311       5.56049481       4.41085895       0.03960180       0.33796583      -0.70189967      -0.63120465      -0.08454952      -1.10393691
H        7.26905276       6.84343219       8.68901432       0.20479880      -0.10065088       0.02541005       1.17418103       0.11853502      -0.19405930
H        6.87277273       6.60774967       7.10181158       0.05687034      -0.06842968      -0.07108141      -0.26640559      -0.23610699      -0.99147572
H        8.53791472       7.11730057       7.35410366      -0.20905910      -0.23178183       0.10240684      -1.60070244      -0.75854445       1.19636839
H        4.88882678       5.58661784       3.31098568      -0.15703609      -0.14300710       0.27178946      -0.02034224      -0.04396487       0.77243440
H        3.46208528       4.88269943       4.61737298       0.05798288       0.19314990       0.18691990       0.00396395      -0.38580725      -0.10379170
H        4.65841903       6.28718367       5.27122384       0.07499499      -0.26427242      -0.03402617       0.66410992       0.51707555       0.45160597
N        7.66228026       6.63317424       7.74507423      -0.07334310       0.27618761       0.22274474       0.68285478       0.89222742      -0.02132658
8
Lattice="12.0 0.0 0.0 0.0 12.0 0.0 0.0 0.0 12.0" Properties=species:S:1:pos:R:3:momenta:R:3:forces:R:3 energy=-438.25662403661 free_energy=-438.25662403661 stress="-0.00022040272746025 -0.00045967636225224 -0.00077085990269545 -0.00045967636225224 -0.00051907666262061 -0.00049525416798638 -0.00077085990269545 -0.00049525416798638 -0.00063441083467577" pbc="T T T"
B        4.40780098       5.57571216       4.38931043      -0.27188074       0.47967269      -0.72592046      -0.97641636      -0.46537962      -0.39858168
H        7.29826137       6.84626914       8.67715399       0.21704148      -0.10391449       0.04419989       0.89345878       0.10052046       0.01041863
H        6.89415947       6.60773658       7.07753100       0.15886024      -0.17428007      -0.20073405      -0.38162315      -0.26052584      -0.87977132
H        8.52232471       7.09904763       7.36177588      -0.21837598      -0.35791616       0.24839683      -0.07806898      -0.01254522       0.52255653
H        4.88725859       5.57954555       3.32284601       0.00544145      -0.26546124       0.21470700       0.36136671       0.04413965      -0.15629031
H        3.47767529       4.90095237       4.61241122       0.08798961      -0.01902782       0.03097073      -0.15785410      -0.42592271      -0.14978813
H        4.68072061       6.26843822       5.25600903       0.22091427      -0.31248186       0.03008790       0.78937191       0.85008177       0.72099497
N        7.67046534       6.64853754       7.73163310      -0.20402203       0.75403847       0.36089904      -0.44603503       0.15541281       0.33592897
8
Lattice="12.0 0.0 0.0 0.0 12.0 0.0 0.0 0.0 12.0" Properties=species:S:1:pos:R:3:momenta:R:3:forces:R:3 energy=-438.21750124936 free_energy=-438.21750124936 stress="-0.0014472060788064 -0.00095293139245552 0.00013806479863085 -0.00095293139245552 -0.00076228377796826 -0.0003261485296278 0.00013806479863085 -0.0003261485296278 -0.0012988157263841" pbc="T T T"
B        4.41585657       5.60166731       4.36578715      -0.25377149       0.36885525      -0.45372392      -1.35830714      -0.80849643       0.53373621
H        7.32897490       6.85812031       8.66423416       0.20419764      -0.07026048       0.10492516       0.59534268       0.06188321       0.08639957
H        6.92256047       6.61109285       7.03318501       0.13881786      -0.16920071      -0.23080523      -0.20815849      -0.25696796      -0.39010530
H        8.50679521       7.08355396       7.36736186      -0.22972247      -0.37146708       0.18669212       2.24345457       1.04262007      -0.40817544
H        4.90106573       5.57781456       3.33576584       0.08447560      -0.24960618       0.28226000       0.74704835       0.10614284      -1.11647697
H        3.49320479       4.91644604       4.59934424       0.05783290      -0.11721100       0.03011826      -0.16901045      -0.30011837      -0.20836289
H        4.70786768       6.26681900       5.24156145       0.09099033      -0.23648729       0.02632780       0.79645671       1.00497589       0.80726871
N        7.68067711       6.67600850       7.71480639      -0.09606303       0.84419896       0.05703743      -2.64664555      -0.86273435       0.69487406
8
Lattice="12.0 0.0 0.0 0.0 12.0 0.0 0.0 0.0 12.0" Properties=species:S:1:pos:R:3:momenta:R:3:forces:R:3 energy=-438.16535619041 free_energy=-438.16535619041 stress="-0.0021676804921533 -0.0010934604598811 0.00065400244052356 -0.0010934604598811 -0.00075119437158345 -0.00020282093175857 0.00065400244052356 -0.00020282093175857 -0.0015107134749949" pbc="T T T"
B        4.41651244       5.62322342       4.35497190      -0.34949588       0.42130897      -0.27932313      -1.41811045      -0.96372520       1.03882664
H        7.35656992       6.86892195       8.65978475       0.29109525      -0.18046447       0.00041258       0.22955193       0.06672912       0.36103470
H        6.94591610       6.60402802       7.00415508       0.28381884      -0.31827102      -0.22886450      -0.28388539      -0.24950275      -0.10607773
H        8.49897691       7.07818452       7.37003770       0.11343613      -0.12994659      -0.02064218       3.52831224       1.51401034      -0.89978472
H        4.91160308       5.57105700       3.34021525       0.14114413      -0.20382196      -0.03871142       0.87530154       0.16712330      -1.41884692
H        3.50102309       4.92181548       4.58901384       0.05502741      -0.13676004       0.00325028      -0.13835052      -0.13703207      -0.22720872
H        4.72503590       6.27156309       5.24489372       0.15879544      -0.07865932       0.15327418       0.69739716       0.93602793       0.62317510
N        7.68041820       6.69916184       7.70837317      -0.69673756       0.62481277       0.41310560      -3.49160028      -1.30695973       0.62656941
8
Lattice="12.0 0.0 0.0 0.0 12.0 0.0 0.0 0.0 12.0" Properties=species:S:1:pos:R:3:momenta:R:3:forces:R:3 energy=-438.26999961343 free_energy=-438.26999961343 stress="-0.0013986563189058 -0.00055800753295741 0.00040187660090515 -0.00055800753295741 -0.00038156571154474 -0.0002780071794254 0.00040187660090515 -0.0002780071794254 -0.0011766147232382" pbc="T T T"
B        4.40423707       5.63256617       4.35742971      -0.09845437       0.16107162       0.18819475      -1.13145688      -0.98920283       0.98686159
H        7.37001414       6.85717062       8.66362044       0.23865340      -0.19602095       0.00447362      -0.21239772       0.16486874       1.02874259
H        6.96619974       6.58637939       6.98044846       0.30138842      -0.16847207      -0.30507769      -0.54688682      -0.25611444       0.09438421
H        8.51408466       7.08132085       7.36038231       0.31090270       0.00683467      -0.19375693       1.79669564       0.67169423      -0.08258138
H        4.91627271       5.56057790       3.33637956       0.16487573      -0.14756881      -0.15560073       0.64549816       0.24048376      -0.97049139
H        3.48591534       4.91867915       4.58315159      -0.08749603      -0.03710876      -0.18502769      -0.00124562       0.07968550      -0.23462948
H        4.73217183       6.27386081       5.26441185       0.21377795       0.01993824       0.16922854       0.50345805       0.67122688       0.23402282
N        7.66350735       6.70914479       7.71494719      -1.04634254       0.36223152       0.47961585      -1.04966814      -0.56112869      -1.05785625
8
Lattice="12.0 0.0 0.0 0.0 12.0 0.0 0.0 0.0 12.0" Properties=species:S:1:pos:R:3:momenta:R:3:forces:R:3 energy=-438.29312287744 free_energy=-438.29312287744 stress="-6.2413838800279e-05 6.5587083647832e-05 -0.00021163318920923 6.5587083647832e-05 6.919313568013e-05 -0.00016703035873339 -0.00021163318920923 -0.00016703035873339 2.0449603764118e-05" pbc="T T T"
B        4.38312856       5.63118817       4.36397246      -0.32323673      -0.29571421       0.26518313      -0.32489844      -0.62527105       0.68889364
H        7.37608480       6.83376541       8.68035844       0.25874590      -0.19785083       0.22467556      -0.39853112       0.13780650       1.03419633
H        6.97300951       6.56734126       6.95899599       0.24657128      -0.15414124      -0.25202700      -0.75988723      -0.24961282       0.28486623
H        8.53898544       7.08527561       7.34273942       0.36674068       0.00745682      -0.15089402      -0.64900078      -0.34960002       0.99324362
H        4.91846646       5.55053204       3.31964156       0.30226321      -0.07919128      -0.20202177       0.16699080       0.31834834      -0.05727353
H        3.46101456       4.91472439       4.57434838      -0.07247944      -0.01232952      -0.02240160       0.00947826       0.15713447      -0.17829396
H        4.73724684       6.28164901       5.29223370       0.28775582       0.15521633       0.34026872       0.16480173       0.15186824      -0.43747325
N        7.63626760       6.71100252       7.72015508      -1.06836894       0.57907913      -0.20104463       1.79087112       0.47638442      -2.32777564
8
Lattice="12.0 0.0 0.0 0.0 12.0 0.0 0.0 0.0 12.0" Properties=species:S:1:pos:R:3:momenta:R:3:forces:R:3 energy=-438.17265056354 free_energy=-438.17265056354 stress="0.00086408336978557 0.00041402488697818 -0.00072557891310154 0.00041402488697818 0.00039023232255874 0.00013734423063896 -0.00072557891310154 0.00013734423063896 0.0016155375837696" pbc="T T T"
B        4.36250613       5.62812055       4.35836840      -0.75867465      -0.06915553       0.09128972       0.65934180      -0.10383288       0.59832445
H        7.38913368       6.81173425       8.70142774       0.26056028      -0.22630527       0.28109332      -0.34257529      -0.04081402      -0.02302028
H        6.98027819       6.54700613       6.93160325       0.21522821      -0.28311820      -0.15463828      -0.96942250      -0.26149577       0.35915917
H        8.56002469       7.08503527       7.32674538       0.25410902       0.02732821      -0.01261622      -2.03141858      -0.85020130       1.49602933
H        4.93693354       5.53923918       3.29857226       0.33684256      -0.07823716      -0.11553551      -0.33176781       0.35530041       0.70834148
H        3.43997531       4.91496473       4.56327457      -0.04498851       0.03151274      -0.06736718      -0.07767170       0.14357403      -0.15451100
H        4.74689034       6.29767988       5.30787261       0.22112115       0.23814536       0.16674579      -0.23302909      -0.39286045      -1.13632923
N        7.61381849       6.71370803       7.71076773      -0.48620089       0.36341466      -0.18739261       3.32080306       1.16666518      -1.85113796
8
Lattice="12.0 0.0 0.0 0.0 12.0 0.0 0.0 0.0 12.0" Properties=species:S:1:pos:R:3:momenta:R:3:forces:R:3 energy=-438.07355282818 free_energy=-438.07355282818 stress="0.0012368753499093 0.000499825364422 -0.00077968937889982 0.000499825364422 0.00055008470251545 0.00046527528302431 -0.00077968937889982 0.00046527528302431 0.0027970096947375" pbc="T T T"
B        4.35560826       5.63049190       4.35613952      -0.44965450       0.20773744       0.07268150       1.39196417       0.22790549       0.41592021
H        7.40673072       6.78678784       8.71736889       0.21238968      -0.30477565       0.11619193      -0.29758314      -0.13630481      -0.73831801
H        6.98748686       6.52403966       6.91573218      -0.03873001      -0.26341153      -0.08766925      -0.77946689      -0.20443221       0.69886894
H        8.56819471       7.07949299       7.32649569      -0.07535804      -0.15403177       0.11716656      -2.21441966      -0.86403476       1.50042578
H        4.96203692       5.52589552       3.28263111       0.25722774      -0.22787022      -0.02208257      -0.71784819       0.40841193       1.28508980
H        3.43180529       4.92050701       4.55439669      -0.08954007       0.04475181      -0.01891184      -0.14462786       0.13320773      -0.11340823
H        4.76028760       6.32287263       5.31657255       0.04810042       0.21497725       0.08200304      -0.51232587      -0.76752511      -1.57171107
N        7.61072271       6.71842759       7.70585011       0.13321169       0.48711714      -0.25827028       3.26841487       1.20988554      -1.48257530
8
Lattice="12.0 0.0 0.0 0.0 12.0 0.0 0.0 0.0 12.0" Properties=species:S:1:pos:R:3:momenta:R:3:forces:R:3 energy=-438.10118332109 free_energy=-438.10118332109 stress="0.00099700320861844 0.00039152745997287 -0.00041242701043618 0.00039152745997287 0.00059220073456856 0.00074368884938548 -0.00041242701043618 0.00074368884938548 0.003289505624937" pbc="T T T"
B        4.36227176       5.64525354       4.34219834      -0.15752350       0.53114811      -0.22179811       1.63009737       0.24865200       0.60018558
H        7.43243993       6.76576786       8.71930566       0.14690608      -0.38819227       0.14181324      -0.25573080      -0.17370505      -1.25016421
H        6.98770943       6.51178742       6.90622774      -0.12871603      -0.23009124       0.16258717      -0.41199187      -0.08957628       1.01255547
H        8.56357431       7.06893298       7.33504048      -0.19873133      -0.29659791       0.26485137      -1.32270827      -0.48145680       0.99325781
H        4.99757403       5.52108659       3.28069434       0.22161399      -0.16621259       0.26392327      -0.85118246       0.45586581       1.34481700
H        3.43642569       4.93106702       4.53624903      -0.01916426      -0.07634927      -0.10787026      -0.09324280       0.22931115      -0.13151351
H        4.77457725       6.34785107       5.31189303       0.00574935       0.05068855      -0.00565406      -0.66866745      -0.93223431      -1.79726472
N        7.62122936       6.73358186       7.69223594       0.12718805       0.58000716      -0.49741832       1.96614897       0.71929688      -0.77561941
8
Lattice="12.0 0.0 0.0 0.0 12.0 0.0 0.0 0.0 12.0" Properties=species:S:1:pos:R:3:momenta:R:3:forces:R:3 energy=-438.19153276399 free_energy=-438.19153276399 stress="0.00017036960270984 0.00015054118009629 0.00010422613462098 0.00015054118009629 0.00052545481756965 0.00079633813613062 0.00010422613462098 0.00079633813613062 0.0028238268791069" pbc="T T T"
B        4.37793543       5.66707899       4.32063982       0.05225396       0.61441704      -0.15114835       1.34716595      -0.13472574       0.86466571
H        7.45649700       6.74852052       8.70468062       0.06984938      -0.30948498      -0.04130382      -0.18250462      -0.14078428      -1.47433092
H        6.98768427       6.50009186       6.90943577      -0.17783080      -0.34220952       0.24151263      -0.22043173      -0.02940983       0.90281369
H        8.55218006       7.05996635       7.33944015      -0.26850087      -0.25915020       0.22669619       0.40179248       0.14406480       0.17853082
H        5.03195275       5.51883008       3.29531938       0.13278558      -0.14321602       0.34106176      -0.68021900       0.49111432       0.92066294
H        3.44781994       4.94003365       4.49564300      -0.06111880      -0.05372213      -0.25046772       0.05106677       0.44964609      -0.11967713
H        4.79328897       6.35986317       5.28471537       0.00689193      -0.12031252      -0.16653843      -0.70100511      -0.80445735      -1.64975582
N        7.63841788       6.75438273       7.67071267       0.24262796       0.61525568      -0.19971665      -0.01673990       0.01390982       0.37806549
8
Lattice="12.0 0.0 0.0 0.0 12.0 0.0 0.0 0.0 12.0" Properties=species:S:1:pos:R:3:momenta:R:3:forces:R:3 energy=-438.24890020392 free_energy=-438.24890020392 stress="-0.00045003401515433 2.3360382661607e-05 0.0006019862894182 2.3360382661607e-05 0.00042936396602288 0.00066863493168555 0.0006019862894182 0.00066863493168555 0.0017510954122122" pbc="T T T"
B        4.39139897       5.69153558       4.31586305       0.31460669       0.68525322       0.39148241       0.71079719      -0.86377155       0.45160030
H        7.46837511       6.74157871       8.68368765      -0.00141395      -0.19581537      -0.25550121      -0.21021221      -0.09759639      -0.86825440
H        6.98033697       6.48493107       6.92235965      -0.18714326      -0.29013458       0.19034864       0.26601124       0.17596006       1.02590849
H        8.54946549       7.04951787       7.35545735      -0.02067741      -0.28980508       0.11744765       1.98731343       0.63431571      -0.55128531
H        5.05401745       5.52747337       3.31631235       0.08289629      -0.04483712       0.26031900      -0.47823842       0.49495920       0.58442556
H        3.45053451       4.95048213       4.45727791      -0.13305748      -0.04521514      -0.33043700       0.30263081       0.73024178      -0.04726404
H        4.79919827       6.36771898       5.24749511      -0.17383089      -0.06982551      -0.37761785      -0.51897524      -0.36055317      -0.97341128
N        7.65196227       6.77586171       7.66319825       0.11582124       0.25117873       0.00413464      -2.05556392      -0.68965284       0.38063168
8
Lattice="12.0 0.0 0.0 0.0 12.0 0.0 0.0 0.0 12.0" Properties=species:S:1:pos:R:3:momenta:R:3:forces:R:3 energy=-438.27380471184 free_energy=-438.27380471184 stress="-0.0004782865114546 7.9001115690416e-05 0.00072464630339475 7.9001115690416e-05 0.00030996686306953 0.0002967508226601 0.00072464630339475 0.0002967508226601 0.00017153747207368" pbc="T T T"
B        4.39669965       5.71261912       4.31693783       0.54378279       0.85492412       0.39213683      -0.34171635      -1.87464758      -0.29351413
H        7.47179807       6.73294486       8.65761480       0.01333385      -0.19367540      -0.24517883      -0.33811217      -0.09916179       0.30014933
H        6.96731179       6.47344602       6.94166793      -0.05054226      -0.22398905       0.25297188       0.50793637       0.28796691       0.89561170
H        8.55877570       7.04096420       7.36393747       0.15383567      -0.15852236       0.09719289       2.08718972       0.61468935      -0.72028384
H        5.05882070       5.53004077       3.34238520      -0.02187976      -0.13425195       0.25137193      -0.15143094       0.48044285       0.19249530
H        3.44122430       4.95903580       4.42350355      -0.16694668       0.02398918      -0.33293165       0.61262408       1.01816685       0.04030439
H        4.77355818       6.37525589       5.20777662      -0.33084986      -0.06399978      -0.38097859      -0.10416862       0.37610633       0.07536286
N        7.65383222       6.78976830       7.66022303      -0.14291227      -0.10150496      -0.03419129      -2.26605925      -0.78703850      -0.48578567
8
Lattice="12.0 0.0 0.0 0.0 12.0 0.0 0.0 0.0 12.0" Properties=species:S:1:pos:R:3:momenta:R:3:forces:R:3 energy=-438.25424618165 free_energy=-438.25424618165 stress="-5.5950023798829e-05 0.00015186089990209 0.00033729773479539 0.00015186089990209 0.00012160780900137 -0.00018351780325608 0.00033729773479539 -0.00018351780325608 -0.0014816926846222" pbc="T T T"
B        4.39583862       5.71906259       4.32261033       0.58627664       0.50604076       0.36845989      -1.20753742      -2.70464896      -1.11380073
H        7.46513728       6.71069378       8.63495954      -0.02862354      -0.20944171      -0.09400172      -0.51048615      -0.16783664       1.67782754
H        6.96710205       6.45806699       6.96789595       0.08710358      -0.15098226       0.23387086       0.01591024       0.05804067       0.13500009
H        8.57621131       7.03462281       7.36948286       0.24213891       0.01248668       0.00603571       0.75891814       0.23945773      -0.36354685
H        5.05729661       5.52257560       3.36504046       0.07395516      -0.09004179       0.21902857       0.10944812       0.44436932      -0.05624729
H        3.42378869       4.96537719       4.39744810      -0.12286062       0.05698617      -0.26861702       0.83507478       1.17933805       0.13630594
H        4.74205351       6.37780143       5.17974950      -0.16099023       0.13786109      -0.23858624       0.27769753       1.08046660       1.04760585
N        7.64381203       6.78967240       7.66191482      -0.67843989      -0.25865997      -0.22544810      -0.27582414      -0.11340964      -1.45961990
8
Lattice="12.0 0.0 0.0 0.0 12.0 0.0 0.0 0.0 12.0" Properties=species:S:1:pos:R:3:momenta:R:3:forces:R:3 energy=-438.2278421028 free_energy=-438.2278421028 stress="0.00048680026475376 0.00020421514035555 -0.00024313233764131 0.00020421514035555 -1.5693803490722e-05 -0.00052490563569005 -0.00024313233764131 -0.00052490563569005 -0.0020119678724503" pbc="T T T"
B        4.38598198       5.71333223       4.31575302       0.27581394       0.23492486       0.04286846      -1.41416507      -2.73324841      -1.21554110
H        7.45014451       6.67864353       8.62396554      -0.01923244      -0.28064051       0.08184520      -0.46980312      -0.18324337       1.70043623
H        6.96887158       6.43678017       6.97729218       0.21704791      -0.14344615       0.14792653      -0.86915144      -0.41025887      -0.89921559
H        8.59260383       7.02919148       7.36042148       0.33970674       0.01989603       0.00742587      -0.98385755      -0.21521686       0.12433157
H        5.05465468       5.50571947       3.37603446       0.19092762      -0.08687499       0.21774842       0.28844084       0.37459266      -0.24274461
H        3.40739617       4.97080852       4.37152944       0.10536288       0.22247207      -0.09736670       0.80901179       1.12628986       0.20878359
H        4.71483290       6.39241525       5.15390823      -0.09553184       0.29450344      -0.11355247       0.33080818       1.23143164       1.26266976
N        7.62262336       6.77865564       7.65150599      -1.01521779      -0.25537021      -0.28590713       2.30568171       0.83302392      -0.93668773
8
Lattice="12.0 0.0 0.0 0.0 12.0 0.0 0.0 0.0 12.0" Properties=species:S:1:pos:R:3:momenta:R:3:forces:R:3 energy=-438.23575984016 free_energy=-438.23575984016 stress="0.000449824476574 2.3109582233441e-05 -0.0005822719281038 2.3109582233441e-05 -0.00019359266488651 -0.00068392242790403 -0.0005822719281038 -0.00068392242790403 -0.0014626346239453" pbc="T T T"
B        4.36839830       5.69684577       4.29211941      -0.14717177      -0.03388235      -0.06850880      -0.79069376      -1.86679908      -0.64185669
H        7.43040139       6.63492769       8.61825557      -0.06374824      -0.31255523       0.21097262      -0.22954671      -0.05818314       0.40252221
H        6.96872355       6.40308242       6.96021012       0.15377159      -0.21355541      -0.05353327      -1.49827142      -0.81649877      -1.61898662
H        8.59598698       7.01296120       7.33930765       0.08338393      -0.02563406       0.02528968      -1.91791766      -0.44896164       0.36261422
H        5.05596705       5.47322569       3.38174443       0.23240515      -0.20404268       0.36031672       0.45501384       0.28107329      -0.47876456
H        3.40401302       4.98703880       4.34124638       0.16592116       0.41518533      -0.09026056       0.17954791       0.64044028       0.23447641
H        4.69029301       6.40261847       5.12820336      -0.04833271       0.33075707       0.01801668       0.16992231       0.94440387       0.89919772
N        7.59954650       6.76141690       7.62469227      -0.37756125       0.05086157      -0.40122864       3.63172448       1.33006711       0.83899367
8
Lattice="12.0 0.0 0.0 0.0 12.0 0.0 0.0 0.0 12.0" Properties=species:S:1:pos:R:3:momenta:R:3:forces:R:3 energy=-438.29342876781 free_energy=-438.29342876781 stress="4.2661762728742e-05 -0.00019459658334803 -0.00033806711360307 -0.00019459658334803 -0.00028399592851175 -0.0004799099186107 -0.00033806711360307 -0.0004799099186107 -0.00026578279039419" pbc="T T T"
B        4.36009849       5.68102033       4.26998820      -0.11779721       0.07703380       0.30416028       0.46059271      -0.70697952      -0.29843515
H        7.41499253       6.59169620       8.61376359      -0.07656801      -0.26647317       0.10714395       0.02097327       0.11768033      -0.82543823
H        6.96529772       6.35911083       6.92134978      -0.01200753      -0.39186284      -0.22956653      -0.85022652      -0.49621735      -0.93015579
H        8.58408392       6.98852743       7.31829709      -0.12607177      -0.13553748      -0.03365522      -1.61386749      -0.36428987       0.32572935
H        5.07885608       5.44153725       3.38623641       0.33058773      -0.07106335       0.28222787       0.40578107       0.21986020      -0.44358993
H        3.41591608       5.01147257       4.30609270       0.15267483       0.33790848      -0.11203937      -0.81160039      -0.07094607       0.27497500
H        4.68133331       6.41963058       5.10148713      -0.06971455       0.34407325      -0.04972119      -0.04139374       0.55666456       0.48021942
N        7.59102959       6.74610453       7.59924749      -0.08232075       0.11295109      -0.26776030       2.43291108       0.72242538       1.41699303
8
Lattice="12.0 0.0 0.0 0.0 12.0 0.0 0.0 0.0 12.0" Properties=species:S:1:pos:R:3:momenta:R:3:forces:R:3 energy=-438.29783694447 free_energy=-438.29783694447 stress="-0.00050364184304664 -0.00032585978319068 0.00013297799207737 -0.00032585978319068 -0.00020157692461025 -5.2952924073771e-05 0.00013297799207737 -5.2952924073771e-05 0.00092651640970929" pbc="T T T"
B        4.36380140       5.67748919       4.25683013       0.00978853       0.11105974       0.05632591       1.69006792       0.20942905      -0.17465125
H        7.41084690       6.56501522       8.60786899      -0.06490836      -0.23055512       0.03399988       0.21725222       0.24999056      -1.48661617
H        6.97085815       6.31315182       6.87746506       0.03913062      -0.33121851      -0.25942951       0.23637299       0.22025392       0.40051542
H        8.56521109       6.96635943       7.29433151      -0.30400705      -0.20620399      -0.07905214      -0.45727070      -0.06771604       0.16754531
H        5.11809796       5.42776143       3.39213101       0.35271209      -0.18066409       0.22704456       0.16264949       0.21410773      -0.21369060
H        3.43478891       5.03364057       4.28346371       0.06691395       0.19982117      -0.02772915      -1.60989933      -0.62549368       0.27368439
H        4.68310090       6.44650721       5.08462406      -0.01511118       0.24429385       0.01038313      -0.22959170       0.19993035       0.12779838
N        7.59603011       6.74314407       7.58242614      -0.08533075       0.39792880       0.03920174      -0.00658413      -0.42464169       0.90837381
8
Lattice="12.0 0.0 0.0 0.0 12.0 0.0 0.0 0.0 12.0" Properties=species:S:1:pos:R:3:momenta:R:3:forces:R:3 energy=-438.22657560814 free_energy=-438.22657560814 stress="-0.0013115140961438 -0.00041031247228255 0.00065377318499875 -0.00041031247228255 4.1494041100448e-06 0.00040042821928464 0.00065377318499875 0.00040042821928464 0.0015745687894538" pbc="T T T"
B        4.38454355       5.68059136       4.24873459       0.46565761       0.38302222       0.13851449       2.26068921       0.60345750      -0.03048425
H        7.42850275       6.54242651       8.59652940       0.07794625      -0.20803627      -0.10962591       0.25287025       0.28949565      -1.53683586
H        6.99330883       6.28052826       6.84130758       0.08348632      -0.28981079      -0.21796651       0.89609458       0.79715457       1.40284518
H        8.54849499       6.94496784       7.28018308      -0.33657416      -0.18648448      -0.04782053       1.44254518       0.38630141      -0.25331252
H        5.16928039       5.40937493       3.40347060       0.27711877      -0.19599493       0.18427176      -0.06466850       0.25081164       0.00323079
H        3.45150501       5.05503216       4.26862619      -0.14793414       0.24094102      -0.08934153      -1.84328687      -0.77012931       0.22443326
H        4.69587908       6.47156683       5.07979960      -0.07891326       0.26015885       0.01612414      -0.33928062      -0.08659458      -0.18408463
N        7.61351278       6.74512934       7.57392692      -0.34124309      -0.00185052       0.12677190      -2.60590358      -1.49157588       0.37652182
8
Lattice="12.0 0.0 0.0 0.0 12.0 0.0 0.0 0.0 12.0" Properties=species:S:1:pos:R:3:momenta:R:3:forces:R:3 energy=-438.15321736403 free_energy=-438.15321736403 stress="-0.0017896525376787 -0.00029205128242301 0.001032117081472 -0.00029205128242301 0.00028937151582352 0.0007364925904861 0.001032117081472 0.0007364925904861 0.0015662593585409" pbc="T T T"
B        4.41559848       5.69179190       4.24780407       0.73896126       0.44640195       0.20881535       1.88339526       0.38637003       0.00215643
H        7.45655905       6.52669708       8.57946163       0.01582885      -0.25165843      -0.18695415       0.20721663       0.22810014      -1.00188743
H        7.02515587       6.26143828       6.82381641       0.04021408      -0.17586035      -0.05907353       1.12852656       1.14109065       1.94219734
H        8.54496957       6.92293028       7.26632220      -0.25896029      -0.36323167      -0.16824329       3.18753842       0.74097780      -0.67144898
H        5.22243568       5.39623172       3.42053837       0.30640506      -0.24634157       0.25334174      -0.21779226       0.27597673       0.16690595
H        3.45503043       5.07706972       4.25842573      -0.38439933       0.08871007      -0.09017315      -1.30087020      -0.42749851       0.16858488
H        4.71124365       6.50498540       5.07363984      -0.15412883       0.18238175      -0.07706536      -0.35172036      -0.23785438      -0.32434858
N        7.63714235       6.75288547       7.57337268      -0.30438400       0.31940992       0.12041362      -4.53777599      -2.11572695      -0.28064906
8
Lattice="12.0 0.0 0.0 0.0 12.0 0.0 0.0 0.0 12.0" Properties=species:S:1:pos:R:3:momenta:R:3:forces:R:3 energy=-438.16886852428 free_energy=-438.16886852428 stress="-0.0014862344607452 -2.5477797617134e-05 0.00092464342580122 -2.5477797617134e-05 0.0004634787908407 0.00071480966141648 0.00092464342580122 0.00071480966141648 0.00098963829775579" pbc="T T T"
B        4.44993853       5.70598218       4.24723443       0.57873029       0.48961322      -0.15134465       0.71059149      -0.46834589      -0.11403368
H        7.48358542       6.51048161       8.55755014      -0.06922423      -0.27495463      -0.19407715       0.18632255       0.13771999      -0.24328377
H        7.06265710       6.26200896       6.83194484       0.13600361      -0.04217192       0.28960200       0.84515624       1.06514312       1.69588085
H        8.56133192       6.90604692       7.25195031       0.07682484      -0.14312202      -0.16509516       3.79572435       0.79933704      -0.76988738
H        5.27802905       5.38007120       3.44244986       0.38412038      -0.34117984       0.18195642      -0.36844854       0.31553497       0.28775707
H        3.43866808       5.09395308       4.25817735      -0.45908394       0.09791972       0.03049698      -0.10065504       0.25200586       0.06688637
H        4.71991312       6.52751651       5.06470739      -0.20097980       0.09706493      -0.05009920      -0.22885550      -0.10233392      -0.22760476
N        7.66185392       6.76484093       7.57351795      -0.44694301       0.11600437       0.05966314      -4.83786265      -1.98679067      -0.69388623
8
Lattice="12.0 0.0 0.0 0.0 12.0 0.0 0.0 0.0 12.0" Properties=species:S:1:pos:R:3:momenta:R:3:forces:R:3 energy=-438.26820581633 free_energy=-438.26820581633 stress="-6.8624213231833e-05 0.00012342667298635 -8.6760595059849e-05 0.00012342667298635 0.00040419307865816 0.00026651127858415 -8.6760595059849e-05 0.00026651127858415 0.00028631613774212" pbc="T T T"
B        4.46688554       5.70646789       4.24170887       0.25563714       0.27146427      -0.35401552      -0.21417893      -1.15376281      -0.10803367
H        7.49664903       6.48118911       8.53944536      -0.02224006      -0.19077375      -0.14006816       0.27254965       0.14397731       0.21060304
H        7.09571927       6.25601585       6.87161870       0.23788486      -0.00268171       0.43887021      -0.15756794       0.27479175       0.25566028
H        8.59963916       6.89840143       7.23524207       0.33944523      -0.00460469      -0.09418996       1.90021022       0.47581493      -0.08234703
H        5.32209324       5.35114929       3.46055464       0.33575665      -0.16590097       0.29312638      -0.65335662       0.37958173       0.43700030
H        3.40036084       5.10159857       4.27471853      -0.48853590       0.11034138       0.25209018       0.99540496       0.75770386      -0.11787729
H        4.71656361       6.53277099       5.05580081      -0.12932329       0.00927862      -0.00504622      -0.11589586       0.01333448      -0.19896331
N        7.67142122       6.76070912       7.56872939      -0.52893721      -0.02677443      -0.38961103      -2.02623513      -0.88500757      -0.39489106
8
Lattice="12.0 0.0 0.0 0.0 12.0 0.0 0.0 0.0 12.0" Properties=species:S:1:pos:R:3:momenta:R:3:forces:R:3 energy=-438.17015693665 free_energy=-438.17015693665 stress="0.0012175057870199 -2.4610345662151e-06 -0.0012987691169059 -2.4610345662151e-06 -1.0012240729519e-06 -0.000515017576059 -0.0012987691169059 -0.000515017576059 -0.000553899408794" pbc="T T T"
B        4.46624624       5.69612700       4.22315584       0.18038966       0.04176926      -0.63712173      -0.85493725      -1.33095330       0.36593667
H        7.49629285       6.45352650       8.51743043       0.07202360      -0.11072237      -0.01212731       0.32268569       0.19426462       0.38310892
H        7.12262031       6.24418862       6.90208506       0.24502486      -0.04035086       0.39884683      -1.80117424      -1.24346864      -1.97698319
H        8.64149336       6.88918451       7.21641244       0.42246237       0.09081878       0.03278622      -0.55604923       0.08477912       0.67392923
H        5.34710451       5.32653680       3.48256957       0.24339753      -0.06526176       0.47369034      -0.72106226       0.30933959       0.27673970
H        3.35850664       5.11081549       4.29245189      -0.32633902       0.34044348       0.39464793       1.62317710       0.92215273      -0.38865748
H        4.70167502       6.51815450       5.04492432      -0.13843263      -0.04313765       0.07513531      -0.03553618       0.09682224      -0.24236511
N        7.66316859       6.74565489       7.55032105      -0.69869774      -0.21273732      -0.72472821       2.02561988       0.95251495       0.90687352
8
Lattice="12.0 0.0 0.0 0.0 12.0 0.0 0.0 0.0 12.0" Properties=species:S:1:pos:R:3:momenta:R:3:forces:R:3 energy=-437.97453974711 free_energy=-437.97453974711 stress="0.0019507436196367 -0.00011726810726776 -0.001843836094343 -0.00011726810726776 -0.00032234688348088 -0.0010048698822569 -0.001843836094343 -0.0010048698822569 -0.00077217705322116" pbc="T T T"
B        4.46099090       5.67050622       4.19153372       0.07410849      -0.51960753      -0.64014391      -1.18740687      -0.79712722       1.34508688
H        7.50202093       6.42297723       8.49546929       0.14421118      -0.07015622       0.09522406       0.33257450       0.31643189       0.13472007
H        7.13145018       6.20651409       6.90629718       0.00603899      -0.23840603       0.17808686      -2.66752218      -2.29271657      -3.27975781
H        8.67321268       6.86974560       7.20064074       0.25903547      -0.01950076       0.13546571      -2.02647482      -0.17561035       0.90047955
H        5.36760321       5.30179270       3.50453071       0.25400888      -0.00832651       0.48793109      -0.60608640       0.10718841      -0.07818524
H        3.32678732       5.13025440       4.30374687      -0.15178345       0.49191200       0.40908600       1.81265445       0.75571464      -0.71023528
H        4.68477676       6.49169474       5.03515275      -0.12451754       0.01804019       0.16083252      -0.00768912      -0.06871694      -0.54563158
N        7.65317126       6.72217177       7.52048208      -0.46101957       0.34549531      -0.82560448       4.35749328       2.14253587       2.23311638
8
Lattice="12.0 0.0 0.0 0.0 12.0 0.0 0.0 0.0 12.0" Properties=species:S:1:pos:R:3:momenta:R:3:forces:R:3 energy=-437.99187704521 free_energy=-437.99187704521 stress="0.0020894278071453 6.6710569286538e-05 -0.0014119745461718 6.6710569286538e-05 -0.00018988702613785 -0.00084199645324601 -0.0014119745461718 -0.00084199645324601 -3.5771293386792e-05" pbc="T T T"
B        4.45664064       5.64255657       4.15341531      -0.34969771      -0.44448736      -0.72443871      -1.14656594       0.02417099       2.31922302
H        7.51399597       6.39271160       8.47838624       0.14871192      -0.07765115       0.14340467       0.32736331       0.49944476      -0.51318271
H        7.11330142       6.15000612       6.87963430      -0.15784407      -0.40750902      -0.09030287      -1.64446348      -1.52915543      -2.27981576
H        8.68085078       6.84188578       7.18995865      -0.01856223      -0.14499213       0.29612542      -2.19301529      -0.25039270       0.66357151
H        5.38808120       5.28611237       3.52161376       0.29737051       0.19959270       0.49760650      -0.40374164      -0.15373988      -0.47523091
H        3.31914922       5.15811422       4.30906895       0.02283257       0.45478131       0.30031448       1.55500573       0.37034097      -0.99134055
H        4.67403011       6.46656640       5.01538519      -0.05164916      -0.05384853       0.10603379       0.00681221      -0.24415616      -0.84156062
N        7.64810520       6.70237565       7.48701801       0.10953403       0.47234052      -0.52793927       3.50286429       1.29815353       2.12028102
8
Lattice="12.0 0.0 0.0 0.0 12.0 0.0 0.0 0.0 12.0" Properties=species:S:1:pos:R:3:momenta:R:3:forces:R:3 energy=-438.00295465701 free_energy=-438.00295465701 stress="0.0018033938224399 0.00041228153931659 -0.00050640091169996 0.00041228153931659 0.00026169699524699 -0.00028755634655352 -0.00050640091169996 -0.00028755634655352 0.00079672026345077" pbc="T T T"
B        4.45344275       5.62870991       4.11993687      -0.21627469      -0.31382182      -0.68849005      -0.72277028       0.62653092       2.99037289
H        7.52206233       6.37671910       8.45766144       0.00878990      -0.03914016       0.00369835       0.24677094       0.60826979      -0.88324130
H        7.08745217       6.09137058       6.83866916      -0.27633677      -0.50485620      -0.10939405       0.15771584       0.12948300      -0.49281577
H        8.67350045       6.81607141       7.20135573      -0.07069461      -0.20844682       0.44552532      -1.28750290      -0.18364315       0.08344771
H        5.42033568       5.29199404       3.54233856       0.32297622       0.11607257       0.45320359      -0.38714277      -0.32017570      -0.72391536
H        3.32649955       5.18392859       4.30984353       0.07794177       0.31597978       0.23958858       1.12365346       0.00759343      -1.20401309
H        4.66543996       6.44751276       5.00234073      -0.14093971      -0.07586037       0.20394397      -0.00202742      -0.31792854      -1.05096355
N        7.65106326       6.69632262       7.45661600       0.29558353       0.70962182      -0.54721189       0.87613726      -0.53164763       1.27800071
8
Lattice="12.0 0.0 0.0 0.0 12.0 0.0 0.0 0.0 12.0" Properties=species:S:1:pos:R:3:momenta:R:3:forces:R:3 energy=-437.85777642909 free_energy=-437.85777642909 stress="0.0012026363183353 0.0005352156829665 0.00017600790188382 0.0005352156829665 0.00058858414709404 0.0001846001634196 0.00017600790188382 0.0001846001634196 0.0011140684728256" pbc="T T T"
B        4.46028657       5.61527279       4.09934791       0.19694515      -0.38732073      -0.45948568      -0.25470217       1.03619393       3.30577210
H        7.53628424       6.36689506       8.43688720       0.08549302       0.05552817      -0.01039118       0.04677562       0.58498591      -0.76202737
H        7.07032075       6.04057969       6.81288380      -0.16323910      -0.31070477       0.02138748       1.30241075       1.23238120       0.52755802
H        8.66221490       6.78799774       7.22547366      -0.17003816      -0.13291757       0.37105491       0.12881110      -0.06242276      -0.57431251
H        5.46163535       5.29478707       3.56311280       0.29047363       0.15738716       0.39380777      -0.56240928      -0.37942987      -0.77173005
H        3.33778510       5.21200226       4.31104162       0.04881313       0.44324955       0.14097873       0.75590124      -0.32570541      -1.35998962
H        4.65630746       6.43118993       4.99607318      -0.19856532      -0.04218810       0.07103242       0.07303976      -0.33608938      -1.16262344
N        7.65871753       6.68897239       7.43648513      -0.08845157       0.21823954      -0.52790100      -1.48618585      -1.73201163       0.79805318
8
Lattice="12.0 0.0 0.0 0.0 12.0 0.0 0.0 0.0 12.0" Properties=species:S:1:pos:R:3:momenta:R:3:forces:R:3 energy=-437.69329160243 free_energy=-437.69329160243 stress="0.00028237864800036 0.00036717274566695 0.00043654522721959 0.00036717274566695 0.00053266192522837 0.0002064383252512 0.00043654522721959 0.0002064383252512 0.0010327238177027" pbc="T T T"
B        4.46861747       5.59872469       4.08176372       0.23934395      -0.01289225      -0.03176832      -0.05381969       1.39131071       3.46075387
H        7.54337662       6.36064094       8.42167440       0.01661224       0.12485300      -0.00061473      -0.14606516       0.58985652      -0.70156490
H        7.07355339       6.00238288       6.80782788       0.09189384      -0.15248915       0.16819042       1.50023606       1.40168979       0.57202670
H        8.65271944       6.75542435       7.24764320      -0.12847582      -0.19973837       0.34556302       1.37500548       0.03798248      -1.05396147
H        5.49166512       5.30158176       3.57832560       0.18940425       0.27194217       0.29079617      -0.55107410      -0.49603494      -0.87855400
H        3.34728056       5.24457565       4.30730971       0.08002361       0.54292232       0.01949956       0.37703606      -0.67374600      -1.48458011
H        4.64211803       6.40809377       4.98420952      -0.18075856      -0.01489953       0.01952608       0.23947278      -0.22692662      -1.08641176
N        7.66312575       6.67256009       7.41775399      -0.30641015      -0.55692853      -0.81065314      -2.73872866      -2.02749376       1.17432462
8
Lattice="12.0 0.0 0.0 0.0 12.0 0.0 0.0 0.0 12.0" Properties=species:S:1:pos:R:3:momenta:R:3:forces:R:3 energy=-437.62875336901 free_energy=-437.62875336901 stress="-0.00085172208530108 -0.00013526518598924 0.00039965999233513 -0.00013526518598924 0.00014039352935238 3.117868873625e-07 0.00039965999233513 3.117868873625e-07 0.00043042951591193" pbc="T T T"
B        4.46992197       5.58394665       4.07942559       0.35088016      -0.20560325       0.52994347       0.56947142       1.77882919       3.25403667
H        7.54177673       6.36599587       8.40850982      -0.00096566       0.25577473      -0.15679037      -0.39426508       0.48933689      -0.26296929
H        7.09036257       5.98799683       6.82336152       0.22182064       0.06102704       0.14939681       0.88851863       0.73617133      -0.10884292
H        8.64046449       6.72278585       7.26984465      -0.02038331      -0.12656810       0.19562020       2.19779204       0.13578844      -1.33428813
H        5.50868905       5.31185827       3.59149018       0.13850148       0.19346968       0.04948987      -0.60163192      -0.58474387      -0.88206013
H        3.35953551       5.27721415       4.29373184       0.20410606       0.46782767      -0.24674252      -0.33625378      -1.06879989      -1.45629860
H        4.62511874       6.39392645       4.97542602      -0.15780279       0.02217700      -0.13249867       0.37929654      -0.13047439      -0.90485679
N        7.65862228       6.65454224       7.40778535      -0.73448732      -0.66613528      -0.38776544      -2.69944156      -1.37287646       1.69689799
8
Lattice="12.0 0.0 0.0 0.0 12.0 0.0 0.0 0.0 12.0" Properties=species:S:1:pos:R:3:momenta:R:3:forces:R:3 energy=-437.61343528673 free_energy=-437.61343528673 stress="-0.0012889914736986 -0.00072520888470332 0.00016532464951895 -0.00072520888470332 -0.00040820093185667 -0.00026051418727271 0.00016532464951895 -0.00026051418727271 -0.00055436231790233" pbc="T T T"
B        4.45776046       5.56530440       4.09131895       0.15347771       0.12869155       0.85196795       1.82793879       2.11364094       2.62093065
H        7.52534735       6.37286169       8.39984977      -0.01933046       0.27080401      -0.06446734      -0.68074107       0.22267331       0.64583175
H        7.10236627       5.97709981       6.84131268       0.34142716       0.04668442       0.03009866      -0.06302213      -0.33017617      -0.99933094
H        8.63451053       6.69276535       7.28940601       0.21773572      -0.11140014       0.10648518       1.39615455       0.13949735      -1.27265630
H        5.51001710       5.31357728       3.60015023       0.11116650       0.18293169      -0.04004116      -0.84012720      -0.63575992      -0.74027183
H        3.36548947       5.30723465       4.27297379       0.18907455       0.41197424      -0.33049278      -1.43940359      -1.47922812      -1.29880863
H        4.60817595       6.38270223       4.96418407       0.09560243       0.03095103      -0.19329403       0.46190533      -0.00368806      -0.57163570
N        7.63665010       6.63032284       7.41128637      -1.08734908      -0.96025185      -0.35953926      -0.66408623      -0.01930410       1.61914837
8
Lattice="12.0 0.0 0.0 0.0 12.0 0.0 0.0 0.0 12.0" Properties=species:S:1:pos:R:3:momenta:R:3:forces:R:3 energy=-437.57811065153 free_energy=-437.57811065153 stress="-0.00095682628527342 -0.0011506442225723 -0.00016938415303329 -0.0011506442225723 -0.001015775988117 -0.00068303683266605 -0.00016938415303329 -0.00068303683266605 -0.0014842062727783" pbc="T T T"
B        4.43825543       5.56452442       4.11006468       0.61992349       0.54004068       1.18743752       2.77818039       2.05908572       1.80917276
H        7.49806628       6.40483710       8.40168713      -0.07251916       0.40098721      -0.07053668      -0.90686858      -0.02149615       1.37174188
H        7.10776981       5.97403672       6.85482415       0.20982615      -0.09023780      -0.03712744      -0.96482248      -1.44269327      -1.78332836
H        8.64057421       6.67768294       7.30185391       0.33677358      -0.10607518      -0.03480604      -0.51911226       0.05785588      -0.99155578
H        5.48761663       5.32231706       3.59831287       0.01474139       0.10349794      -0.14988992      -0.94463264      -0.67255781      -0.61023645
H        3.35942579       5.33768047       4.25024853       0.09228990       0.27312338      -0.30583486      -2.36873849      -1.71611289      -1.16349151
H        4.59126264       6.37801437       4.95407850       0.06880221      -0.07077640      -0.14232949       0.54466836       0.32465082      -0.02574046
N        7.60392582       6.62036833       7.41849319      -1.26841853      -1.04916239      -0.44598072       2.37832045       1.43255761       1.39925427
8
Lattice="12.0 0.0 0.0 0.0 12.0 0.0 0.0 0.0 12.0" Properties=species:S:1:pos:R:3:momenta:R:3:forces:R:3 energy=-437.62416476957 free_energy=-437.62416476957 stress="0.0001809848271042 -0.001064444111459 -0.00037956441656112 -0.001064444111459 -0.0010728125202356 -0.0007381824622205 -0.00037956441656112 -0.0007381824622205 -0.0016978190493709" pbc="T T T"
B        4.43254777       5.56663139       4.13119762       0.99666770       0.07534943       1.35159992       2.77824591       1.75428051       1.06168412
H        7.47119433       6.45021537       8.41292677      -0.21623416       0.50077664       0.09570560      -0.99299099      -0.18793817       1.63880822
H        7.10563220       5.95875048       6.84674935       0.09591974      -0.21072227      -0.29310151      -0.89093771      -1.31647104      -1.37414240
H        8.65635876       6.66772022       7.30088325       0.18843346      -0.11402689      -0.17018959      -2.06650314      -0.02833636      -0.62814065
H        5.47662769       5.33227978       3.58707323      -0.05562854       0.14509906      -0.30361503      -1.10269717      -0.66151291      -0.38055389
H        3.34364124       5.35565577       4.21996957      -0.20099600       0.15938808      -0.53176710      -2.26152244      -1.66349875      -1.11777869
H        4.58323154       6.38087966       4.94995202       0.05729454       0.10625737      -0.12705943       0.59501209       0.56532369       0.44605532
N        7.58255576       6.61242314       7.42729710      -0.86428773      -0.65889058      -0.02026765       3.94505485       1.55881687       0.35693977
8
Lattice="12.0 0.0 0.0 0.0 12.0 0.0 0.0 0.0 12.0" Properties=species:S:1:pos:R:3:momenta:R:3:forces:R:3 energy=-437.79526234231 free_energy=-437.79526234231 stress="0.0013280068647617 -0.00067935042589716 -0.0004531362564902 -0.00067935042589716 -0.00075816898534317 -0.00056407948691123 -0.0004531362564902 -0.00056407948691123 -0.0010810512075886" pbc="T T T"
B        4.45322303       5.56651680       4.15241005       1.17035674      -0.00554842       1.55155204       1.52446841       1.30549167       0.22988710
H        7.45918969       6.49779229       8.43432098      -0.25831727       0.44449658       0.18527059      -0.88023344      -0.23381009       0.96965124
H        7.12412719       5.93228993       6.82092510       0.11494667      -0.29500481      -0.34804770      -0.33799491      -0.34343092      -0.15926300
H        8.67189344       6.65238360       7.28465133      -0.06752522      -0.15288020      -0.28583990      -2.46627692       0.01803249      -0.23721065
H        5.48158457       5.34761640       3.56567902      -0.11601735       0.13304166      -0.24042365      -1.09243988      -0.68794814      -0.13665639
H        3.32810656       5.36410763       4.16562389      -0.24052135       0.04572202      -0.66262285      -1.04493692      -1.37939759      -1.00749320
H        4.59048157       6.39075447       4.94128890      -0.02968744       0.14014925      -0.04520408       0.62214780       0.75593708       0.92347099
N        7.58769719       6.60907826       7.43357152      -0.57182233      -0.30527532      -0.15326976       3.67796313       0.58480144      -0.58138208
8
Lattice="12.0 0.0 0.0 0.0 12.0 0.0 0.0 0.0 12.0" Properties=species:S:1:pos:R:3:momenta:R:3:forces:R:3 energy=-437.9072795081 free_energy=-437.9072795081 stress="0.002090671727697 -0.00032204386536163 -0.00044974125295429 -0.00032204386536163 -0.00043065129115533 -0.00032349052061983 -0.00044974125295429 -0.00032349052061983 8.1501746644019e-05" pbc="T T T"
B        4.48682526       5.57421594       4.16421778       0.98045009       0.46764290       1.61940922      -0.05877921       0.77575937      -0.59614437
H        7.45311803       6.53727101       8.45534453      -0.31334176       0.30183566       0.26643948      -0.55136007      -0.25417098      -0.45282586
H        7.15909347       5.91472462       6.77784392       0.16517213      -0.16894838      -0.41197166       0.01898783       0.56422519       0.97217154
H        8.68088369       6.63930823       7.25068473      -0.23613443      -0.19329444      -0.35769406      -2.10315053       0.16184124       0.14940529
H        5.49573003       5.36069177       3.54465547      -0.06761272       0.05822024      -0.05733803      -0.95692909      -0.69377935       0.02860136
H        3.31911631       5.36253009       4.09605349      -0.34737240      -0.19667876      -0.68558280       0.44156151      -0.99769603      -0.70465307
H        4.61224255       6.40560069       4.93140376       0.05182769       0.08214255      -0.02662393       0.58239247       0.90975627       1.28170788
N        7.60888434       6.61196837       7.42838177      -0.23144302      -0.34496134      -0.34525313       2.62332529      -0.44507336      -0.67601643
8
Lattice="12.0 0.0 0.0 0.0 12.0 0.0 0.0 0.0 12.0" Properties=species:S:1:pos:R:3:momenta:R:3:forces:R:3 energy=-437.91021616025 free_energy=-437.91021616025 stress="0.0022109529719356 2.1051430803907e-05 -0.00020014325446795 2.1051430803907e-05 -8.5064103534464e-05 3.467458526288e-05 -0.00020014325446795 3.467458526288e-05 0.0011791389419826" pbc="T T T"
B        4.53006507       5.60017538       4.17181002       0.97649019       0.57646803       1.16179335      -1.63871166       0.37844269      -1.13743362
H        7.45729001       6.58813111       8.46888007      -0.29180807       0.36728595       0.13175030      -0.21011484      -0.32003509      -1.61600060
H        7.21017589       5.92232877       6.73440778       0.17892716      -0.12785789      -0.31562042       0.04684007       1.12864526       1.75479837
H        8.68018685       6.65178230       7.21248794      -0.35036544      -0.04043788      -0.30458815      -0.94568296       0.35934870       0.38615147
H        5.51410667       5.38180965       3.53111993      -0.25376316      -0.07682402      -0.06767059      -0.63159248      -0.68432632       0.05086195
H        3.31981315       5.34821770       4.01658421      -0.29818573      -0.44253722      -0.80090771       1.86520560      -0.47875593      -0.18767612
H        4.65184832       6.44151397       4.93170702       0.09439980       0.12504911       0.11533380       0.41439764       0.77855809       1.28374592
N        7.64177443       6.63086597       7.42016273      -0.05464447      -0.37395165       0.08136435       1.10040116      -1.15539983      -0.53043529
8
Lattice="12.0 0.0 0.0 0.0 12.0 0.0 0.0 0.0 12.0" Properties=species:S:1:pos:R:3:momenta:R:3:forces:R:3 energy=-437.84075578379 free_energy=-437.84075578379 stress="0.0014450828724138 0.00026885095570712 0.00034577716919243 0.00026885095570712 0.00025680802388422 0.00042920224342245 0.00034577716919243 0.00042920224342245 0.0016819073336205" pbc="T T T"
B        4.56688616       5.62617511       4.18713899       1.00008978       0.34006938       1.24732940      -2.80838712       0.22974420      -1.39371664
H        7.46116957       6.63999743       8.47319046      -0.17415233       0.32828029      -0.08196116      -0.05803057      -0.38970784      -1.88855825
H        7.25361594       5.93915354       6.71611656       0.18236534       0.02620158      -0.16939066      -0.11904980       1.37513132       2.14406559
H        8.66470525       6.67254641       7.19427479      -0.43373831       0.09254544      -0.19879730       0.79473461       0.58455244       0.33764774
H        5.51256725       5.38643965       3.52680954      -0.35935269      -0.27720296      -0.11869898      -0.08741759      -0.65889969      -0.03129342
H        3.33529475       5.32745359       3.93940657      -0.04179570      -0.41559039      -0.76233380       2.65433688       0.00169346       0.40639966
H        4.68814158       6.48225605       4.94827785       0.01878829       0.21340152       0.12805798       0.25036311       0.42198637       1.02879387
N        7.66819776       6.65117871       7.42365487      -0.19123642      -0.30051553      -0.04252445      -0.62090111      -1.58332122      -0.59801728
8
Lattice="12.0 0.0 0.0 0.0 12.0 0.0 0.0 0.0 12.0" Properties=species:S:1:pos:R:3:momenta:R:3:forces:R:3 energy=-437.79022550014 free_energy=-437.79022550014 stress="0.00047983673287284 0.00029239288531715 0.00080062088900524 0.00029239288531715 0.00049860193179805 0.00072804783803572 0.00080062088900524 0.00072804783803572 0.0015486622881672" pbc="T T T"
B        4.58361224       5.64223822       4.21445237       0.40395459       0.07858126       0.86476589      -3.22149534       0.38302123      -1.45294435
H        7.45073538       6.68413914       8.46764260      -0.21552898       0.35483445      -0.34815889      -0.14214788      -0.41428004      -1.22560562
H        7.28301748       5.96656875       6.72131621       0.20437130       0.19699390      -0.01217214      -0.53361186       1.16012985       2.05605124
H        8.64093064       6.69675752       7.19373791      -0.21404066       0.11533825      -0.18088608       2.23186793       0.82956901       0.22251563
H        5.49662572       5.37864760       3.53235740      -0.11591181      -0.17044571      -0.09980272       0.28806633      -0.58750570      -0.00637267
H        3.35906936       5.30324248       3.88805974       0.38827579      -0.32005391      -0.58131316       2.83307888       0.33050469       0.89607084
H        4.70512746       6.52140934       4.98175303       0.12562709       0.28106463       0.14036388       0.10931866      -0.13130421       0.57371790
N        7.67639756       6.66247053       7.44175353      -0.57531701      -0.53149084       0.21925579      -1.56216479      -1.59099202      -1.06212433
8
Lattice="12.0 0.0 0.0 0.0 12.0 0.0 0.0 0.0 12.0" Properties=species:S:1:pos:R:3:momenta:R:3:forces:R:3 energy=-437.87555476353 free_energy=-437.87555476353 stress="-0.00012659321025753 -3.1919970433695e-06 0.00066002747679831 -3.1919970433695e-06 0.00048750825398557 0.00069156974967992 0.00066002747679831 0.00069156974967992 0.00086986503888054" pbc="T T T"
B        4.56060910       5.65006788       4.24534984      -0.06091189      -0.14341719       0.96003626      -2.22572336       0.78322433      -1.50191439
H        7.41147918       6.72113510       8.45699614      -0.12200692       0.29641834      -0.26400901      -0.45636999      -0.35329573       0.04352539
H        7.28287840       6.00352947       6.75245982       0.27760161       0.34726400       0.16364988      -1.33927798       0.16258622       1.09807605
H        8.60733882       6.71972765       7.20602036       0.04800750       0.22784440      -0.05437598       2.19343027       0.98870748       0.35442662
H        5.46873784       5.37045435       3.54300386      -0.01081248      -0.18887720      -0.18405458       0.15087440      -0.41377528       0.32517463
H        3.39266118       5.27886490       3.86092723       0.73190466      -0.30350231      -0.41994994       2.20030481       0.42291014       1.14564236
H        4.69983740       6.56124499       5.01745787       0.24115354       0.31892818       0.07310013      -0.11479743      -0.79656404       0.04265506
N        7.64669386       6.66619149       7.46459320      -1.10327391      -0.55231373      -0.27240135      -0.40801642      -0.80553488      -1.50952642
8
Lattice="12.0 0.0 0.0 0.0 12.0 0.0 0.0 0.0 12.0" Properties=species:S:1:pos:R:3:momenta:R:3:forces:R:3 energy=-437.8938504698 free_energy=-437.8938504698 stress="-0.00016459833990901 -0.00040589093852747 1.2866276594024e-05 -0.00040589093852747 0.00012137836231569 0.00020646802499142 1.2866276594024e-05 0.00020646802499142 -8.8260781825992e-05" pbc="T T T"
B        4.51168585       5.64555708       4.27744948      -0.39985330      -0.02025389       1.08844132      -0.52269420       0.99746963      -1.76692958
H        7.35185563       6.74565104       8.44949090      -0.11759764       0.24354909      -0.27406690      -0.80564901      -0.21373152       1.28486935
H        7.25164454       6.03508545       6.78925444       0.02141496       0.35580152       0.03033129      -2.21963173      -1.27901234      -0.45295403
H        8.57592942       6.74619930       7.21816459       0.20066041       0.41565022      -0.11732583       0.64641532       0.89240154       0.76119706
H        5.42212418       5.35204271       3.55050910      -0.00181827      -0.13420476      -0.07352498      -0.13541359      -0.19669682       0.76636738
H        3.42407058       5.25380070       3.84889863       0.77031798      -0.16791627      -0.31575319       0.99868083       0.28581443       1.15199765
H        4.68069024       6.57404720       5.04357640       0.28648725       0.08084760      -0.05681538      -0.32954944      -1.09036473      -0.13923885
N        7.59265720       6.65853671       7.48582152      -0.75816092      -0.77254999      -0.27968987       2.37033486       0.58781080      -1.60554892
8
Lattice="12.0 0.0 0.0 0.0 12.0 0.0 0.0 0.0 12.0" Properties=species:S:1:pos:R:3:momenta:R:3:forces:R:3 energy=-437.76259481496 free_energy=-437.76259481496 stress="8.6717593330846e-05 -0.00063789938013756 -0.0007478505052453 -0.00063789938013756 -0.00022238573344 -0.00034701654742009 -0.0007478505052453 -0.00034701654742009 -0.000900400735171" pbc="T T T"
B        4.45152693       5.63363885       4.29867943      -0.70723338       0.16721103       0.85346320       1.44286348       1.17094017      -1.87653767
H        7.28737078       6.75162863       8.44004725      -0.11302472       0.22961858      -0.12919510      -1.06478535      -0.05810655       2.11874500
H        7.19220829       6.05433569       6.80684921      -0.14922291       0.20374567      -0.02036746      -2.71650450      -2.33506526      -1.79192015
H        8.55153806       6.78014894       7.22327395       0.32249131       0.48543471       0.00346169      -1.29218264       0.46858655       1.10430221
H        5.37468179       5.32978330       3.55995275       0.07878779      -0.05382899       0.08118109      -0.40031430      -0.00426803       1.12389407
H        3.44846194       5.21985106       3.83719473       0.76666979      -0.25133416      -0.22117756      -0.49000364      -0.03472086       0.89077755
H        4.65128746       6.56840325       5.05232964       0.18939242       0.03068151       0.02568744      -0.53925253      -1.13516797      -0.12486288
N        7.53393050       6.64064903       7.49546122      -0.38627325      -0.81217927      -0.59166546       5.05542180       1.92294591      -1.43683289
8
Lattice="12.0 0.0 0.0 0.0 12.0 0.0 0.0 0.0 12.0" Properties=species:S:1:pos:R:3:momenta:R:3:forces:R:3 energy=-437.698082263 free_energy=-437.698082263 stress="0.00026355769791905 -0.00059072241609841 -0.001193594749619 -0.00059072241609841 -0.0001933988949953 -0.00037787819407386 -0.001193594749619 -0.00037787819407386 -0.00057653333100486" pbc="T T T"
B        4.39746934       5.62612108       4.30384117      -0.61554240       0.14544769       0.86890767       3.03549570       1.20001733      -1.81344526
H        7.22342576       6.75937691       8.43358097      -0.19100406       0.15940672       0.02436577      -0.93077576      -0.05945301       1.62380444
H        7.11308071       6.05330293       6.79409675      -0.50205372      -0.04799221      -0.17845944      -2.22659611      -1.87407225      -1.44609072
H        8.52815396       6.81753083       7.21832944       0.12412622       0.44145463      -0.06786326      -2.53017767      -0.03602937       1.17967396
H        5.33132949       5.31142700       3.56641903       0.00845117      -0.10871928       0.11280129      -0.46860228       0.16013687       1.30125096
H        3.47184604       5.18246917       3.81359285       0.65248088      -0.34100062      -0.20666750      -1.87518762      -0.42396006       0.49461674
H        4.61758589       6.55155380       5.04817946       0.05383374      -0.09805545       0.02510500      -0.67878852      -0.93927806       0.03184824
N        7.48603849       6.62881614       7.48747384       0.47070258      -0.15139031      -0.57629900       5.67746446       1.98102150      -1.36917593
8
Lattice="12.0 0.0 0.0 0.0 12.0 0.0 0.0 0.0 12.0" Properties=species:S:1:pos:R:3:momenta:R:3:forces:R:3 energy=-437.76461287485 free_energy=-437.76461287485 stress="0.00033191877356286 -0.00034680937653929 -0.0010771896626942 -0.00034680937653929 4.8516945080946e-05 2.1706233746596e-05 -0.0010771896626942 2.1706233746596e-05 0.00044000167858236" pbc="T T T"
B        4.37042743       5.62750427       4.30251607      -0.38515415       0.53154266       0.90669788       3.78366571       0.64449994      -2.15092669
H        7.18363417       6.77508676       8.42868736      -0.17144749       0.17458375       0.03619217      -0.58803433      -0.15986752       0.53123660
H        7.02914508       6.04409205       6.76426737      -0.62062161      -0.04865502      -0.10726471      -0.88138358      -0.35536070       0.14234904
H        8.50059410       6.85781047       7.21189603      -0.11349379       0.34629935       0.09458899      -2.54037554      -0.36261472       0.90163182
H        5.31637475       5.29677636       3.57131264       0.11703666      -0.14026969       0.22056017      -0.53922189       0.35044798       1.43222230
H        3.49940590       5.14218953       3.78906239       0.42878515      -0.45522556      -0.08733702      -2.53340305      -0.59986975       0.30088988
H        4.59962425       6.53007760       5.03347740       0.03079534      -0.25343369      -0.05266506      -0.69715035      -0.39816177       0.43335111
N        7.46826948       6.62526498       7.47084642       0.71534116      -0.15471888      -1.00891366       3.99413319       0.89395641      -1.59243287
8
Lattice="12.0 0.0 0.0 0.0 12.0 0.0 0.0 0.0 12.0" Properties=species:S:1:pos:R:3:momenta:R:3:forces:R:3 energy=-437.8008582946 free_energy=-437.8008582946 stress="0.00035802355717029 -3.8970278404865e-05 -0.00059682069104527 -3.8970278404865e-05 0.00016593784415985 0.00036476956973072 -0.00059682069104527 0.00036476956973072 0.0012704785335945" pbc="T T T"
B        4.37102378       5.63783872       4.29643916       0.17221753       0.57463068       0.80711157       3.31564528      -0.51128359      -2.91313875
H        7.16547830       6.80107313       8.41967843      -0.21265682       0.23284164       0.04817774      -0.18411264      -0.27442178      -0.50316727
H        6.96856701       6.03936057       6.73525725      -0.62648362      -0.06021882      -0.11765992       0.40852477       0.86647140       1.39809380
H        8.47935024       6.89275454       7.19689892      -0.35800397       0.23691172      -0.06419600      -1.81432139      -0.40200283       0.54379735
H        5.31886808       5.29156572       3.58032157      -0.06040088      -0.08124380       0.30849589      -0.42710515       0.45390959       1.36975721
H        3.52064976       5.10724546       3.76679033       0.03122819      -0.42829107      -0.08701504      -2.27486338      -0.34475569       0.52351215
H        4.59985926       6.51231059       5.01120671      -0.07246637      -0.15698430      -0.09568208      -0.60010914       0.39874145       1.03619361
N        7.47655243       6.62942036       7.45081461       1.12763287      -0.31629862      -0.79776036       1.57723275      -0.17497301      -1.45861699
8
Lattice="12.0 0.0 0.0 0.0 12.0 0.0 0.0 0.0 12.0" Properties=species:S:1:pos:R:3:momenta:R:3:forces:R:3 energy=-437.79486908114 free_energy=-437.79486908114 stress="4.4747479112822e-05 0.0002621192252817 0.0001712337043327 0.0002621192252817 0.00026087414999165 0.0006428040788577 0.0001712337043327 0.0006428040788577 0.0016309935528707" pbc="T T T"
B        4.39195515       5.65251097       4.28642374       0.49996646       0.45780682       0.15569178       2.11109814      -1.58358050      -3.44783412
H        7.16252261       6.82553136       8.40209845      -0.21192656       0.12472663      -0.11134318       0.12295419      -0.31501347      -1.02821439
H        6.92980349       6.05050334       6.71138300      -0.45175710       0.16930367      -0.03066759       1.37643612       1.56964294       2.07772686
H        8.46344807       6.91893211       7.18101634      -0.36658624       0.11363654       0.02799881      -0.45278136      -0.13420564       0.08627709
H        5.32719003       5.28886178       3.59790155      -0.12823404      -0.08738495       0.39550466      -0.01234921       0.43176856       1.08227828
H        3.53655193       5.08106789       3.74514271      -0.07167327      -0.29316097      -0.03803425      -1.57758437       0.18652829       0.95000734
H        4.61101628       6.51090177       4.99262992      -0.06360897      -0.05482828       0.00480872      -0.50802942       0.96149099       1.43254458
N        7.50125402       6.63602356       7.43236558       0.79502781      -0.42771638      -0.40292281      -1.04911805      -1.11463327      -1.14806365
8
Lattice="12.0 0.0 0.0 0.0 12.0 0.0 0.0 0.0 12.0" Properties=species:S:1:pos:R:3:momenta:R:3:forces:R:3 energy=-437.82613826455 free_energy=-437.82613826455 stress="-0.0010546198981846 0.00028849735915374 0.00091163303010546 0.00028849735915374 0.00013591633124554 0.00061044579133821 0.00091163303010546 0.00061044579133821 0.0012485205440859" pbc="T T T"
B        4.42232120       5.66382633       4.27420637       0.61276806       0.10786196      -0.04157462       0.72242096      -1.90700305      -3.17558899
H        7.16930054       6.84337296       8.37670513      -0.15573540       0.05898076      -0.20270458       0.25310879      -0.26735214      -1.02289182
H        6.92323260       6.08555871       6.70729026      -0.18682665       0.33954334       0.16041301       1.53417586       1.45251736       1.84852508
H        8.44851796       6.93361203       7.17119093      -0.32451118       0.03694166      -0.01998248       1.47328371       0.43477235      -0.48968826
H        5.33150367       5.29157164       3.62329487      -0.19026807      -0.06074194       0.42263099       0.81250918       0.19318811       0.48633991
H        3.55148204       5.06638797       3.73259938      -0.13149160      -0.17520324       0.07852488      -1.02594083       0.61119761       1.22934816
H        4.63215224       6.51351280       4.98748034      -0.04183124       0.01411268       0.11420795      -0.49694729       1.09907425       1.47757161
N        7.52874733       6.64244276       7.41646008       0.41992200      -0.31894238      -0.51006807      -3.27656046      -1.62132252      -0.34490028
8
Lattice="12.0 0.0 0.0 0.0 12.0 0.0 0.0 0.0 12.0" Properties=species:S:1:pos:R:3:momenta:R:3:forces:R:3 energy=-437.86632886084 free_energy=-437.86632886084 stress="-0.0019961790731791 0.00033469104517322 0.0014990460538661 0.00033469104517322 0.00011812908985063 0.0005548346512254 0.0014990460538661 0.0005548346512254 0.00068131914886856" pbc="T T T"
B        4.45330359       5.67393788       4.25992922       0.68538862       0.30005598      -0.49526484      -0.62911231      -1.55450818      -2.18793719
H        7.18317281       6.85462471       8.34952609      -0.11479668       0.06153311      -0.05642914       0.34294519      -0.16012202      -0.78815356
H        6.92378047       6.12588942       6.71885725      -0.25222011       0.34939511       0.32982999       1.36719123       1.04583631       1.20541212
H        8.44608005       6.94601830       7.15654119      -0.16728523       0.09508323      -0.08327232       3.03787941       0.96127157      -0.98463018
H        5.34329070       5.29806860       3.65047391      -0.05937547      -0.02057532       0.34635518       1.66874708      -0.13986256      -0.20672235
H        3.55391995       5.05398170       3.74188947      -0.28481517      -0.19944532       0.38139134      -0.45776461       0.95673316       1.35111123
H        4.64993641       6.52572920       4.99723630      -0.10025537       0.03924731       0.20503513      -0.56772167       0.73453466       1.06151332
N        7.55700929       6.64820289       7.40081802       0.29476050      -0.62324511      -0.62558706      -4.76357714      -1.85166537       0.54936067
8
Lattice="12.0 0.0 0.0 0.0 12.0 0.0 0.0 0.0 12.0" Properties=species:S:1:pos:R:3:momenta:R:3:forces:R:3 energy=-438.0057441109 free_energy=-438.0057441109 stress="-0.0017985124089595 0.00042583763550295 0.0011611250556224 0.00042583763550295 3.1367600934888e-05 0.00018134627369794 0.0011611250556224 0.00018134627369794 7.0768937490252e-05" pbc="T T T"
B        4.47013117       5.67412706       4.23924148       0.36433426       0.03445586      -0.86668890      -1.51675110      -1.30501299      -1.29519268
H        7.18441025       6.85040756       8.32821107      -0.00626857      -0.04306255      -0.04237800       0.50866713      -0.09612203      -0.72694249
H        6.92174609       6.16876053       6.74106093      -0.03358607       0.49642969       0.31510236       0.42594989       0.10533246      -0.20550939
H        8.46132516       6.96379862       7.13574708       0.20118612       0.20461576      -0.07787918       2.13670697       0.68860316      -0.81337709
H        5.36177391       5.29087773       3.67178893       0.11645286      -0.07640965       0.35270886       2.07550785      -0.35296859      -0.64249291
H        3.53867484       5.03620138       3.76629527      -0.25460467      -0.06567115       0.44336752       0.03880606       1.17787305       1.26912154
H        4.64567797       6.52466505       5.00202762      -0.11837170       0.04849483       0.22901610      -0.58259302       0.47793321       0.68679475
N        7.56743106       6.64161006       7.38308284      -0.26797298      -0.59753059      -0.35142679      -3.08141065      -0.69703927       1.72279475
8
Lattice="12.0 0.0 0.0 0.0 12.0 0.0 0.0 0.0 12.0" Properties=species:S:1:pos:R:3:momenta:R:3:forces:R:3 energy=-438.07973322074 free_energy=-438.07973322074 stress="-0.00098738562962544 0.00057246567730085 0.00027094491585155 0.00057246567730085 0.0001331054545802 -0.00019167364009944 0.00027094491585155 -0.00019167364009944 -0.00041473792153403" pbc="T T T"
B        4.47350114       5.66800298       4.21675857       0.48228775       0.00621263      -0.88347656      -1.75175732      -0.97440429      -0.43315210
H        7.17865198       6.84158728       8.30873837      -0.05110663      -0.02521783      -0.02464907       0.57927293      -0.05330112      -0.60521286
H        6.91855181       6.21295899       6.75203198      -0.06578128       0.41367982       0.19287010      -1.13610673      -1.01009118      -1.96787963
H        8.48838346       6.97921051       7.11331686       0.25487405       0.17825990      -0.07376236      -0.04037340      -0.10337894      -0.25943018
H        5.38481943       5.27190032       3.69126163       0.31922191      -0.21935621       0.32235893       1.95029124      -0.38509592      -0.74826097
H        3.51161654       5.02078949       3.79957162      -0.24514868      -0.03123613       0.49457709       0.41799348       1.27913261       1.05133730
H        4.62966116       6.52491545       5.00716985      -0.18360549       0.10756803       0.16056696      -0.60100975       0.07914002       0.14863637
N        7.56227115       6.63123139       7.36540763      -0.50927535      -0.42857646      -0.18727628       0.58602982       1.17980564       2.81158727
8
Lattice="12.0 0.0 0.0 0.0 12.0 0.0 0.0 0.0 12.0" Properties=species:S:1:pos:R:3:momenta:R:3:forces:R:3 energy=-438.05049059579 free_energy=-438.05049059579 stress="-2.1240819265283e-05 0.00063148367273085 -0.00048002106684693 0.00063148367273085 0.00038789937762003 -0.00028233174093688 -0.00048002106684693 -0.00028233174093688 -0.00059746290180361" pbc="T T T"
B        4.47585825       5.65990726       4.19527288       0.41569907       0.20121050      -0.84591178      -1.28204570      -0.79631788       0.18367669
H        7.17065604       6.81854803       8.29186208      -0.08429825      -0.23925458      -0.03269043       0.63360533       0.04355092      -0.36497116
H        6.90508013       6.23269816       6.75859378      -0.12969370       0.11783088       0.15359725      -2.06242209      -1.56479890      -3.06261401
H        8.51084280       6.98802098       7.09833277       0.20120984       0.13875575      -0.00300599      -1.50851915      -0.66666042       0.07090177
H        5.42367610       5.24349163       3.70813792       0.47550423      -0.21217690       0.25783670       1.22451401      -0.16082774      -0.52513875
H        3.48915720       5.01197902       3.83359079      -0.20778088       0.06253357       0.51627874       0.66275117       1.28002785       0.77173603
H        4.61254283       6.52588046       5.01404335      -0.20542389       0.01526531       0.21893875      -0.58931153      -0.32392321      -0.41176407
N        7.55621492       6.62121241       7.35032570      -0.46358644      -0.08174157      -0.26414918       2.92320528       2.20691365       3.33949104
8
Lattice="12.0 0.0 0.0 0.0 12.0 0.0 0.0 0.0 12.0" Properties=species:S:1:pos:R:3:momenta:R:3:forces:R:3 energy=-438.13052686656 free_energy=-438.13052686656 stress="0.0010460227691434 0.00056281783436776 -0.00066783019238624 0.00056281783436776 0.00058597257272109 -0.00015794209393665 -0.00066783019238624 -0.00015794209393665 -0.00059050283119" pbc="T T T"
B        4.48363791       5.64532117       4.18568287       0.36622859      -0.35899214      -0.51158703      -0.27009415      -0.80134908       0.37478419
H        7.17516987       6.79314745       8.27986384       0.03516154      -0.02562620      -0.08128843       0.47503957       0.19224344       0.23181992
H        6.88935577       6.22545548       6.75324011      -0.27220758       0.00718553      -0.18646774      -1.49531810      -1.19849127      -2.62954778
H        8.52279220       6.98121952       7.09185188      -0.05849058      -0.01875752      -0.03876290      -1.99582818      -0.84949851       0.18602742
H        5.47908113       5.20964318       3.72013616       0.53604867      -0.14724952       0.06918274       0.08140679       0.23315801      -0.11472631
H        3.47720780       5.01878048       3.87687306      -0.10014974       0.27663746       0.40721827       0.67690641       1.05506208       0.44401590
H        4.59333890       6.51984483       5.01602962      -0.25095673       0.09207499      -0.06009322      -0.47297695      -0.48759392      -0.68473304
N        7.55800587       6.60807702       7.34786299      -0.25405167       0.17863139       0.40271935       3.00186564       1.86752574       2.19403795
8
Lattice="12.0 0.0 0.0 0.0 12.0 0.0 0.0 0.0 12.0" Properties=species:S:1:pos:R:3:momenta:R:3:forces:R:3 energy=-438.24545544668 free_energy=-438.24545544668 stress="0.0018094182675847 0.00038949868554232 -0.00020446883619871 0.00038949868554232 0.00065812919665032 0.0001576830973216 -0.00020446883619871 0.0001576830973216 -0.00037495197852673" pbc="T T T"
B        4.49380029       5.62873388       4.18160001       0.50791183      -0.70451963      -0.29901749       1.06369807      -0.63677479       0.43375651
H        7.18905017       6.77887334       8.27246525       0.04905020      -0.02198586      -0.10143605       0.16937992       0.32653199       0.95609174
H        6.85713682       6.20891668       6.73130609      -0.42882282      -0.03045844      -0.28670509       0.38735368      -0.09231160      -0.89677369
H        8.51713356       6.96090726       7.09353411      -0.11547567      -0.19157494       0.03757305      -1.45642715      -0.62767524       0.02493090
H        5.54053263       5.18523388       3.72753475       0.52317872      -0.09100027       0.07908549      -0.99844666       0.55852107       0.23635556
H        3.48286644       5.03909274       3.92173952       0.08255600       0.36835298       0.48056601       0.27751349       0.55972354       0.07086007
H        4.57748149       6.51276877       5.00609956      -0.26784161       0.00301615      -0.12719164      -0.32821507      -0.48288162      -0.72085596
N        7.56355554       6.59944908       7.35191641      -0.34905611       0.67288577       0.21810535       0.88491073       0.39434757      -0.10309592
8
Lattice="12.0 0.0 0.0 0.0 12.0 0.0 0.0 0.0 12.0" Properties=species:S:1:pos:R:3:momenta:R:3:forces:R:3 energy=-438.16923019478 free_energy=-438.16923019478 stress="0.0021046467841129 0.00010294722279781 0.00032560574573067 0.00010294722279781 0.0004939326382013 0.00026551257539119 0.00032560574573067 0.00026551257539119 -0.00047696523658595" pbc="T T T"
B        4.50349533       5.61957038       4.17849843       0.60228262      -0.40485857      -0.31392639       2.16308042      -0.57313446       0.43682523
H        7.20079537       6.77324188       8.26000735       0.10788635      -0.02817580      -0.02691230      -0.23505806       0.48494690       1.87292799
H        6.82552752       6.20092728       6.70384989      -0.27230271      -0.00638316      -0.23527678       1.83374377       0.71304339       0.46127242
H        8.50905851       6.93511686       7.09798876      -0.12586057      -0.31270068       0.01034141      -0.63104011      -0.30562838      -0.22100657
H        5.59521883       5.17090915       3.73999265       0.40285247      -0.02763050       0.21629490      -1.78807212       0.77031731       0.42407550
H        3.49094149       5.06488314       3.97158809      -0.00404361       0.36358468       0.52685292      -0.23417248       0.02046824      -0.29692401
H        4.55341648       6.50334752       4.98905663      -0.33074735      -0.13943606      -0.22109484      -0.12607966      -0.21997121      -0.54292317
N        7.56625734       6.59954647       7.35347733      -0.37872346       0.56011409       0.04470341      -0.98243387      -0.89086682      -2.13329922
