
  **** **** ******  **  PROGRAM STARTED AT               2026-04-15 15:34:32.805
 ***** ** ***  *** **   PROGRAM STARTED ON               cbe-dt-319.che.ncsu.edu
 **    ****   ******    PROGRAM STARTED BY                               rverma7
 ***** **    ** ** **   PROGRAM PROCESS ID                               3125155
  **** **  *******  **  PROGRAM STARTED IN /home/rverma7/My_Program/0.3_sparc/ex
                                           amples/CP2K/MD/NVT

 CP2K| version string:                                       CP2K version 2023.2
 CP2K| source code revision number:                                  git:65cca6c
 CP2K| cp2kflags: omp libint fftw3 libxc elpa parallel mpi_f08 scalapack cosma x
 CP2K|            smm plumed2 spglib mkl sirius libvori libbqb libvdwxc
 CP2K| is freely available from                            https://www.cp2k.org/
 CP2K| Program compiled at                       Wed Dec 18 11:39:34 AM EST 2024
 CP2K| Program compiled on                               cbe-dt-319.che.ncsu.edu
 CP2K| Program compiled for                                                local
 CP2K| Data directory path                     /home/prg/Softwares/cp2k_gcc/data
 CP2K| Input file name                                              cp2k/job.inp
 &GLOBAL
   BLACS_GRID SQUARE
   BLACS_REPEATABLE F
   PREFERRED_DIAG_LIBRARY ELPA
   PREFERRED_DGEMM_LIBRARY BLAS
   EPS_CHECK_DIAG -1.0000000000000000E+000
   ELPA_KERNEL AUTO
   ELPA_NEIGVEC_MIN 16
   ELPA_QR F
   ELPA_QR_UNSAFE F
   PREFERRED_FFT_LIBRARY FFTW3
   FFTW_WISDOM_FILE_NAME /etc/fftw/wisdom
   FFTW_PLAN_TYPE ESTIMATE
   EXTENDED_FFT_LENGTHS F
   FFT_POOL_SCRATCH_LIMIT 15
   ALLTOALL_SGL F
   PRINT_LEVEL LOW
   PROGRAM_NAME CP2K
   PROJECT_NAME "cp2k/job"
   OUTPUT_FILE_NAME 
   RUN_TYPE ENERGY_FORCE
   WALLTIME 
   ECHO_INPUT T
   ECHO_ALL_HOSTS F
   ENABLE_MPI_IO T
   TRACE F
   TRACE_MASTER T
   TRACE_MAX 2147483647
   FLUSH_SHOULD_FLUSH T
   CALLGRAPH NONE
   CALLGRAPH_FILE_NAME 
   SEED 2000
   SAVE_MEM F
 &END GLOBAL
 &FORCE_EVAL
   METHOD QS
   STRESS_TENSOR ANALYTICAL
   &DFT
     BASIS_SET_FILE_NAME BASIS_MOLOPT
     POTENTIAL_FILE_NAME GTH_POTENTIALS
     UKS F
     ROKS F
     MULTIPLICITY 1
     CHARGE 0
     EXCITATIONS NONE
     PLUS_U_METHOD MULLIKEN
     RELAX_MULTIPLICITY  0.0000000000000000E+000
     SUBCELLS  2.0000000000000000E+000
     AUTO_BASIS "X" "X"
     SURFACE_DIPOLE_CORRECTION F
     SURF_DIP_DIR Z
     SURF_DIP_POS -1.0000000000000000E+000
     SURF_DIP_SWITCH F
     CORE_CORR_DIP F
     SORT_BASIS DEFAULT
     &SCF
       MAX_ITER_LUMO 299
       EPS_LUMO  1.0000000000000001E-005
       MAX_SCF 500
       MAX_SCF_HISTORY 0
       MAX_DIIS 4
       LEVEL_SHIFT  0.0000000000000000E+000
       EPS_SCF  1.0000000000000000E-004
       EPS_SCF_HISTORY  0.0000000000000000E+000
       CHOLESKY RESTORE
       EPS_EIGVAL  1.0000000000000001E-005
       EPS_DIIS  1.0000000000000001E-001
       SCF_GUESS RESTART
       NROW_BLOCK 32
       NCOL_BLOCK 32
       ADDED_MOS 0
       ROKS_SCHEME HIGH-SPIN
       ROKS_F  5.0000000000000000E-001
       ROKS_PARAMETERS -5.0000000000000000E-001  1.5000000000000000E+000  5.0000000000000000E-001  5.0000000000000000E-001 \
         1.5000000000000000E+000 -5.0000000000000000E-001
       NOTCONV_STOPALL F
       &OT T
         ALGORITHM STRICT
         IRAC_DEGREE 4
         MAX_IRAC 50
         ORTHO_IRAC CHOL
         EPS_IRAC_FILTER_MATRIX  0.0000000000000000E+000
         EPS_IRAC  1.0000000000000000E-010
         EPS_IRAC_QUICK_EXIT  1.0000000000000001E-005
         EPS_IRAC_SWITCH  1.0000000000000000E-002
         ON_THE_FLY_LOC F
         MINIMIZER CG
         SAFE_DIIS T
         N_HISTORY_VEC 7
         BROYDEN_BETA  9.0000000000000002E-001
         BROYDEN_GAMMA  5.0000000000000000E-001
         BROYDEN_SIGMA  2.5000000000000000E-001
         BROYDEN_ETA  6.9999999999999996E-001
         BROYDEN_OMEGA  1.1000000000000001E+000
         BROYDEN_SIGMA_DECREASE  6.9999999999999996E-001
         BROYDEN_SIGMA_MIN  5.0000000000000003E-002
         BROYDEN_FORGET_HISTORY F
         BROYDEN_ADAPTIVE_SIGMA T
         BROYDEN_ENABLE_FLIP T
         LINESEARCH 2PNT
         STEPSIZE -1.0000000000000000E+000
         GOLD_TARGET  1.0000000000000000E-002
         PRECONDITIONER FULL_ALL
         CHOLESKY REDUCE
         PRECOND_SOLVER DEFAULT
         ENERGY_GAP -1.0000000000000000E+000
         EPS_TAYLOR  9.9999999999999998E-017
         MAX_TAYLOR 4
         ROTATION F
         ENERGIES F
         OCCUPATION_PRECONDITIONER F
         NONDIAG_ENERGY F
         NONDIAG_ENERGY_STRENGTH  1.0000000000000000E+000
       &END OT
       &OUTER_SCF T
         TYPE NONE
         OPTIMIZER NONE
         BISECT_TRUST_COUNT 10
         EPS_SCF  1.0000000000000000E-004
         DIIS_BUFFER_LENGTH 3
         EXTRAPOLATION_ORDER 3
         MAX_SCF 3
         STEP_SIZE  5.0000000000000000E-001
       &END OUTER_SCF
     &END SCF
     &LS_SCF
       LS_DIIS F
       INI_DIIS 2
       MAX_DIIS 4
       NMIXING 2
       EPS_DIIS  1.0000000000000001E-001
       MAX_SCF 500
       EPS_SCF  9.9999999999999995E-008
       MIXING_FRACTION  4.5000000000000001E-001
       EPS_FILTER  9.9999999999999995E-007
       EPS_LANCZOS  1.0000000000000000E-003
       MAX_ITER_LANCZOS 128
       MU -1.0000000000000001E-001
       FIXED_MU F
       EXTRAPOLATION_ORDER 4
       S_PRECONDITIONER ATOMIC
       S_SQRT_METHOD NEWTONSCHULZ
       S_SQRT_ORDER 3
       PURIFICATION_METHOD SIGN
       SIGN_METHOD NEWTONSCHULZ
       SUBMATRIX_SIGN_METHOD NEWTONSCHULZ
       SIGN_ORDER 2
       SIGN_SYMMETRIC F
       DYNAMIC_THRESHOLD F
       NON_MONOTONIC T
       MATRIX_CLUSTER_TYPE ATOMIC
       SINGLE_PRECISION_MATRICES F
       RESTART_WRITE F
       RESTART_READ F
       S_INVERSION SIGN_SQRT
       REPORT_ALL_SPARSITIES T
       PERFORM_MU_SCAN F
       CHECK_S_INV F
     &END LS_SCF
     &QS
       EPS_DEFAULT  1.0000000000000000E-010
       EPS_PGF_ORB  9.9999999999999998E-013
       EPS_PPL  1.0000000000000000E-002
       EPS_FILTER_MATRIX  0.0000000000000000E+000
       EPSFIT  1.0000000000000000E-004
       EPSISO  9.9999999999999998E-013
       EPSSVD  1.0000000000000000E-008
       EPSRHO0  9.9999999999999995E-007
       ALPHA0_HARD  0.0000000000000000E+000
       FORCE_PAW F
       MAX_RAD_LOCAL  2.5000000000000000E+001
       GAPW_1C_BASIS ORB
       MIN_PAIR_LIST_RADIUS  0.0000000000000000E+000
       LS_SCF F
       ALMO_SCF F
       TRANSPORT F
       KG_METHOD F
       REF_EMBED_SUBSYS F
       CLUSTER_EMBED_SUBSYS F
       HIGH_LEVEL_EMBED_SUBSYS F
       DFET_EMBEDDED F
       DMFET_EMBEDDED F
       STO_NG 6
       LMAXN1 -1
       LMAXN0 2
       LADDN0 99
       QUADRATURE GC_LOG
       PW_GRID NS-FULLSPACE
       PW_GRID_LAYOUT -1 -1
       PW_GRID_BLOCKED FREE
       EXTRAPOLATION ASPC
       EXTRAPOLATION_ORDER 3
       METHOD GPW
       CORE_PPL ANALYTIC
     &END QS
     &MGRID
       NGRIDS 3
       CUTOFF  4.0000000000000000E+002
       PROGRESSION_FACTOR  3.0000000000000000E+000
       COMMENSURATE F
       REALSPACE F
       REL_CUTOFF  5.0000000000000000E+001
       MULTIGRID_SET F
       SKIP_LOAD_BALANCE_DISTRIBUTED F
     &END MGRID
     &XC
       DENSITY_CUTOFF  1.0000000000000000E-010
       GRADIENT_CUTOFF  1.0000000000000000E-010
       DENSITY_SMOOTH_CUTOFF_RANGE  0.0000000000000000E+000
       TAU_CUTOFF  1.0000000000000000E-010
       FUNCTIONAL_ROUTINE DEFAULT
       2ND_DERIV_ANALYTICAL T
       3RD_DERIV_ANALYTICAL T
       STEP_SIZE  1.0000000000000000E-003
       NSTEPS 3
       &XC_FUNCTIONAL NO_SHORTCUT
         &PADE T
         &END PADE
       &END XC_FUNCTIONAL
     &END XC
   &END DFT
   &SUBSYS
     SEED 12345
     &CELL
       A  1.2000000000000000E+001  0.0000000000000000E+000  0.0000000000000000E+000
       B  0.0000000000000000E+000  1.2000000000000000E+001  0.0000000000000000E+000
       C  0.0000000000000000E+000  0.0000000000000000E+000  1.2000000000000000E+001
       ALPHA_BETA_GAMMA  9.0000000000000000E+001  9.0000000000000000E+001  9.0000000000000000E+001
       CELL_FILE_FORMAT CP2K
       PERIODIC XYZ
       MULTIPLE_UNIT_CELL 1 1 1
       SYMMETRY NONE
     &END CELL
     &COORD
 B 4.534859120000000132e+00 5.529755190000000376e+00 4.423223799999999706e+00
 H 7.744458810000000248e+00 6.964885370000000187e+00 8.690419889999999370e+00
 H 7.025495669999999748e+00 6.328029950000000348e+00 7.481785010000000291e+00
 H 8.308597419999999900e+00 7.271037589999999717e+00 7.194059179999999998e+00
 H 4.926355789999999679e+00 5.814865379999999639e+00 3.309580110000000630e+00
 H 3.691402580000000100e+00 4.728962410000000283e+00 4.755454320000000124e+00
 H 5.004701729999999849e+00 5.931267820000000413e+00 5.497636660000000397e+00
 N 7.976740829999999782e+00 6.505209950000000241e+00 7.806834470000000081e+00
       UNIT "angstrom"
       SCALED F
     &END COORD
     &KIND "B"
       BASIS_SET "SZV-MOLOPT-SR-GTH"
       AUX_BASIS_SET ""
       RI_AUX_BASIS_SET ""
       LRI_BASIS_SET ""
       AUX_FIT_BASIS_SET ""
       CORE_CORRECTION  0.0000000000000000E+000
       MAGNETIZATION  0.0000000000000000E+000
       ELEMENT "B"
       POTENTIAL_FILE_NAME "-"
       POTENTIAL_TYPE ""
       POTENTIAL "GTH-PADE"
       KG_POTENTIAL_FILE_NAME "-"
       KG_POTENTIAL "NONE"
       COVALENT_RADIUS  0.0000000000000000E+000
       VDW_RADIUS  0.0000000000000000E+000
       MAX_RAD_LOCAL  2.4566439727513359E+001
       LEBEDEV_GRID 50
       RADIAL_GRID 50
       MM_RADIUS  0.0000000000000000E+000
       DFTB3_PARAM  0.0000000000000000E+000
       LMAX_DFTB -1
       MAO -1
       SE_P_ORBITALS_ON_H F
       GPW_TYPE F
       GHOST F
       FLOATING_BASIS_CENTER F
       NO_OPTIMIZE F
       PAO_BASIS_SIZE 0
     &END KIND
     &KIND "N"
       BASIS_SET "SZV-MOLOPT-SR-GTH"
       AUX_BASIS_SET ""
       RI_AUX_BASIS_SET ""
       LRI_BASIS_SET ""
       AUX_FIT_BASIS_SET ""
       CORE_CORRECTION  0.0000000000000000E+000
       MAGNETIZATION  0.0000000000000000E+000
       ELEMENT "N"
       POTENTIAL_FILE_NAME "-"
       POTENTIAL_TYPE ""
       POTENTIAL "GTH-PADE"
       KG_POTENTIAL_FILE_NAME "-"
       KG_POTENTIAL "NONE"
       COVALENT_RADIUS  0.0000000000000000E+000
       VDW_RADIUS  0.0000000000000000E+000
       MAX_RAD_LOCAL  2.4566439727513359E+001
       LEBEDEV_GRID 50
       RADIAL_GRID 50
       MM_RADIUS  0.0000000000000000E+000
       DFTB3_PARAM  0.0000000000000000E+000
       LMAX_DFTB -1
       MAO -1
       SE_P_ORBITALS_ON_H F
       GPW_TYPE F
       GHOST F
       FLOATING_BASIS_CENTER F
       NO_OPTIMIZE F
       PAO_BASIS_SIZE 0
     &END KIND
     &KIND "H"
       BASIS_SET "SZV-MOLOPT-SR-GTH"
       AUX_BASIS_SET ""
       RI_AUX_BASIS_SET ""
       LRI_BASIS_SET ""
       AUX_FIT_BASIS_SET ""
       CORE_CORRECTION  0.0000000000000000E+000
       MAGNETIZATION  0.0000000000000000E+000
       ELEMENT "H"
       POTENTIAL_FILE_NAME "-"
       POTENTIAL_TYPE ""
       POTENTIAL "GTH-PADE"
       KG_POTENTIAL_FILE_NAME "-"
       KG_POTENTIAL "NONE"
       COVALENT_RADIUS  0.0000000000000000E+000
       VDW_RADIUS  0.0000000000000000E+000
       MAX_RAD_LOCAL  2.4566439727513359E+001
       LEBEDEV_GRID 50
       RADIAL_GRID 50
       MM_RADIUS  0.0000000000000000E+000
       DFTB3_PARAM  0.0000000000000000E+000
       LMAX_DFTB -1
       MAO -1
       SE_P_ORBITALS_ON_H F
       GPW_TYPE F
       GHOST F
       FLOATING_BASIS_CENTER F
       NO_OPTIMIZE F
       PAO_BASIS_SIZE 0
     &END KIND
   &END SUBSYS
   &PRINT
     &STRESS_TENSOR ON
       ADD_LAST NO
       COMMON_ITERATION_LEVELS 0
       FILENAME __STD_OUT__
       LOG_PRINT_KEY F
       COMPONENTS F
     &END STRESS_TENSOR
   &END PRINT
 &END FORCE_EVAL

 GLOBAL| Force Environment number                                              1
 GLOBAL| Basis set file name                                        BASIS_MOLOPT
 GLOBAL| Potential file name                                      GTH_POTENTIALS
 GLOBAL| MM Potential file name                                     MM_POTENTIAL
 GLOBAL| Coordinate file name                                      __STD_INPUT__
 GLOBAL| Method name                                                        CP2K
 GLOBAL| Project name                                                   cp2k/job
 GLOBAL| Run type                                                   ENERGY_FORCE
 GLOBAL| FFT library                                                       FFTW3
 GLOBAL| Diagonalization library                                            ELPA
 GLOBAL| DGEMM library                                                      BLAS
 GLOBAL| Minimum number of eigenvectors for ELPA usage                        16
 GLOBAL| Orthonormality check for eigenvectors                          DISABLED
 GLOBAL| Matrix multiplication library                                     COSMA
 GLOBAL| All-to-all communication in single precision                          F
 GLOBAL| FFTs using library dependent lengths                                  F
 GLOBAL| Grid backend                                                       AUTO
 GLOBAL| Global print level                                                  LOW
 GLOBAL| MPI I/O enabled                                                       T
 GLOBAL| Total number of message passing processes                             2
 GLOBAL| Number of threads for this process                                    1
 GLOBAL| This output is from process                                           0
 GLOBAL| Stack size for threads created by OpenMP (OMP_STACKSIZE)        default
 GLOBAL| CPU model name                                 Intel(R) Xeon(R) w3-2435
 GLOBAL| CPUID                                                              1003
 GLOBAL| Compiled for CPUID                                                    0

 *** HINT in environment.F:904 :: The compiler target flags (generic) used ***
 *** to build this binary cannot exploit all extensions of this CPU model  ***
 *** (x86_avx512). Consider compiler target flags as part of FCFLAGS and   ***
 *** CFLAGS (ARCH file).                                                   ***


 MEMORY| system memory details [Kb]
 MEMORY|                        rank 0           min           max       average
 MEMORY| MemTotal             65065512      65065512      65065512      65065512
 MEMORY| MemFree              10163544      10163544      10163544      10163544
 MEMORY| Buffers                 10160         10160         10160         10160
 MEMORY| Cached               29493468      29493468      29493468      29493468
 MEMORY| Slab                  6969716       6969716       6969716       6969716
 MEMORY| SReclaimable          5424288       5424288       5424288       5424288
 MEMORY| MemLikelyFree        45091460      45091460      45091460      45091460


 GENERATE|  Preliminary Number of Bonds generated:                             0
 GENERATE|  Achieved consistency in connectivity generation.

 *******************************************************************************
 *******************************************************************************
 **                                                                           **
 **     #####                         ##              ##                      **
 **    ##   ##            ##          ##              ##                      **
 **   ##     ##                       ##            ######                    **
 **   ##     ##  ##   ##  ##   #####  ##  ##   ####   ##    #####    #####    **
 **   ##     ##  ##   ##  ##  ##      ## ##   ##      ##   ##   ##  ##   ##   **
 **   ##  ## ##  ##   ##  ##  ##      ####     ###    ##   ######   ######    **
 **    ##  ###   ##   ##  ##  ##      ## ##      ##   ##   ##       ##        **
 **     #######   #####   ##   #####  ##  ##  ####    ##    #####   ##        **
 **           ##                                                    ##        **
 **                                                                           **
 **                                                ... make the atoms dance   **
 **                                                                           **
 **            Copyright (C) by CP2K developers group (2000-2023)             **
 **                      J. Chem. Phys. 152, 194103 (2020)                    **
 **                                                                           **
 *******************************************************************************


 TOTAL NUMBERS AND MAXIMUM NUMBERS

  Total number of            - Atomic kinds:                                   3
                             - Atoms:                                          8
                             - Shell sets:                                     8
                             - Shells:                                        10
                             - Primitive Cartesian functions:                 39
                             - Cartesian basis functions:                     14
                             - Spherical basis functions:                     14

  Maximum angular momentum of- Orbital basis functions:                        1
                             - Local part of the GTH pseudopotential:          2
                             - Non-local part of the GTH pseudopotential:      0


 SCF PARAMETERS         Density guess:                                   RESTART
                        --------------------------------------------------------
                        max_scf:                                             500
                        max_scf_history:                                       0
                        max_diis:                                              4
                        --------------------------------------------------------
                        eps_scf:                                        1.00E-04
                        eps_scf_history:                                0.00E+00
                        eps_diis:                                       1.00E-01
                        eps_eigval:                                     1.00E-05
                        --------------------------------------------------------
                        level_shift [a.u.]:                             0.000000
                        --------------------------------------------------------
                        Outer loop SCF in use 
                        No variables optimised in outer loop
                        eps_scf                                         1.00E-04
                        max_scf                                                3
                        No outer loop optimization
                        step_size                                       5.00E-01

 Number of electrons:                                                         14
 Number of occupied orbitals:                                                  7
 Number of molecular orbitals:                                                 7

 Number of orbital functions:                                                 14
 Number of independent orbital functions:                                     14

 Extrapolation method: initial_guess

 *** WARNING in qs_initial_guess.F:305 :: User requested to restart the   ***
 *** wavefunction from the file named: cp2k/job-RESTART.wfn. This file    ***
 *** does not exist. Please check the existence of the file or change     ***
 *** properly the value of the keyword WFN_RESTART_FILE_NAME. Calculation ***
 *** continues using ATOMIC GUESS.                                        ***



 SCF WAVEFUNCTION OPTIMIZATION

  ----------------------------------- OT ---------------------------------------
  Minimizer      : CG                  : conjugate gradient
  Preconditioner : FULL_ALL            : diagonalization, state selective
  Precond_solver : DEFAULT
  Line search    : 2PNT                : 2 energies, one gradient
  stepsize       :    0.15000000                  energy_gap     :    0.08000000
  eps_taylor     :   0.10000E-15                  max_taylor     :             4
  ----------------------------------- OT ---------------------------------------

  Step     Update method      Time    Convergence         Total energy    Change
  ------------------------------------------------------------------------------
     1 OT CG       0.15E+00    0.4     0.56394536       -14.9371718222 -1.49E+01
     2 OT LS       0.69E-01    0.3                      -14.5481364478
     3 OT CG       0.69E-01    0.6     0.28549321       -15.8136096619 -8.76E-01
     4 OT LS       0.55E-01    0.3                      -15.8999194439
     5 OT CG       0.55E-01    0.6     0.26798427       -15.9057589171 -9.21E-02
     6 OT LS       0.44E-01    0.3                      -16.0489545595
     7 OT CG       0.44E-01    0.5     0.07733918       -16.0628731111 -1.57E-01
     8 OT LS       0.68E-01    0.3                      -16.0797929753
     9 OT CG       0.68E-01    0.6     0.03641294       -16.0822146896 -1.93E-02
    10 OT LS       0.86E-01    0.4                      -16.0875571037
    11 OT CG       0.86E-01    0.7     0.02511327       -16.0878084239 -5.59E-03
    12 OT LS       0.66E-01    0.4                      -16.0896422363
    13 OT CG       0.66E-01    0.6     0.01260844       -16.0898404541 -2.03E-03
    14 OT LS       0.75E-01    0.3                      -16.0904151911
    15 OT CG       0.75E-01    0.6     0.00756004       -16.0904237986 -5.83E-04
    16 OT LS       0.78E-01    0.3                      -16.0906416387
    17 OT CG       0.78E-01    0.5     0.00440253       -16.0906419579 -2.18E-04
    18 OT LS       0.90E-01    0.4                      -16.0907259646
    19 OT CG       0.90E-01    0.6     0.00315597       -16.0907275680 -8.56E-05
    20 OT LS       0.11E+00    0.4                      -16.0907799406
    21 OT CG       0.11E+00    0.6     0.00313605       -16.0907818660 -5.43E-05
    22 OT LS       0.80E-01    0.3                      -16.0908143066
    23 OT CG       0.80E-01    0.6     0.00204591       -16.0908202794 -3.84E-05
    24 OT LS       0.14E+00    0.3                      -16.0908438309
    25 OT CG       0.14E+00    0.6     0.00159920       -16.0908495381 -2.93E-05
    26 OT LS       0.83E-01    0.3                      -16.0908545802
    27 OT CG       0.83E-01    0.6     0.00134343       -16.0908599574 -1.04E-05
    28 OT LS       0.72E-01    0.3                      -16.0908662151
    29 OT CG       0.72E-01    0.6     0.00057113       -16.0908663530 -6.40E-06
    30 OT LS       0.96E-01    0.4                      -16.0908677932
    31 OT CG       0.96E-01    0.6     0.00034951       -16.0908678861 -1.53E-06
    32 OT LS       0.68E-01    0.4                      -16.0908682210
    33 OT CG       0.68E-01    0.6     0.00023881       -16.0908682913 -4.05E-07
    34 OT LS       0.79E-01    0.3                      -16.0908685070
    35 OT CG       0.79E-01    0.6     0.00012154       -16.0908685113 -2.20E-07
    36 OT LS       0.80E-01    0.3                      -16.0908685694
    37 OT CG       0.80E-01    0.6     0.00006384       -16.0908685694 -5.81E-08

  *** SCF run converged in    37 steps ***


  Electronic density on regular grids:        -13.9999999998        0.0000000002
  Core density on regular grids:               13.9999999987       -0.0000000013
  Total charge density on r-space grids:       -0.0000000011
  Total charge density g-space grids:          -0.0000000011

  Overlap energy of the core charge distribution:               0.00000578712469
  Self energy of the core charge distribution:                -38.70122451907286
  Core Hamiltonian energy:                                     12.58409686932126
  Hartree energy:                                              15.63022835119510
  Exchange-correlation energy:                                 -5.60397505795875

  Total energy:                                               -16.09086856939057

  outer SCF iter =    1 RMS gradient =   0.64E-04 energy =        -16.0908685694
  outer SCF loop converged in   1 iterations or   37 steps


 ENERGY| Total FORCE_EVAL ( QS ) energy [a.u.]:              -16.090868583289208

 STRESS| Analytical stress tensor [GPa]
 STRESS|                        x                   y                   z
 STRESS|      x        6.91037008028E-02   6.44390178650E-02   9.01338603220E-02
 STRESS|      y        6.44390178650E-02   2.05438832415E-02   1.00449743810E-01
 STRESS|      z        9.01338603220E-02   1.00449743810E-01  -1.06909313544E-01
 STRESS| 1/3 Trace                                            -5.75390983324E-03
 STRESS| Determinant                                           5.94838377981E-04

 STRESS| Eigenvectors and eigenvalues of the analytical stress tensor [GPa]
 STRESS|                        1                   2                   3
 STRESS| Eigenvalues  -1.73485001132E-01  -1.95110425723E-02   1.75734314204E-01
 STRESS|      x          -0.229311118340     -0.672372326830      0.703798170727
 STRESS|      y          -0.386355899935      0.726539539575      0.568215994160
 STRESS|      z           0.893389909049      0.141618330544      0.426378609762

 Number of electrons:                                                         14
 Number of occupied orbitals:                                                  7
 Number of molecular orbitals:                                                 7

 Number of orbital functions:                                                 14
 Number of independent orbital functions:                                     14

 Extrapolation method: ASPC


 SCF WAVEFUNCTION OPTIMIZATION

  ----------------------------------- OT ---------------------------------------
  Minimizer      : CG                  : conjugate gradient
  Preconditioner : FULL_ALL            : diagonalization, state selective
  Precond_solver : DEFAULT
  Line search    : 2PNT                : 2 energies, one gradient
  stepsize       :    0.15000000                  energy_gap     :    0.08000000
  eps_taylor     :   0.10000E-15                  max_taylor     :             4
  ----------------------------------- OT ---------------------------------------

  Step     Update method      Time    Convergence         Total energy    Change
  ------------------------------------------------------------------------------
     1 OT CG       0.15E+00    0.3     0.00003165       -16.0908685833 -1.61E+01

  *** SCF run converged in     1 steps ***


  Electronic density on regular grids:        -13.9999999998        0.0000000002
  Core density on regular grids:               13.9999999987       -0.0000000013
  Total charge density on r-space grids:       -0.0000000011
  Total charge density g-space grids:          -0.0000000011

  Overlap energy of the core charge distribution:               0.00000578712469
  Self energy of the core charge distribution:                -38.70122451907286
  Core Hamiltonian energy:                                     12.58410508865248
  Hartree energy:                                              15.63022072749532
  Exchange-correlation energy:                                 -5.60397566748880

  Total energy:                                               -16.09086858328916

  outer SCF iter =    1 RMS gradient =   0.32E-04 energy =        -16.0908685833
  outer SCF loop converged in   1 iterations or    1 steps


 ENERGY| Total FORCE_EVAL ( QS ) energy [a.u.]:              -16.090868593241016

 STRESS| Analytical stress tensor [GPa]
 STRESS|                        x                   y                   z
 STRESS|      x        6.90572801439E-02   6.44398983918E-02   9.01322658401E-02
 STRESS|      y        6.44398983918E-02   2.05627320345E-02   1.00458329207E-01
 STRESS|      z        9.01322658401E-02   1.00458329207E-01  -1.06893946883E-01
 STRESS| 1/3 Trace                                            -5.75797823482E-03
 STRESS| Determinant                                           5.95068407156E-04

 STRESS| Eigenvectors and eigenvalues of the analytical stress tensor [GPa]
 STRESS|                        1                   2                   3
 STRESS| Eigenvalues  -1.73477481608E-01  -1.95205667846E-02   1.75724113689E-01
 STRESS|      x          -0.229352015586     -0.672490034408      0.703672371611
 STRESS|      y          -0.386353377690      0.726450122315      0.568332022093
 STRESS|      z           0.893380501519      0.141518102770      0.426431596032

 Number of electrons:                                                         14
 Number of occupied orbitals:                                                  7
 Number of molecular orbitals:                                                 7

 Number of orbital functions:                                                 14
 Number of independent orbital functions:                                     14

 Extrapolation method: ASPC


 SCF WAVEFUNCTION OPTIMIZATION

  ----------------------------------- OT ---------------------------------------
  Minimizer      : CG                  : conjugate gradient
  Preconditioner : FULL_ALL            : diagonalization, state selective
  Precond_solver : DEFAULT
  Line search    : 2PNT                : 2 energies, one gradient
  stepsize       :    0.15000000                  energy_gap     :    0.08000000
  eps_taylor     :   0.10000E-15                  max_taylor     :             4
  ----------------------------------- OT ---------------------------------------

  Step     Update method      Time    Convergence         Total energy    Change
  ------------------------------------------------------------------------------
     1 OT CG       0.15E+00    0.3     0.00488196       -16.0935574793 -1.61E+01
     2 OT LS       0.19E+00    0.3                      -16.0937699298
     3 OT CG       0.19E+00    0.5     0.00167366       -16.0937799284 -2.22E-04
     4 OT LS       0.15E+00    0.3                      -16.0937989765
     5 OT CG       0.15E+00    0.5     0.00016273       -16.0938004823 -2.06E-05
     6 OT LS       0.19E+00    0.3                      -16.0938007202
     7 OT CG       0.19E+00    0.6     0.00002256       -16.0938007326 -2.50E-07

  *** SCF run converged in     7 steps ***


  Electronic density on regular grids:        -13.9999999998        0.0000000002
  Core density on regular grids:               13.9999999987       -0.0000000013
  Total charge density on r-space grids:       -0.0000000011
  Total charge density g-space grids:          -0.0000000011

  Overlap energy of the core charge distribution:               0.00000655573122
  Self energy of the core charge distribution:                -38.70122451907286
  Core Hamiltonian energy:                                     12.55650191927483
  Hartree energy:                                              15.64760226429772
  Exchange-correlation energy:                                 -5.59668695285798

  Total energy:                                               -16.09380073262707

  outer SCF iter =    1 RMS gradient =   0.23E-04 energy =        -16.0938007326
  outer SCF loop converged in   1 iterations or    7 steps


 ENERGY| Total FORCE_EVAL ( QS ) energy [a.u.]:              -16.093800737410294

 STRESS| Analytical stress tensor [GPa]
 STRESS|                        x                   y                   z
 STRESS|      x       -1.91637046677E-02   6.16165048346E-02   8.87255284851E-02
 STRESS|      y        6.16165048346E-02   1.17340940989E-02   6.06254467923E-02
 STRESS|      z        8.87255284851E-02   6.06254467923E-02  -1.11632775872E-01
 STRESS| 1/3 Trace                                            -3.96874621470E-02
 STRESS| Determinant                                           1.08986220010E-03

 STRESS| Eigenvectors and eigenvalues of the analytical stress tensor [GPa]
 STRESS|                        1                   2                   3
 STRESS| Eigenvalues  -1.68173323337E-01  -5.96084198584E-02   1.08719356754E-01
 STRESS|      x          -0.464882543678      0.635786393286      0.616165466978
 STRESS|      y          -0.135615548036     -0.738861057475      0.660070269652
 STRESS|      z           0.874924364568      0.223293528477      0.429706127983

 Number of electrons:                                                         14
 Number of occupied orbitals:                                                  7
 Number of molecular orbitals:                                                 7

 Number of orbital functions:                                                 14
 Number of independent orbital functions:                                     14

 Extrapolation method: ASPC


 SCF WAVEFUNCTION OPTIMIZATION

  ----------------------------------- OT ---------------------------------------
  Minimizer      : CG                  : conjugate gradient
  Preconditioner : FULL_ALL            : diagonalization, state selective
  Precond_solver : DEFAULT
  Line search    : 2PNT                : 2 energies, one gradient
  stepsize       :    0.15000000                  energy_gap     :    0.08000000
  eps_taylor     :   0.10000E-15                  max_taylor     :             4
  ----------------------------------- OT ---------------------------------------

  Step     Update method      Time    Convergence         Total energy    Change
  ------------------------------------------------------------------------------
     1 OT CG       0.15E+00    0.3     0.00734920       -16.0932545262 -1.61E+01
     2 OT LS       0.19E+00    0.3                      -16.0937326437
     3 OT CG       0.19E+00    0.5     0.00255600       -16.0937537314 -4.99E-04
     4 OT LS       0.15E+00    0.3                      -16.0937992428
     5 OT CG       0.15E+00    0.5     0.00024236       -16.0938022111 -4.85E-05
     6 OT LS       0.19E+00    0.3                      -16.0938027382
     7 OT CG       0.19E+00    0.5     0.00003373       -16.0938027630 -5.52E-07

  *** SCF run converged in     7 steps ***


  Electronic density on regular grids:        -13.9999999998        0.0000000002
  Core density on regular grids:               13.9999999987       -0.0000000013
  Total charge density on r-space grids:       -0.0000000011
  Total charge density g-space grids:          -0.0000000011

  Overlap energy of the core charge distribution:               0.00000655573122
  Self energy of the core charge distribution:                -38.70122451907286
  Core Hamiltonian energy:                                     12.55656750060917
  Hartree energy:                                              15.64754445732853
  Exchange-correlation energy:                                 -5.59669675757607

  Total energy:                                               -16.09380276298002

  outer SCF iter =    1 RMS gradient =   0.34E-04 energy =        -16.0938027630
  outer SCF loop converged in   1 iterations or    7 steps


 ENERGY| Total FORCE_EVAL ( QS ) energy [a.u.]:              -16.093802773685667

 STRESS| Analytical stress tensor [GPa]
 STRESS|                        x                   y                   z
 STRESS|      x       -1.91874132461E-02   6.16075373859E-02   8.87458494178E-02
 STRESS|      y        6.16075373859E-02   1.17427457398E-02   6.06126724910E-02
 STRESS|      z        8.87458494178E-02   6.06126724910E-02  -1.11693234012E-01
 STRESS| 1/3 Trace                                            -3.97126338394E-02
 STRESS| Determinant                                           1.08989412955E-03

 STRESS| Eigenvectors and eigenvalues of the analytical stress tensor [GPa]
 STRESS|                        1                   2                   3
 STRESS| Eigenvalues  -1.68239199958E-01  -5.95978840646E-02   1.08699182505E-01
 STRESS|      x          -0.464921585481      0.635767785093      0.616155209985
 STRESS|      y          -0.135505830177     -0.738842306299      0.660113790502
 STRESS|      z           0.874920618880      0.223408526831      0.429653977984

 Number of electrons:                                                         14
 Number of occupied orbitals:                                                  7
 Number of molecular orbitals:                                                 7

 Number of orbital functions:                                                 14
 Number of independent orbital functions:                                     14

 Extrapolation method: ASPC


 SCF WAVEFUNCTION OPTIMIZATION

  ----------------------------------- OT ---------------------------------------
  Minimizer      : CG                  : conjugate gradient
  Preconditioner : FULL_ALL            : diagonalization, state selective
  Precond_solver : DEFAULT
  Line search    : 2PNT                : 2 energies, one gradient
  stepsize       :    0.15000000                  energy_gap     :    0.08000000
  eps_taylor     :   0.10000E-15                  max_taylor     :             4
  ----------------------------------- OT ---------------------------------------

  Step     Update method      Time    Convergence         Total energy    Change
  ------------------------------------------------------------------------------
     1 OT CG       0.15E+00    0.3     0.01004196       -16.0945632359 -1.61E+01
     2 OT LS       0.19E+00    0.3                      -16.0954492315
     3 OT CG       0.19E+00    0.5     0.00356413       -16.0954838138 -9.21E-04
     4 OT LS       0.15E+00    0.3                      -16.0955697940
     5 OT CG       0.15E+00    0.5     0.00034723       -16.0955758787 -9.21E-05
     6 OT LS       0.19E+00    0.3                      -16.0955769414
     7 OT CG       0.19E+00    0.5     0.00005252       -16.0955769920 -1.11E-06

  *** SCF run converged in     7 steps ***


  Electronic density on regular grids:        -13.9999999998        0.0000000002
  Core density on regular grids:               13.9999999987       -0.0000000013
  Total charge density on r-space grids:       -0.0000000011
  Total charge density g-space grids:          -0.0000000011

  Overlap energy of the core charge distribution:               0.00001008154468
  Self energy of the core charge distribution:                -38.70122451907286
  Core Hamiltonian energy:                                     12.53644811621310
  Hartree energy:                                              15.66068317605417
  Exchange-correlation energy:                                 -5.59149384671702

  Total energy:                                               -16.09557699197793

  outer SCF iter =    1 RMS gradient =   0.53E-04 energy =        -16.0955769920
  outer SCF loop converged in   1 iterations or    7 steps


 ENERGY| Total FORCE_EVAL ( QS ) energy [a.u.]:              -16.095577018001396

 STRESS| Analytical stress tensor [GPa]
 STRESS|                        x                   y                   z
 STRESS|      x       -1.12994310831E-01   6.03277599119E-02   9.22689225782E-02
 STRESS|      y        6.03277599119E-02   2.60465060493E-04   2.07244036504E-02
 STRESS|      z        9.22689225782E-02   2.07244036504E-02  -5.65048371818E-02
 STRESS| 1/3 Trace                                            -5.64128943175E-02
 STRESS| Determinant                                           4.84342264395E-04

 STRESS| Eigenvectors and eigenvalues of the analytical stress tensor [GPa]
 STRESS|                        1                   2                   3
 STRESS| Eigenvalues  -1.88714569611E-01  -4.18504375125E-02   6.13263241715E-02
 STRESS|      x           0.817720983889      0.262811163771      0.512115889916
 STRESS|      y          -0.201932247036     -0.702166434835      0.682777903420
 STRESS|      z          -0.539032244040      0.661734531356      0.521106179101

 Number of electrons:                                                         14
 Number of occupied orbitals:                                                  7
 Number of molecular orbitals:                                                 7

 Number of orbital functions:                                                 14
 Number of independent orbital functions:                                     14

 Extrapolation method: ASPC


 SCF WAVEFUNCTION OPTIMIZATION

  ----------------------------------- OT ---------------------------------------
  Minimizer      : CG                  : conjugate gradient
  Preconditioner : FULL_ALL            : diagonalization, state selective
  Precond_solver : DEFAULT
  Line search    : 2PNT                : 2 energies, one gradient
  stepsize       :    0.15000000                  energy_gap     :    0.08000000
  eps_taylor     :   0.10000E-15                  max_taylor     :             4
  ----------------------------------- OT ---------------------------------------

  Step     Update method      Time    Convergence         Total energy    Change
  ------------------------------------------------------------------------------
     1 OT CG       0.15E+00    0.4     0.01298524       -16.0938915909 -1.61E+01
     2 OT LS       0.19E+00    0.4                      -16.0953661112
     3 OT CG       0.19E+00    0.6     0.00461286       -16.0954222721 -1.53E-03
     4 OT LS       0.15E+00    0.4                      -16.0955682797
     5 OT CG       0.15E+00    0.6     0.00045763       -16.0955776671 -1.55E-04
     6 OT LS       0.18E+00    0.3                      -16.0955794747
     7 OT CG       0.18E+00    0.6     0.00007440       -16.0955795389 -1.87E-06

  *** SCF run converged in     7 steps ***


  Electronic density on regular grids:        -13.9999999997        0.0000000003
  Core density on regular grids:               13.9999999987       -0.0000000013
  Total charge density on r-space grids:       -0.0000000010
  Total charge density g-space grids:          -0.0000000010

  Overlap energy of the core charge distribution:               0.00001008154468
  Self energy of the core charge distribution:                -38.70122451907286
  Core Hamiltonian energy:                                     12.53659895409629
  Hartree energy:                                              15.66054587012376
  Exchange-correlation energy:                                 -5.59150992559965

  Total energy:                                               -16.09557953890777

  outer SCF iter =    1 RMS gradient =   0.74E-04 energy =        -16.0955795389
  outer SCF loop converged in   1 iterations or    7 steps


 ENERGY| Total FORCE_EVAL ( QS ) energy [a.u.]:              -16.095579590824350

 STRESS| Analytical stress tensor [GPa]
 STRESS|                        x                   y                   z
 STRESS|      x       -1.13048362394E-01   6.02844277601E-02   9.23245576330E-02
 STRESS|      y        6.02844277601E-02   2.15514747152E-04   2.07025066031E-02
 STRESS|      z        9.23245576330E-02   2.07025066031E-02  -5.66033032409E-02
 STRESS| 1/3 Trace                                            -5.64787169627E-02
 STRESS| Determinant                                           4.84151545255E-04

 STRESS| Eigenvectors and eigenvalues of the analytical stress tensor [GPa]
 STRESS|                        1                   2                   3
 STRESS| Eigenvalues  -1.88820682763E-01  -4.18637339642E-02   6.12482658389E-02
 STRESS|      x           0.817590590506      0.263088336499      0.512181758279
 STRESS|      y          -0.201667830380     -0.702334677467      0.682683006246
 STRESS|      z          -0.539328946475      0.661445786158      0.521165769663

 Number of electrons:                                                         14
 Number of occupied orbitals:                                                  7
 Number of molecular orbitals:                                                 7

 Number of orbital functions:                                                 14
 Number of independent orbital functions:                                     14

 Extrapolation method: ASPC


 SCF WAVEFUNCTION OPTIMIZATION

  ----------------------------------- OT ---------------------------------------
  Minimizer      : CG                  : conjugate gradient
  Preconditioner : FULL_ALL            : diagonalization, state selective
  Precond_solver : DEFAULT
  Line search    : 2PNT                : 2 energies, one gradient
  stepsize       :    0.15000000                  energy_gap     :    0.08000000
  eps_taylor     :   0.10000E-15                  max_taylor     :             4
  ----------------------------------- OT ---------------------------------------

  Step     Update method      Time    Convergence         Total energy    Change
  ------------------------------------------------------------------------------
     1 OT CG       0.15E+00    0.3     0.01258365       -16.0938719401 -1.61E+01
     2 OT LS       0.19E+00    0.3                      -16.0952889157
     3 OT CG       0.19E+00    0.6     0.00447126       -16.0953581368 -1.49E-03
     4 OT LS       0.14E+00    0.3                      -16.0954771712
     5 OT CG       0.14E+00    0.6     0.00040561       -16.0954953955 -1.37E-04
     6 OT LS       0.19E+00    0.3                      -16.0954968066
     7 OT CG       0.19E+00    0.5     0.00007281       -16.0954968974 -1.50E-06

  *** SCF run converged in     7 steps ***


  Electronic density on regular grids:        -13.9999999997        0.0000000003
  Core density on regular grids:               13.9999999987       -0.0000000013
  Total charge density on r-space grids:       -0.0000000011
  Total charge density g-space grids:          -0.0000000011

  Overlap energy of the core charge distribution:               0.00001518694336
  Self energy of the core charge distribution:                -38.70122451907286
  Core Hamiltonian energy:                                     12.52491885751783
  Hartree energy:                                              15.66915210701462
  Exchange-correlation energy:                                 -5.58835852979035

  Total energy:                                               -16.09549689738740

  outer SCF iter =    1 RMS gradient =   0.73E-04 energy =        -16.0954968974
  outer SCF loop converged in   1 iterations or    7 steps


 ENERGY| Total FORCE_EVAL ( QS ) energy [a.u.]:              -16.095496947915450

 STRESS| Analytical stress tensor [GPa]
 STRESS|                        x                   y                   z
 STRESS|      x       -1.70995673137E-01   5.33633334879E-02   7.12718809307E-02
 STRESS|      y        5.33633334879E-02  -1.50707761721E-02   2.65796166902E-03
 STRESS|      z        7.12718809307E-02   2.65796166902E-03   6.29349862937E-03
 STRESS| 1/3 Trace                                            -5.99243168931E-02
 STRESS| Determinant                                           9.62777874910E-05

 STRESS| Eigenvectors and eigenvalues of the analytical stress tensor [GPa]
 STRESS|                        1                   2                   3
 STRESS| Eigenvalues  -2.08827219393E-01  -1.13973337322E-02   4.04516024458E-02
 STRESS|      x           0.920202160932      0.083896468155      0.382347179468
 STRESS|      y          -0.249297003410      0.878663527332      0.407187192613
 STRESS|      z          -0.301792954039     -0.470012540650      0.829463214690

 Number of electrons:                                                         14
 Number of occupied orbitals:                                                  7
 Number of molecular orbitals:                                                 7

 Number of orbital functions:                                                 14
 Number of independent orbital functions:                                     14

 Extrapolation method: ASPC


 SCF WAVEFUNCTION OPTIMIZATION

  ----------------------------------- OT ---------------------------------------
  Minimizer      : CG                  : conjugate gradient
  Preconditioner : FULL_ALL            : diagonalization, state selective
  Precond_solver : DEFAULT
  Line search    : 2PNT                : 2 energies, one gradient
  stepsize       :    0.15000000                  energy_gap     :    0.08000000
  eps_taylor     :   0.10000E-15                  max_taylor     :             4
  ----------------------------------- OT ---------------------------------------

  Step     Update method      Time    Convergence         Total energy    Change
  ------------------------------------------------------------------------------
     1 OT CG       0.15E+00    0.3     0.01238381       -16.0938936473 -1.61E+01
     2 OT LS       0.20E+00    0.3                      -16.0952899867
     3 OT CG       0.20E+00    0.5     0.00423360       -16.0953754927 -1.48E-03
     4 OT LS       0.14E+00    0.3                      -16.0954739541
     5 OT CG       0.14E+00    0.6     0.00041617       -16.0954965983 -1.21E-04
     6 OT LS       0.18E+00    0.3                      -16.0954980261
     7 OT CG       0.18E+00    0.5     0.00007710       -16.0954981008 -1.50E-06

  *** SCF run converged in     7 steps ***


  Electronic density on regular grids:        -13.9999999997        0.0000000003
  Core density on regular grids:               13.9999999987       -0.0000000013
  Total charge density on r-space grids:       -0.0000000010
  Total charge density g-space grids:          -0.0000000010

  Overlap energy of the core charge distribution:               0.00001518694336
  Self energy of the core charge distribution:                -38.70122451907286
  Core Hamiltonian energy:                                     12.52506922441305
  Hartree energy:                                              15.66900996966164
  Exchange-correlation energy:                                 -5.58836796275043

  Total energy:                                               -16.09549810080522

  outer SCF iter =    1 RMS gradient =   0.77E-04 energy =        -16.0954981008
  outer SCF loop converged in   1 iterations or    7 steps


 ENERGY| Total FORCE_EVAL ( QS ) energy [a.u.]:              -16.095498158481178

 STRESS| Analytical stress tensor [GPa]
 STRESS|                        x                   y                   z
 STRESS|      x       -1.71029332343E-01   5.33080401193E-02   7.13353817921E-02
 STRESS|      y        5.33080401193E-02  -1.51253904299E-02   2.64421629746E-03
 STRESS|      z        7.13353817921E-02   2.64421629746E-03   6.15876042102E-03
 STRESS| 1/3 Trace                                            -5.99986541173E-02
 STRESS| Determinant                                           9.67058974586E-05

 STRESS| Eigenvectors and eigenvalues of the analytical stress tensor [GPa]
 STRESS|                        1                   2                   3
 STRESS| Eigenvalues  -2.08883402148E-01  -1.14712751691E-02   4.03587149651E-02
 STRESS|      x           0.920147758374      0.083543831859      0.382555265180
 STRESS|      y          -0.249033597808      0.878788147728      0.407079425390
 STRESS|      z          -0.302176057823     -0.469842334801      0.829420165240

 Number of electrons:                                                         14
 Number of occupied orbitals:                                                  7
 Number of molecular orbitals:                                                 7

 Number of orbital functions:                                                 14
 Number of independent orbital functions:                                     14

 Extrapolation method: ASPC


 SCF WAVEFUNCTION OPTIMIZATION

  ----------------------------------- OT ---------------------------------------
  Minimizer      : CG                  : conjugate gradient
  Preconditioner : FULL_ALL            : diagonalization, state selective
  Precond_solver : DEFAULT
  Line search    : 2PNT                : 2 energies, one gradient
  stepsize       :    0.15000000                  energy_gap     :    0.08000000
  eps_taylor     :   0.10000E-15                  max_taylor     :             4
  ----------------------------------- OT ---------------------------------------

  Step     Update method      Time    Convergence         Total energy    Change
  ------------------------------------------------------------------------------
     1 OT CG       0.15E+00    0.3     0.01140785       -16.0945812237 -1.61E+01
     2 OT LS       0.20E+00    0.3                      -16.0957926644
     3 OT CG       0.20E+00    0.5     0.00364578       -16.0958843797 -1.30E-03
     4 OT LS       0.13E+00    0.3                      -16.0959427307
     5 OT CG       0.13E+00    0.6     0.00042349       -16.0959695255 -8.51E-05
     6 OT LS       0.18E+00    0.3                      -16.0959709933
     7 OT CG       0.18E+00    0.6     0.00006818       -16.0959711135 -1.59E-06

  *** SCF run converged in     7 steps ***


  Electronic density on regular grids:        -13.9999999997        0.0000000003
  Core density on regular grids:               13.9999999987       -0.0000000013
  Total charge density on r-space grids:       -0.0000000011
  Total charge density g-space grids:          -0.0000000011

  Overlap energy of the core charge distribution:               0.00001849362009
  Self energy of the core charge distribution:                -38.70122451907286
  Core Hamiltonian energy:                                     12.51860626675344
  Hartree energy:                                              15.67305835540281
  Exchange-correlation energy:                                 -5.58642971015909

  Total energy:                                               -16.09597111345560

  outer SCF iter =    1 RMS gradient =   0.68E-04 energy =        -16.0959711135
  outer SCF loop converged in   1 iterations or    7 steps


 ENERGY| Total FORCE_EVAL ( QS ) energy [a.u.]:              -16.095971159988828

 STRESS| Analytical stress tensor [GPa]
 STRESS|                        x                   y                   z
 STRESS|      x       -1.79129902886E-01   4.79428572033E-02   2.64584943521E-02
 STRESS|      y        4.79428572033E-02  -3.73806097920E-02  -1.85059109614E-02
 STRESS|      z        2.64584943521E-02  -1.85059109614E-02   2.48940696001E-02
 STRESS| 1/3 Trace                                            -6.38721476928E-02
 STRESS| Determinant                                           1.50036279382E-04

 STRESS| Eigenvectors and eigenvalues of the analytical stress tensor [GPa]
 STRESS|                        1                   2                   3
 STRESS| Eigenvalues  -1.98065683915E-01  -2.44864941446E-02   3.09357349816E-02
 STRESS|      x           0.944816274215      0.319037764810      0.074411777321
 STRESS|      y          -0.297658607927      0.930891890748     -0.211753726923
 STRESS|      z          -0.136826755813      0.177919061272      0.974486144863

 Number of electrons:                                                         14
 Number of occupied orbitals:                                                  7
 Number of molecular orbitals:                                                 7

 Number of orbital functions:                                                 14
 Number of independent orbital functions:                                     14

 Extrapolation method: ASPC


 SCF WAVEFUNCTION OPTIMIZATION

  ----------------------------------- OT ---------------------------------------
  Minimizer      : CG                  : conjugate gradient
  Preconditioner : FULL_ALL            : diagonalization, state selective
  Precond_solver : DEFAULT
  Line search    : 2PNT                : 2 energies, one gradient
  stepsize       :    0.15000000                  energy_gap     :    0.08000000
  eps_taylor     :   0.10000E-15                  max_taylor     :             4
  ----------------------------------- OT ---------------------------------------

  Step     Update method      Time    Convergence         Total energy    Change
  ------------------------------------------------------------------------------
     1 OT CG       0.15E+00    0.3     0.01091078       -16.0946933671 -1.61E+01
     2 OT LS       0.21E+00    0.3                      -16.0958109643
     3 OT CG       0.21E+00    0.5     0.00314447       -16.0959049635 -1.21E-03
     4 OT LS       0.13E+00    0.3                      -16.0959485520
     5 OT CG       0.13E+00    0.5     0.00050073       -16.0959692566 -6.43E-05
     6 OT LS       0.17E+00    0.3                      -16.0959712503
     7 OT CG       0.17E+00    0.6     0.00006943       -16.0959713571 -2.10E-06

  *** SCF run converged in     7 steps ***


  Electronic density on regular grids:        -13.9999999998        0.0000000002
  Core density on regular grids:               13.9999999987       -0.0000000013
  Total charge density on r-space grids:       -0.0000000011
  Total charge density g-space grids:          -0.0000000011

  Overlap energy of the core charge distribution:               0.00001849362009
  Self energy of the core charge distribution:                -38.70122451907286
  Core Hamiltonian energy:                                     12.51872562126038
  Hartree energy:                                              15.67294394185012
  Exchange-correlation energy:                                 -5.58643489476427

  Total energy:                                               -16.09597135710654

  outer SCF iter =    1 RMS gradient =   0.69E-04 energy =        -16.0959713571
  outer SCF loop converged in   1 iterations or    7 steps


 ENERGY| Total FORCE_EVAL ( QS ) energy [a.u.]:              -16.095971404501750

 STRESS| Analytical stress tensor [GPa]
 STRESS|                        x                   y                   z
 STRESS|      x       -1.79123292953E-01   4.79105341536E-02   2.65200187207E-02
 STRESS|      y        4.79105341536E-02  -3.74331359459E-02  -1.85329737666E-02
 STRESS|      z        2.65200187207E-02  -1.85329737666E-02   2.47727969097E-02
 STRESS| 1/3 Trace                                            -6.39278773298E-02
 STRESS| Determinant                                           1.49996549214E-04

 STRESS| Eigenvectors and eigenvalues of the analytical stress tensor [GPa]
 STRESS|                        1                   2                   3
 STRESS| Eigenvalues  -1.98066669503E-01  -2.45563597600E-02   3.08393972735E-02
 STRESS|      x           0.944776750566      0.319093241161      0.074675263879
 STRESS|      y          -0.297617106903      0.930826259609     -0.212100287838
 STRESS|      z          -0.137189464859      0.178162784745      0.974390616162

 Number of electrons:                                                         14
 Number of occupied orbitals:                                                  7
 Number of molecular orbitals:                                                 7

 Number of orbital functions:                                                 14
 Number of independent orbital functions:                                     14

 Extrapolation method: ASPC


 SCF WAVEFUNCTION OPTIMIZATION

  ----------------------------------- OT ---------------------------------------
  Minimizer      : CG                  : conjugate gradient
  Preconditioner : FULL_ALL            : diagonalization, state selective
  Precond_solver : DEFAULT
  Line search    : 2PNT                : 2 energies, one gradient
  stepsize       :    0.15000000                  energy_gap     :    0.08000000
  eps_taylor     :   0.10000E-15                  max_taylor     :             4
  ----------------------------------- OT ---------------------------------------

  Step     Update method      Time    Convergence         Total energy    Change
  ------------------------------------------------------------------------------
     1 OT CG       0.15E+00    0.3     0.01048481       -16.0972600608 -1.61E+01
     2 OT LS       0.22E+00    0.4                      -16.0983354081
     3 OT CG       0.22E+00    0.6     0.00148110       -16.0984665665 -1.21E-03
     4 OT LS       0.17E+00    0.3                      -16.0984832459
     5 OT CG       0.17E+00    0.6     0.00029633       -16.0984849682 -1.84E-05
     6 OT LS       0.13E+00    0.3                      -16.0984854983
     7 OT CG       0.13E+00    0.6     0.00006147       -16.0984855442 -5.76E-07

  *** SCF run converged in     7 steps ***


  Electronic density on regular grids:        -13.9999999998        0.0000000002
  Core density on regular grids:               13.9999999987       -0.0000000013
  Total charge density on r-space grids:       -0.0000000011
  Total charge density g-space grids:          -0.0000000011

  Overlap energy of the core charge distribution:               0.00002042239326
  Self energy of the core charge distribution:                -38.70122451907286
  Core Hamiltonian energy:                                     12.53835073865902
  Hartree energy:                                              15.65787411810722
  Exchange-correlation energy:                                 -5.59350630429179

  Total energy:                                               -16.09848554420516

  outer SCF iter =    1 RMS gradient =   0.61E-04 energy =        -16.0984855442
  outer SCF loop converged in   1 iterations or    7 steps


 ENERGY| Total FORCE_EVAL ( QS ) energy [a.u.]:              -16.098485577451761

 STRESS| Analytical stress tensor [GPa]
 STRESS|                        x                   y                   z
 STRESS|      x       -1.23850644936E-01   4.63848205011E-02  -1.74708837809E-02
 STRESS|      y        4.63848205011E-02  -4.30634182834E-02  -2.99385358142E-02
 STRESS|      z       -1.74708837809E-02  -2.99385358142E-02   6.85510484781E-02
 STRESS| 1/3 Trace                                            -3.27876715803E-02
 STRESS| Determinant                                           3.90798286885E-04

 STRESS| Eigenvectors and eigenvalues of the analytical stress tensor [GPa]
 STRESS|                        1                   2                   3
 STRESS| Eigenvalues  -1.45024715682E-01  -3.35816249898E-02   8.02433259309E-02
 STRESS|      x           0.911990681003      0.383407968589     -0.145846931354
 STRESS|      y          -0.409852244074      0.866521135389     -0.284889908477
 STRESS|      z           0.017150387469      0.319592633749      0.947399816689

 Number of electrons:                                                         14
 Number of occupied orbitals:                                                  7
 Number of molecular orbitals:                                                 7

 Number of orbital functions:                                                 14
 Number of independent orbital functions:                                     14

 Extrapolation method: ASPC


 SCF WAVEFUNCTION OPTIMIZATION

  ----------------------------------- OT ---------------------------------------
  Minimizer      : CG                  : conjugate gradient
  Preconditioner : FULL_ALL            : diagonalization, state selective
  Precond_solver : DEFAULT
  Line search    : 2PNT                : 2 energies, one gradient
  stepsize       :    0.15000000                  energy_gap     :    0.08000000
  eps_taylor     :   0.10000E-15                  max_taylor     :             4
  ----------------------------------- OT ---------------------------------------

  Step     Update method      Time    Convergence         Total energy    Change
  ------------------------------------------------------------------------------
     1 OT CG       0.15E+00    0.3     0.01158252       -16.0970166821 -1.61E+01
     2 OT LS       0.22E+00    0.3                      -16.0983096569
     3 OT CG       0.22E+00    0.5     0.00225502       -16.0984493139 -1.43E-03
     4 OT LS       0.14E+00    0.3                      -16.0984763622
     5 OT CG       0.14E+00    0.5     0.00054557       -16.0984854941 -3.62E-05
     6 OT LS       0.15E+00    0.3                      -16.0984877279
     7 OT CG       0.15E+00    0.5     0.00007153       -16.0984877350 -2.24E-06

  *** SCF run converged in     7 steps ***


  Electronic density on regular grids:        -13.9999999998        0.0000000002
  Core density on regular grids:               13.9999999987       -0.0000000013
  Total charge density on r-space grids:       -0.0000000011
  Total charge density g-space grids:          -0.0000000011

  Overlap energy of the core charge distribution:               0.00002042239326
  Self energy of the core charge distribution:                -38.70122451907286
  Core Hamiltonian energy:                                     12.53842464604202
  Hartree energy:                                              15.65779883947189
  Exchange-correlation energy:                                 -5.59350712386452

  Total energy:                                               -16.09848773503021

  outer SCF iter =    1 RMS gradient =   0.72E-04 energy =        -16.0984877350
  outer SCF loop converged in   1 iterations or    7 steps


 ENERGY| Total FORCE_EVAL ( QS ) energy [a.u.]:              -16.098487783923481

 STRESS| Analytical stress tensor [GPa]
 STRESS|                        x                   y                   z
 STRESS|      x       -1.23817864104E-01   4.63925373857E-02  -1.73999465155E-02
 STRESS|      y        4.63925373857E-02  -4.31358466684E-02  -2.99921556145E-02
 STRESS|      z       -1.73999465155E-02  -2.99921556145E-02   6.85243071712E-02
 STRESS| 1/3 Trace                                            -3.28098012003E-02
 STRESS| Determinant                                           3.91363421973E-04

 STRESS| Eigenvectors and eigenvalues of the analytical stress tensor [GPa]
 STRESS|                        1                   2                   3
 STRESS| Eigenvalues  -1.45012484565E-01  -3.36410650309E-02   8.02241459950E-02
 STRESS|      x           0.911795552753      0.383961912498     -0.145609476788
 STRESS|      y          -0.410306041586      0.866239663731     -0.285092611649
 STRESS|      z           0.016667999801      0.319690623463      0.947375365445

 Number of electrons:                                                         14
 Number of occupied orbitals:                                                  7
 Number of molecular orbitals:                                                 7

 Number of orbital functions:                                                 14
 Number of independent orbital functions:                                     14

 Extrapolation method: ASPC


 SCF WAVEFUNCTION OPTIMIZATION

  ----------------------------------- OT ---------------------------------------
  Minimizer      : CG                  : conjugate gradient
  Preconditioner : FULL_ALL            : diagonalization, state selective
  Precond_solver : DEFAULT
  Line search    : 2PNT                : 2 energies, one gradient
  stepsize       :    0.15000000                  energy_gap     :    0.08000000
  eps_taylor     :   0.10000E-15                  max_taylor     :             4
  ----------------------------------- OT ---------------------------------------

  Step     Update method      Time    Convergence         Total energy    Change
  ------------------------------------------------------------------------------
     1 OT CG       0.15E+00    0.3     0.01389988       -16.0997961628 -1.61E+01
     2 OT LS       0.21E+00    0.3                      -16.1015994948
     3 OT CG       0.21E+00    0.5     0.00410143       -16.1017419515 -1.95E-03
     4 OT LS       0.14E+00    0.3                      -16.1018277881
     5 OT CG       0.14E+00    0.5     0.00059353       -16.1018554789 -1.14E-04
     6 OT LS       0.18E+00    0.3                      -16.1018584456
     7 OT CG       0.18E+00    0.5     0.00007777       -16.1018586427 -3.16E-06

  *** SCF run converged in     7 steps ***


  Electronic density on regular grids:        -13.9999999998        0.0000000002
  Core density on regular grids:               13.9999999987       -0.0000000013
  Total charge density on r-space grids:       -0.0000000011
  Total charge density g-space grids:          -0.0000000011

  Overlap energy of the core charge distribution:               0.00002049710730
  Self energy of the core charge distribution:                -38.70122451907286
  Core Hamiltonian energy:                                     12.57964740221237
  Hartree energy:                                              15.62703025317987
  Exchange-correlation energy:                                 -5.60733227608681

  Total energy:                                               -16.10185864266013

  outer SCF iter =    1 RMS gradient =   0.78E-04 energy =        -16.1018586427
  outer SCF loop converged in   1 iterations or    7 steps


 ENERGY| Total FORCE_EVAL ( QS ) energy [a.u.]:              -16.101858703443106

 STRESS| Analytical stress tensor [GPa]
 STRESS|                        x                   y                   z
 STRESS|      x       -2.99709181222E-02   4.82658349433E-02  -4.09334183271E-02
 STRESS|      y        4.82658349433E-02  -3.03812331578E-02  -1.79037010640E-02
 STRESS|      z       -4.09334183271E-02  -1.79037010640E-02   1.31764018023E-01
 STRESS| 1/3 Trace                                             2.38039555811E-02
 STRESS| Determinant                                          -5.57218278992E-05

 STRESS| Eigenvectors and eigenvalues of the analytical stress tensor [GPa]
 STRESS|                        1                   2                   3
 STRESS| Eigenvalues  -7.97955293360E-02   4.76859716663E-03   1.46438798913E-01
 STRESS|      x          -0.727793053793      0.631948744316     -0.266379532638
 STRESS|      y           0.680730257971      0.712820464203     -0.168799590333
 STRESS|      z          -0.083208092957      0.304183777298      0.948972414191

 Number of electrons:                                                         14
 Number of occupied orbitals:                                                  7
 Number of molecular orbitals:                                                 7

 Number of orbital functions:                                                 14
 Number of independent orbital functions:                                     14

 Extrapolation method: ASPC


 SCF WAVEFUNCTION OPTIMIZATION

  ----------------------------------- OT ---------------------------------------
  Minimizer      : CG                  : conjugate gradient
  Preconditioner : FULL_ALL            : diagonalization, state selective
  Precond_solver : DEFAULT
  Line search    : 2PNT                : 2 energies, one gradient
  stepsize       :    0.15000000                  energy_gap     :    0.08000000
  eps_taylor     :   0.10000E-15                  max_taylor     :             4
  ----------------------------------- OT ---------------------------------------

  Step     Update method      Time    Convergence         Total energy    Change
  ------------------------------------------------------------------------------
     1 OT CG       0.15E+00    0.3     0.01616139       -16.0991237008 -1.61E+01
     2 OT LS       0.20E+00    0.3                      -16.1015181407
     3 OT CG       0.20E+00    0.6     0.00510315       -16.1016718430 -2.55E-03
     4 OT LS       0.14E+00    0.3                      -16.1018215584
     5 OT CG       0.14E+00    0.5     0.00064740       -16.1018516743 -1.80E-04
     6 OT LS       0.19E+00    0.3                      -16.1018553576
     7 OT CG       0.19E+00    0.6     0.00008714       -16.1018556440 -3.97E-06

  *** SCF run converged in     7 steps ***


  Electronic density on regular grids:        -13.9999999998        0.0000000002
  Core density on regular grids:               13.9999999987       -0.0000000013
  Total charge density on r-space grids:       -0.0000000011
  Total charge density g-space grids:          -0.0000000011

  Overlap energy of the core charge distribution:               0.00002049710730
  Self energy of the core charge distribution:                -38.70122451907286
  Core Hamiltonian energy:                                     12.57951970978717
  Hartree energy:                                              15.62712632017438
  Exchange-correlation energy:                                 -5.60729765198352

  Total energy:                                               -16.10185564398752

  outer SCF iter =    1 RMS gradient =   0.87E-04 energy =        -16.1018556440
  outer SCF loop converged in   1 iterations or    7 steps


 ENERGY| Total FORCE_EVAL ( QS ) energy [a.u.]:              -16.101855716964700

 STRESS| Analytical stress tensor [GPa]
 STRESS|                        x                   y                   z
 STRESS|      x       -2.98985902995E-02   4.82929669279E-02  -4.08925819550E-02
 STRESS|      y        4.82929669279E-02  -3.04425074285E-02  -1.79020979522E-02
 STRESS|      z       -4.08925819550E-02  -1.79020979522E-02   1.31838917346E-01
 STRESS| 1/3 Trace                                             2.38326065395E-02
 STRESS| Determinant                                          -5.62828172801E-05

 STRESS| Eigenvectors and eigenvalues of the analytical stress tensor [GPa]
 STRESS|                        1                   2                   3
 STRESS| Eigenvalues  -7.98072868253E-02   4.81418265695E-03   1.46490923787E-01
 STRESS|      x          -0.727223287135      0.632679642062     -0.266200603249
 STRESS|      y           0.681379654691      0.712227593597     -0.168682011761
 STRESS|      z          -0.082873740243      0.304053162194      0.949043527842

 Number of electrons:                                                         14
 Number of occupied orbitals:                                                  7
 Number of molecular orbitals:                                                 7

 Number of orbital functions:                                                 14
 Number of independent orbital functions:                                     14

 Extrapolation method: ASPC


 SCF WAVEFUNCTION OPTIMIZATION

  ----------------------------------- OT ---------------------------------------
  Minimizer      : CG                  : conjugate gradient
  Preconditioner : FULL_ALL            : diagonalization, state selective
  Precond_solver : DEFAULT
  Line search    : 2PNT                : 2 energies, one gradient
  stepsize       :    0.15000000                  energy_gap     :    0.08000000
  eps_taylor     :   0.10000E-15                  max_taylor     :             4
  ----------------------------------- OT ---------------------------------------

  Step     Update method      Time    Convergence         Total energy    Change
  ------------------------------------------------------------------------------
     1 OT CG       0.15E+00    0.3     0.01716567       -16.0997906923 -1.61E+01
     2 OT LS       0.20E+00    0.3                      -16.1024893574
     3 OT CG       0.20E+00    0.6     0.00555811       -16.1026658495 -2.88E-03
     4 OT LS       0.14E+00    0.3                      -16.1028506669
     5 OT CG       0.14E+00    0.6     0.00060958       -16.1028835160 -2.18E-04
     6 OT LS       0.20E+00    0.3                      -16.1028868828
     7 OT CG       0.20E+00    0.5     0.00007658       -16.1028871923 -3.68E-06

  *** SCF run converged in     7 steps ***


  Electronic density on regular grids:        -13.9999999998        0.0000000002
  Core density on regular grids:               13.9999999987       -0.0000000013
  Total charge density on r-space grids:       -0.0000000011
  Total charge density g-space grids:          -0.0000000011

  Overlap energy of the core charge distribution:               0.00002019655607
  Self energy of the core charge distribution:                -38.70122451907286
  Core Hamiltonian energy:                                     12.61479241781400
  Hartree energy:                                              15.60084861879270
  Exchange-correlation energy:                                 -5.61732390634888

  Total energy:                                               -16.10288719225897

  outer SCF iter =    1 RMS gradient =   0.77E-04 energy =        -16.1028871923
  outer SCF loop converged in   1 iterations or    7 steps


 ENERGY| Total FORCE_EVAL ( QS ) energy [a.u.]:              -16.102887246729651

 STRESS| Analytical stress tensor [GPa]
 STRESS|                        x                   y                   z
 STRESS|      x        5.39851400224E-02   2.33207082933E-02  -4.73449094470E-02
 STRESS|      y        2.33207082933E-02  -5.74540097213E-02   2.41911906504E-02
 STRESS|      z       -4.73449094470E-02   2.41911906504E-02   1.89638535463E-01
 STRESS| 1/3 Trace                                             6.20565552548E-02
 STRESS| Determinant                                          -6.47557889573E-04

 STRESS| Eigenvectors and eigenvalues of the analytical stress tensor [GPa]
 STRESS|                        1                   2                   3
 STRESS| Eigenvalues  -6.66402640189E-02   4.72784939613E-02   2.05531435822E-01
 STRESS|      x          -0.238862687060      0.927088928212     -0.288878410264
 STRESS|      y           0.961637419360      0.267164640575      0.062261774096
 STRESS|      z          -0.134900298063      0.262924274294      0.955339068378

 Number of electrons:                                                         14
 Number of occupied orbitals:                                                  7
 Number of molecular orbitals:                                                 7

 Number of orbital functions:                                                 14
 Number of independent orbital functions:                                     14

 Extrapolation method: ASPC


 SCF WAVEFUNCTION OPTIMIZATION

  ----------------------------------- OT ---------------------------------------
  Minimizer      : CG                  : conjugate gradient
  Preconditioner : FULL_ALL            : diagonalization, state selective
  Precond_solver : DEFAULT
  Line search    : 2PNT                : 2 energies, one gradient
  stepsize       :    0.15000000                  energy_gap     :    0.08000000
  eps_taylor     :   0.10000E-15                  max_taylor     :             4
  ----------------------------------- OT ---------------------------------------

  Step     Update method      Time    Convergence         Total energy    Change
  ------------------------------------------------------------------------------
     1 OT CG       0.15E+00    0.3     0.01737858       -16.0996707134 -1.61E+01
     2 OT LS       0.20E+00    0.3                      -16.1024835986
     3 OT CG       0.20E+00    0.5     0.00514312       -16.1026970614 -3.03E-03
     4 OT LS       0.14E+00    0.4                      -16.1028442220
     5 OT CG       0.14E+00    0.6     0.00065476       -16.1028802421 -1.83E-04
     6 OT LS       0.21E+00    0.4                      -16.1028841468
     7 OT CG       0.21E+00    0.6     0.00006266       -16.1028845653 -4.32E-06

  *** SCF run converged in     7 steps ***


  Electronic density on regular grids:        -13.9999999998        0.0000000002
  Core density on regular grids:               13.9999999987       -0.0000000013
  Total charge density on r-space grids:       -0.0000000011
  Total charge density g-space grids:          -0.0000000011

  Overlap energy of the core charge distribution:               0.00002019655607
  Self energy of the core charge distribution:                -38.70122451907286
  Core Hamiltonian energy:                                     12.61472310173161
  Hartree energy:                                              15.60090657677175
  Exchange-correlation energy:                                 -5.61730992133162

  Total energy:                                               -16.10288456534504

  outer SCF iter =    1 RMS gradient =   0.63E-04 energy =        -16.1028845653
  outer SCF loop converged in   1 iterations or    7 steps


 ENERGY| Total FORCE_EVAL ( QS ) energy [a.u.]:              -16.102884600666677

 STRESS| Analytical stress tensor [GPa]
 STRESS|                        x                   y                   z
 STRESS|      x        5.40216208788E-02   2.33045086201E-02  -4.73218193257E-02
 STRESS|      y        2.33045086201E-02  -5.75122953273E-02   2.42789366740E-02
 STRESS|      z       -4.73218193257E-02   2.42789366740E-02   1.89732240783E-01
 STRESS| 1/3 Trace                                             6.20805221114E-02
 STRESS| Determinant                                          -6.49127829760E-04

 STRESS| Eigenvectors and eigenvalues of the analytical stress tensor [GPa]
 STRESS|                        1                   2                   3
 STRESS| Eigenvalues  -6.67042344355E-02   4.73277115918E-02   2.05618089178E-01
 STRESS|      x          -0.238587201342      0.927242993026     -0.288611467615
 STRESS|      y           0.961680839244      0.266930868472      0.062592930013
 STRESS|      z          -0.135078165469      0.262618246396      0.955398108577

 Number of electrons:                                                         14
 Number of occupied orbitals:                                                  7
 Number of molecular orbitals:                                                 7

 Number of orbital functions:                                                 14
 Number of independent orbital functions:                                     14

 Extrapolation method: ASPC


 SCF WAVEFUNCTION OPTIMIZATION

  ----------------------------------- OT ---------------------------------------
  Minimizer      : CG                  : conjugate gradient
  Preconditioner : FULL_ALL            : diagonalization, state selective
  Precond_solver : DEFAULT
  Line search    : 2PNT                : 2 energies, one gradient
  stepsize       :    0.15000000                  energy_gap     :    0.08000000
  eps_taylor     :   0.10000E-15                  max_taylor     :             4
  ----------------------------------- OT ---------------------------------------

  Step     Update method      Time    Convergence         Total energy    Change
  ------------------------------------------------------------------------------
     1 OT CG       0.15E+00    0.3     0.01720019       -16.1000466777 -1.61E+01
     2 OT LS       0.20E+00    0.3                      -16.1027905967
     3 OT CG       0.20E+00    0.5     0.00520971       -16.1029946625 -2.95E-03
     4 OT LS       0.14E+00    0.3                      -16.1031527563
     5 OT CG       0.14E+00    0.6     0.00061421       -16.1031859654 -1.91E-04
     6 OT LS       0.21E+00    0.3                      -16.1031894576
     7 OT CG       0.21E+00    0.6     0.00005215       -16.1031898468 -3.88E-06

  *** SCF run converged in     7 steps ***


  Electronic density on regular grids:        -13.9999999998        0.0000000002
  Core density on regular grids:               13.9999999987       -0.0000000013
  Total charge density on r-space grids:       -0.0000000011
  Total charge density g-space grids:          -0.0000000011

  Overlap energy of the core charge distribution:               0.00001838182049
  Self energy of the core charge distribution:                -38.70122451907286
  Core Hamiltonian energy:                                     12.64562368947774
  Hartree energy:                                              15.57738676677305
  Exchange-correlation energy:                                 -5.62499416577047

  Total energy:                                               -16.10318984677205

  outer SCF iter =    1 RMS gradient =   0.52E-04 energy =        -16.1031898468
  outer SCF loop converged in   1 iterations or    7 steps


 ENERGY| Total FORCE_EVAL ( QS ) energy [a.u.]:              -16.103189870963618

 STRESS| Analytical stress tensor [GPa]
 STRESS|                        x                   y                   z
 STRESS|      x        1.01199828267E-01   1.36719141884E-02  -4.94972253489E-02
 STRESS|      y        1.36719141884E-02  -5.43768568014E-02   3.96681197861E-02
 STRESS|      z       -4.94972253489E-02   3.96681197861E-02   2.17463668572E-01
 STRESS| 1/3 Trace                                             8.80955466791E-02
 STRESS| Determinant                                          -1.31704619420E-03

 STRESS| Eigenvectors and eigenvalues of the analytical stress tensor [GPa]
 STRESS|                        1                   2                   3
 STRESS| Eigenvalues  -6.27476866836E-02   8.76995865761E-02   2.39334740145E-01
 STRESS|      x          -0.130336343358      0.936550517124     -0.325400624578
 STRESS|      y           0.978227151625      0.174934586911      0.111667050318
 STRESS|      z          -0.161505657562      0.303761451105      0.938959479103

 Number of electrons:                                                         14
 Number of occupied orbitals:                                                  7
 Number of molecular orbitals:                                                 7

 Number of orbital functions:                                                 14
 Number of independent orbital functions:                                     14

 Extrapolation method: ASPC


 SCF WAVEFUNCTION OPTIMIZATION

  ----------------------------------- OT ---------------------------------------
  Minimizer      : CG                  : conjugate gradient
  Preconditioner : FULL_ALL            : diagonalization, state selective
  Precond_solver : DEFAULT
  Line search    : 2PNT                : 2 energies, one gradient
  stepsize       :    0.15000000                  energy_gap     :    0.08000000
  eps_taylor     :   0.10000E-15                  max_taylor     :             4
  ----------------------------------- OT ---------------------------------------

  Step     Update method      Time    Convergence         Total energy    Change
  ------------------------------------------------------------------------------
     1 OT CG       0.15E+00    0.4     0.01704704       -16.1001255410 -1.61E+01
     2 OT LS       0.20E+00    0.4                      -16.1028286302
     3 OT CG       0.20E+00    0.6     0.00470768       -16.1030315824 -2.91E-03
     4 OT LS       0.15E+00    0.3                      -16.1031626285
     5 OT CG       0.15E+00    0.5     0.00067821       -16.1031887170 -1.57E-04
     6 OT LS       0.21E+00    0.3                      -16.1031929616
     7 OT CG       0.21E+00    0.6     0.00005660       -16.1031933757 -4.66E-06

  *** SCF run converged in     7 steps ***


  Electronic density on regular grids:        -13.9999999998        0.0000000002
  Core density on regular grids:               13.9999999987       -0.0000000013
  Total charge density on r-space grids:       -0.0000000011
  Total charge density g-space grids:          -0.0000000011

  Overlap energy of the core charge distribution:               0.00001838182049
  Self energy of the core charge distribution:                -38.70122451907286
  Core Hamiltonian energy:                                     12.64558098636296
  Hartree energy:                                              15.57743004343585
  Exchange-correlation energy:                                 -5.62499826823586

  Total energy:                                               -16.10319337568943

  outer SCF iter =    1 RMS gradient =   0.57E-04 energy =        -16.1031933757
  outer SCF loop converged in   1 iterations or    7 steps


 ENERGY| Total FORCE_EVAL ( QS ) energy [a.u.]:              -16.103193403185905

 STRESS| Analytical stress tensor [GPa]
 STRESS|                        x                   y                   z
 STRESS|      x        1.01186475879E-01   1.36903567078E-02  -4.95068761060E-02
 STRESS|      y        1.36903567078E-02  -5.43122113636E-02   3.97411305690E-02
 STRESS|      z       -4.95068761060E-02   3.97411305690E-02   2.17542321595E-01
 STRESS| 1/3 Trace                                             8.81388620367E-02
 STRESS| Determinant                                          -1.31687655051E-03

 STRESS| Eigenvectors and eigenvalues of the analytical stress tensor [GPa]
 STRESS|                        1                   2                   3
 STRESS| Eigenvalues  -6.27122042873E-02   8.77054280828E-02   2.39423362315E-01
 STRESS|      x          -0.130568525912      0.936586268273     -0.325204585027
 STRESS|      y           0.978152419637      0.175212542130      0.111885696311
 STRESS|      z          -0.161770528837      0.303490901284      0.939001367857

 Number of electrons:                                                         14
 Number of occupied orbitals:                                                  7
 Number of molecular orbitals:                                                 7

 Number of orbital functions:                                                 14
 Number of independent orbital functions:                                     14

 Extrapolation method: ASPC


 SCF WAVEFUNCTION OPTIMIZATION

  ----------------------------------- OT ---------------------------------------
  Minimizer      : CG                  : conjugate gradient
  Preconditioner : FULL_ALL            : diagonalization, state selective
  Precond_solver : DEFAULT
  Line search    : 2PNT                : 2 energies, one gradient
  stepsize       :    0.15000000                  energy_gap     :    0.08000000
  eps_taylor     :   0.10000E-15                  max_taylor     :             4
  ----------------------------------- OT ---------------------------------------

  Step     Update method      Time    Convergence         Total energy    Change
  ------------------------------------------------------------------------------
     1 OT CG       0.15E+00    0.3     0.01582178       -16.1012785463 -1.61E+01
     2 OT LS       0.20E+00    0.3                      -16.1036059614
     3 OT CG       0.20E+00    0.6     0.00435601       -16.1037832422 -2.50E-03
     4 OT LS       0.14E+00    0.3                      -16.1038950189
     5 OT CG       0.14E+00    0.5     0.00063121       -16.1039179122 -1.35E-04
     6 OT LS       0.20E+00    0.3                      -16.1039215602
     7 OT CG       0.20E+00    0.5     0.00006685       -16.1039219025 -3.99E-06

  *** SCF run converged in     7 steps ***


  Electronic density on regular grids:        -13.9999999998        0.0000000002
  Core density on regular grids:               13.9999999987       -0.0000000013
  Total charge density on r-space grids:       -0.0000000011
  Total charge density g-space grids:          -0.0000000011

  Overlap energy of the core charge distribution:               0.00001581719657
  Self energy of the core charge distribution:                -38.70122451907286
  Core Hamiltonian energy:                                     12.65721558596851
  Hartree energy:                                              15.56594623952351
  Exchange-correlation energy:                                 -5.62587502614400

  Total energy:                                               -16.10392190252827

  outer SCF iter =    1 RMS gradient =   0.67E-04 energy =        -16.1039219025
  outer SCF loop converged in   1 iterations or    7 steps


 ENERGY| Total FORCE_EVAL ( QS ) energy [a.u.]:              -16.103921940649677

 STRESS| Analytical stress tensor [GPa]
 STRESS|                        x                   y                   z
 STRESS|      x        5.73606859948E-02  -8.07511289374E-03  -6.45387029879E-02
 STRESS|      y       -8.07511289374E-03  -4.75302578689E-02   4.95975297913E-02
 STRESS|      z       -6.45387029879E-02   4.95975297913E-02   2.18032267579E-01
 STRESS| 1/3 Trace                                             7.59542319016E-02
 STRESS| Determinant                                          -5.00084616896E-04

 STRESS| Eigenvectors and eigenvalues of the analytical stress tensor [GPa]
 STRESS|                        1                   2                   3
 STRESS| Eigenvalues  -5.66165204888E-02   3.54722582488E-02   2.49006957945E-01
 STRESS|      x          -0.035573467034      0.946405585614     -0.321015569658
 STRESS|      y           0.981964676307      0.092785778089      0.164730609995
 STRESS|      z          -0.185687648830      0.309365911024      0.932637566351

 Number of electrons:                                                         14
 Number of occupied orbitals:                                                  7
 Number of molecular orbitals:                                                 7

 Number of orbital functions:                                                 14
 Number of independent orbital functions:                                     14

 Extrapolation method: ASPC


 SCF WAVEFUNCTION OPTIMIZATION

  ----------------------------------- OT ---------------------------------------
  Minimizer      : CG                  : conjugate gradient
  Preconditioner : FULL_ALL            : diagonalization, state selective
  Precond_solver : DEFAULT
  Line search    : 2PNT                : 2 energies, one gradient
  stepsize       :    0.15000000                  energy_gap     :    0.08000000
  eps_taylor     :   0.10000E-15                  max_taylor     :             4
  ----------------------------------- OT ---------------------------------------

  Step     Update method      Time    Convergence         Total energy    Change
  ------------------------------------------------------------------------------
     1 OT CG       0.15E+00    0.3     0.01471589       -16.1016313048 -1.61E+01
     2 OT LS       0.21E+00    0.3                      -16.1036694486
     3 OT CG       0.21E+00    0.5     0.00333709       -16.1038421224 -2.21E-03
     4 OT LS       0.15E+00    0.3                      -16.1039074404
     5 OT CG       0.15E+00    0.6     0.00062764       -16.1039218039 -7.97E-05
     6 OT LS       0.20E+00    0.3                      -16.1039253593
     7 OT CG       0.20E+00    0.6     0.00006543       -16.1039256146 -3.81E-06

  *** SCF run converged in     7 steps ***


  Electronic density on regular grids:        -13.9999999998        0.0000000002
  Core density on regular grids:               13.9999999987       -0.0000000013
  Total charge density on r-space grids:       -0.0000000011
  Total charge density g-space grids:          -0.0000000011

  Overlap energy of the core charge distribution:               0.00001581719657
  Self energy of the core charge distribution:                -38.70122451907286
  Core Hamiltonian energy:                                     12.65710245669485
  Hartree energy:                                              15.56605070226851
  Exchange-correlation energy:                                 -5.62587007163926

  Total energy:                                               -16.10392561455220

  outer SCF iter =    1 RMS gradient =   0.65E-04 energy =        -16.1039256146
  outer SCF loop converged in   1 iterations or    7 steps


 ENERGY| Total FORCE_EVAL ( QS ) energy [a.u.]:              -16.103925651215960

 STRESS| Analytical stress tensor [GPa]
 STRESS|                        x                   y                   z
 STRESS|      x        5.74123108351E-02  -8.04572480987E-03  -6.45648500629E-02
 STRESS|      y       -8.04572480987E-03  -4.74787002203E-02   4.96156935249E-02
 STRESS|      z       -6.45648500629E-02   4.96156935249E-02   2.18101147794E-01
 STRESS| 1/3 Trace                                             7.60115861364E-02
 STRESS| Determinant                                          -5.00496481468E-04

 STRESS| Eigenvectors and eigenvalues of the analytical stress tensor [GPa]
 STRESS|                        1                   2                   3
 STRESS| Eigenvalues  -5.65734023137E-02   3.55164409889E-02   2.49091719734E-01
 STRESS|      x          -0.035943463553      0.946377509180     -0.321057125051
 STRESS|      y           0.981926427491      0.093180066638      0.164736050020
 STRESS|      z          -0.185818616997      0.309333291612      0.932622300976

 Number of electrons:                                                         14
 Number of occupied orbitals:                                                  7
 Number of molecular orbitals:                                                 7

 Number of orbital functions:                                                 14
 Number of independent orbital functions:                                     14

 Extrapolation method: ASPC


 SCF WAVEFUNCTION OPTIMIZATION

  ----------------------------------- OT ---------------------------------------
  Minimizer      : CG                  : conjugate gradient
  Preconditioner : FULL_ALL            : diagonalization, state selective
  Precond_solver : DEFAULT
  Line search    : 2PNT                : 2 energies, one gradient
  stepsize       :    0.15000000                  energy_gap     :    0.08000000
  eps_taylor     :   0.10000E-15                  max_taylor     :             4
  ----------------------------------- OT ---------------------------------------

  Step     Update method      Time    Convergence         Total energy    Change
  ------------------------------------------------------------------------------
     1 OT CG       0.15E+00    0.3     0.01332973       -16.1024420147 -1.61E+01
     2 OT LS       0.21E+00    0.4                      -16.1041270096
     3 OT CG       0.21E+00    0.6     0.00270293       -16.1042833083 -1.84E-03
     4 OT LS       0.15E+00    0.4                      -16.1043261144
     5 OT CG       0.15E+00    0.6     0.00057434       -16.1043361266 -5.28E-05
     6 OT LS       0.19E+00    0.3                      -16.1043390260
     7 OT CG       0.19E+00    0.6     0.00006878       -16.1043391710 -3.04E-06

  *** SCF run converged in     7 steps ***


  Electronic density on regular grids:        -13.9999999998        0.0000000002
  Core density on regular grids:               13.9999999987       -0.0000000013
  Total charge density on r-space grids:       -0.0000000011
  Total charge density g-space grids:          -0.0000000011

  Overlap energy of the core charge distribution:               0.00001239696836
  Self energy of the core charge distribution:                -38.70122451907286
  Core Hamiltonian energy:                                     12.64790937261539
  Hartree energy:                                              15.56832189392973
  Exchange-correlation energy:                                 -5.61935831546452

  Total energy:                                               -16.10433917102390

  outer SCF iter =    1 RMS gradient =   0.69E-04 energy =        -16.1043391710
  outer SCF loop converged in   1 iterations or    7 steps


 ENERGY| Total FORCE_EVAL ( QS ) energy [a.u.]:              -16.104339212319072

 STRESS| Analytical stress tensor [GPa]
 STRESS|                        x                   y                   z
 STRESS|      x       -2.87075487024E-02  -4.09291256935E-02  -6.54468109753E-02
 STRESS|      y       -4.09291256935E-02  -5.23414766879E-02   6.75495764311E-02
 STRESS|      z       -6.54468109753E-02   6.75495764311E-02   1.50697244852E-01
 STRESS| 1/3 Trace                                             2.32160731537E-02
 STRESS| Determinant                                           6.91061920898E-04

 STRESS| Eigenvectors and eigenvalues of the analytical stress tensor [GPa]
 STRESS|                        1                   2                   3
 STRESS| Eigenvalues  -8.47032392125E-02  -4.16296479732E-02   1.95981106647E-01
 STRESS|      x           0.502681672951      0.804438150186     -0.316528668852
 STRESS|      y           0.857896067405     -0.419139328562      0.297214671213
 STRESS|      z          -0.106421206585      0.420953068380      0.900817984396

 Number of electrons:                                                         14
 Number of occupied orbitals:                                                  7
 Number of molecular orbitals:                                                 7

 Number of orbital functions:                                                 14
 Number of independent orbital functions:                                     14

 Extrapolation method: ASPC


 SCF WAVEFUNCTION OPTIMIZATION

  ----------------------------------- OT ---------------------------------------
  Minimizer      : CG                  : conjugate gradient
  Preconditioner : FULL_ALL            : diagonalization, state selective
  Precond_solver : DEFAULT
  Line search    : 2PNT                : 2 energies, one gradient
  stepsize       :    0.15000000                  energy_gap     :    0.08000000
  eps_taylor     :   0.10000E-15                  max_taylor     :             4
  ----------------------------------- OT ---------------------------------------

  Step     Update method      Time    Convergence         Total energy    Change
  ------------------------------------------------------------------------------
     1 OT CG       0.15E+00    0.3     0.01245517       -16.1026580704 -1.61E+01
     2 OT LS       0.22E+00    0.3                      -16.1041481797
     3 OT CG       0.22E+00    0.6     0.00174925       -16.1043022029 -1.64E-03
     4 OT LS       0.17E+00    0.3                      -16.1043252416
     5 OT CG       0.17E+00    0.5     0.00046800       -16.1043273378 -2.51E-05
     6 OT LS       0.17E+00    0.3                      -16.1043291087
     7 OT CG       0.17E+00    0.6     0.00005983       -16.1043291092 -1.77E-06

  *** SCF run converged in     7 steps ***


  Electronic density on regular grids:        -13.9999999998        0.0000000002
  Core density on regular grids:               13.9999999987       -0.0000000013
  Total charge density on r-space grids:       -0.0000000011
  Total charge density g-space grids:          -0.0000000011

  Overlap energy of the core charge distribution:               0.00001239696836
  Self energy of the core charge distribution:                -38.70122451907286
  Core Hamiltonian energy:                                     12.64771434019157
  Hartree energy:                                              15.56849339162096
  Exchange-correlation energy:                                 -5.61932471889491

  Total energy:                                               -16.10432910918689

  outer SCF iter =    1 RMS gradient =   0.60E-04 energy =        -16.1043291092
  outer SCF loop converged in   1 iterations or    7 steps


 ENERGY| Total FORCE_EVAL ( QS ) energy [a.u.]:              -16.104329139481919

 STRESS| Analytical stress tensor [GPa]
 STRESS|                        x                   y                   z
 STRESS|      x       -2.87047501542E-02  -4.08671266909E-02  -6.54806928968E-02
 STRESS|      y       -4.08671266909E-02  -5.24292017122E-02   6.75520758754E-02
 STRESS|      z       -6.54806928968E-02   6.75520758754E-02   1.50807019378E-01
 STRESS| 1/3 Trace                                             2.32243558371E-02
 STRESS| Determinant                                           6.92422934515E-04

 STRESS| Eigenvectors and eigenvalues of the analytical stress tensor [GPa]
 STRESS|                        1                   2                   3
 STRESS| Eigenvalues  -8.47092898567E-02  -4.16893776077E-02   1.96071734976E-01
 STRESS|      x           0.501604365561      0.805143368808     -0.316444649368
 STRESS|      y           0.858482669776     -0.418125032474      0.296949428208
 STRESS|      z          -0.106773433700      0.420613376966      0.900934970446

 Number of electrons:                                                         14
 Number of occupied orbitals:                                                  7
 Number of molecular orbitals:                                                 7

 Number of orbital functions:                                                 14
 Number of independent orbital functions:                                     14

 Extrapolation method: ASPC


 SCF WAVEFUNCTION OPTIMIZATION

  ----------------------------------- OT ---------------------------------------
  Minimizer      : CG                  : conjugate gradient
  Preconditioner : FULL_ALL            : diagonalization, state selective
  Precond_solver : DEFAULT
  Line search    : 2PNT                : 2 energies, one gradient
  stepsize       :    0.15000000                  energy_gap     :    0.08000000
  eps_taylor     :   0.10000E-15                  max_taylor     :             4
  ----------------------------------- OT ---------------------------------------

  Step     Update method      Time    Convergence         Total energy    Change
  ------------------------------------------------------------------------------
     1 OT CG       0.15E+00    0.3     0.01275755       -16.1031610348 -1.61E+01
     2 OT LS       0.22E+00    0.3                      -16.1047197365
     3 OT CG       0.22E+00    0.6     0.00187130       -16.1048784239 -1.72E-03
     4 OT LS       0.16E+00    0.3                      -16.1049041000
     5 OT CG       0.16E+00    0.6     0.00048478       -16.1049067500 -2.83E-05
     6 OT LS       0.17E+00    0.3                      -16.1049086780
     7 OT CG       0.17E+00    0.5     0.00006442       -16.1049086785 -1.93E-06

  *** SCF run converged in     7 steps ***


  Electronic density on regular grids:        -13.9999999998        0.0000000002
  Core density on regular grids:               13.9999999987       -0.0000000013
  Total charge density on r-space grids:       -0.0000000011
  Total charge density g-space grids:          -0.0000000011

  Overlap energy of the core charge distribution:               0.00001019645744
  Self energy of the core charge distribution:                -38.70122451907286
  Core Hamiltonian energy:                                     12.64354564347813
  Hartree energy:                                              15.56721855555666
  Exchange-correlation energy:                                 -5.61445855490779

  Total energy:                                               -16.10490867848841

  outer SCF iter =    1 RMS gradient =   0.64E-04 energy =        -16.1049086785
  outer SCF loop converged in   1 iterations or    7 steps


 ENERGY| Total FORCE_EVAL ( QS ) energy [a.u.]:              -16.104908713774847

 STRESS| Analytical stress tensor [GPa]
 STRESS|                        x                   y                   z
 STRESS|      x       -7.96177063468E-02  -4.25620540080E-02  -4.21143400575E-02
 STRESS|      y       -4.25620540080E-02  -3.81171101342E-02   5.36997610455E-02
 STRESS|      z       -4.21143400575E-02   5.36997610455E-02   5.47079411254E-02
 STRESS| 1/3 Trace                                            -2.10089584519E-02
 STRESS| Determinant                                           5.56629140800E-04

 STRESS| Eigenvectors and eigenvalues of the analytical stress tensor [GPa]
 STRESS|                        1                   2                   3
 STRESS| Eigenvalues  -1.06683762551E-01  -5.36304386217E-02   9.72873258173E-02
 STRESS|      x           0.869561689512     -0.387616185719     -0.305967581127
 STRESS|      y           0.489661788809      0.757066896869      0.432528665229
 STRESS|      z           0.063982815756     -0.525930989992      0.848117204786

 Number of electrons:                                                         14
 Number of occupied orbitals:                                                  7
 Number of molecular orbitals:                                                 7

 Number of orbital functions:                                                 14
 Number of independent orbital functions:                                     14

 Extrapolation method: ASPC


 SCF WAVEFUNCTION OPTIMIZATION

  ----------------------------------- OT ---------------------------------------
  Minimizer      : CG                  : conjugate gradient
  Preconditioner : FULL_ALL            : diagonalization, state selective
  Precond_solver : DEFAULT
  Line search    : 2PNT                : 2 energies, one gradient
  stepsize       :    0.15000000                  energy_gap     :    0.08000000
  eps_taylor     :   0.10000E-15                  max_taylor     :             4
  ----------------------------------- OT ---------------------------------------

  Step     Update method      Time    Convergence         Total energy    Change
  ------------------------------------------------------------------------------
     1 OT CG       0.15E+00    0.3     0.01332972       -16.1030214782 -1.61E+01
     2 OT LS       0.22E+00    0.3                      -16.1047242135
     3 OT CG       0.22E+00    0.5     0.00178797       -16.1048959191 -1.87E-03
     4 OT LS       0.17E+00    0.3                      -16.1049206676
     5 OT CG       0.17E+00    0.6     0.00047758       -16.1049225361 -2.66E-05
     6 OT LS       0.16E+00    0.3                      -16.1049243700
     7 OT CG       0.16E+00    0.6     0.00005977       -16.1049243724 -1.84E-06

  *** SCF run converged in     7 steps ***


  Electronic density on regular grids:        -13.9999999997        0.0000000003
  Core density on regular grids:               13.9999999987       -0.0000000013
  Total charge density on r-space grids:       -0.0000000010
  Total charge density g-space grids:          -0.0000000010

  Overlap energy of the core charge distribution:               0.00001019645744
  Self energy of the core charge distribution:                -38.70122451907286
  Core Hamiltonian energy:                                     12.64330927239626
  Hartree energy:                                              15.56742209439838
  Exchange-correlation energy:                                 -5.61444141660565

  Total energy:                                               -16.10492437242643

  outer SCF iter =    1 RMS gradient =   0.60E-04 energy =        -16.1049243724
  outer SCF loop converged in   1 iterations or    7 steps


 ENERGY| Total FORCE_EVAL ( QS ) energy [a.u.]:              -16.104924402140977

 STRESS| Analytical stress tensor [GPa]
 STRESS|                        x                   y                   z
 STRESS|      x       -7.95469726859E-02  -4.24962113700E-02  -4.21427194543E-02
 STRESS|      y       -4.24962113700E-02  -3.78737284748E-02   5.36977483235E-02
 STRESS|      z       -4.21427194543E-02   5.36977483235E-02   5.48324330852E-02
 STRESS| 1/3 Trace                                            -2.08627560252E-02
 STRESS| Determinant                                           5.55141342098E-04

 STRESS| Eigenvectors and eigenvalues of the analytical stress tensor [GPa]
 STRESS|                        1                   2                   3
 STRESS| Eigenvalues  -1.06518848691E-01  -5.34942774239E-02   9.74248580399E-02
 STRESS|      x           0.870392784405     -0.385837540100     -0.305852568249
 STRESS|      y           0.488060839573      0.758025365060      0.432659407387
 STRESS|      z           0.064907763254     -0.525858287540      0.848092001905

 Number of electrons:                                                         14
 Number of occupied orbitals:                                                  7
 Number of molecular orbitals:                                                 7

 Number of orbital functions:                                                 14
 Number of independent orbital functions:                                     14

 Extrapolation method: ASPC


 SCF WAVEFUNCTION OPTIMIZATION

  ----------------------------------- OT ---------------------------------------
  Minimizer      : CG                  : conjugate gradient
  Preconditioner : FULL_ALL            : diagonalization, state selective
  Precond_solver : DEFAULT
  Line search    : 2PNT                : 2 energies, one gradient
  stepsize       :    0.15000000                  energy_gap     :    0.08000000
  eps_taylor     :   0.10000E-15                  max_taylor     :             4
  ----------------------------------- OT ---------------------------------------

  Step     Update method      Time    Convergence         Total energy    Change
  ------------------------------------------------------------------------------
     1 OT CG       0.15E+00    0.3     0.01297094       -16.1033936824 -1.61E+01
     2 OT LS       0.21E+00    0.3                      -16.1050031860
     3 OT CG       0.21E+00    0.5     0.00182802       -16.1051650444 -1.77E-03
     4 OT LS       0.17E+00    0.3                      -16.1051900772
     5 OT CG       0.17E+00    0.5     0.00048454       -16.1051923602 -2.73E-05
     6 OT LS       0.17E+00    0.3                      -16.1051942739
     7 OT CG       0.17E+00    0.6     0.00005861       -16.1051942739 -1.91E-06

  *** SCF run converged in     7 steps ***


  Electronic density on regular grids:        -13.9999999997        0.0000000003
  Core density on regular grids:               13.9999999987       -0.0000000013
  Total charge density on r-space grids:       -0.0000000010
  Total charge density g-space grids:          -0.0000000010

  Overlap energy of the core charge distribution:               0.00000965212617
  Self energy of the core charge distribution:                -38.70122451907286
  Core Hamiltonian energy:                                     12.63798733761101
  Hartree energy:                                              15.56748562542315
  Exchange-correlation energy:                                 -5.60945236994732

  Total energy:                                               -16.10519427385986

  outer SCF iter =    1 RMS gradient =   0.59E-04 energy =        -16.1051942739
  outer SCF loop converged in   1 iterations or    7 steps


 ENERGY| Total FORCE_EVAL ( QS ) energy [a.u.]:              -16.105194303223314

 STRESS| Analytical stress tensor [GPa]
 STRESS|                        x                   y                   z
 STRESS|      x       -9.15995253162E-02  -3.36438905149E-02  -1.81944861864E-02
 STRESS|      y       -3.36438905149E-02  -3.83906700943E-02   8.34192251166E-03
 STRESS|      z       -1.81944861864E-02   8.34192251166E-03  -5.73366480438E-02
 STRESS| 1/3 Trace                                            -6.24422811514E-02
 STRESS| Determinant                                          -1.07432413241E-04

 STRESS| Eigenvectors and eigenvalues of the analytical stress tensor [GPa]
 STRESS|                        1                   2                   3
 STRESS| Eigenvalues  -1.11066928480E-01  -6.01893615471E-02  -1.60705534274E-02
 STRESS|      x           0.890808958233     -0.057425768198     -0.450734601598
 STRESS|      y           0.384610433527     -0.432894483719      0.815277364084
 STRESS|      z           0.241938451580      0.899613609897      0.363539734464

 Number of electrons:                                                         14
 Number of occupied orbitals:                                                  7
 Number of molecular orbitals:                                                 7

 Number of orbital functions:                                                 14
 Number of independent orbital functions:                                     14

 Extrapolation method: ASPC


 SCF WAVEFUNCTION OPTIMIZATION

  ----------------------------------- OT ---------------------------------------
  Minimizer      : CG                  : conjugate gradient
  Preconditioner : FULL_ALL            : diagonalization, state selective
  Precond_solver : DEFAULT
  Line search    : 2PNT                : 2 energies, one gradient
  stepsize       :    0.15000000                  energy_gap     :    0.08000000
  eps_taylor     :   0.10000E-15                  max_taylor     :             4
  ----------------------------------- OT ---------------------------------------

  Step     Update method      Time    Convergence         Total energy    Change
  ------------------------------------------------------------------------------
     1 OT CG       0.15E+00    0.3     0.01240816       -16.1035316081 -1.61E+01
     2 OT LS       0.22E+00    0.3                      -16.1050087934
     3 OT CG       0.22E+00    0.6     0.00145041       -16.1051605320 -1.63E-03
     4 OT LS       0.19E+00    0.3                      -16.1051795676
     5 OT CG       0.19E+00    0.7     0.00037097       -16.1051799736 -1.94E-05
     6 OT LS       0.15E+00    0.4                      -16.1051809242
     7 OT CG       0.15E+00    0.8     0.00004466       -16.1051809891 -1.02E-06

  *** SCF run converged in     7 steps ***


  Electronic density on regular grids:        -13.9999999998        0.0000000002
  Core density on regular grids:               13.9999999987       -0.0000000013
  Total charge density on r-space grids:       -0.0000000011
  Total charge density g-space grids:          -0.0000000011

  Overlap energy of the core charge distribution:               0.00000965212617
  Self energy of the core charge distribution:                -38.70122451907286
  Core Hamiltonian energy:                                     12.63778712617581
  Hartree energy:                                              15.56765566713173
  Exchange-correlation energy:                                 -5.60940891550647

  Total energy:                                               -16.10518098914563

  outer SCF iter =    1 RMS gradient =   0.45E-04 energy =        -16.1051809891
  outer SCF loop converged in   1 iterations or    7 steps


 ENERGY| Total FORCE_EVAL ( QS ) energy [a.u.]:              -16.105181005658171

 STRESS| Analytical stress tensor [GPa]
 STRESS|                        x                   y                   z
 STRESS|      x       -9.16068441099E-02  -3.35942088585E-02  -1.81947809814E-02
 STRESS|      y       -3.35942088585E-02  -3.85112196478E-02   8.34034438634E-03
 STRESS|      z       -1.81947809814E-02   8.34034438634E-03  -5.72455429779E-02
 STRESS| 1/3 Trace                                            -6.24545355785E-02
 STRESS| Determinant                                          -1.08033071870E-04

 STRESS| Eigenvectors and eigenvalues of the analytical stress tensor [GPa]
 STRESS|                        1                   2                   3
 STRESS| Eigenvalues  -1.11051620648E-01  -6.01346485418E-02  -1.61773375455E-02
 STRESS|      x           0.890830757893     -0.056278809509     -0.450836174672
 STRESS|      y           0.384775432116     -0.434207494575      0.814500901469
 STRESS|      z           0.241595586947      0.899053139283      0.365150688227

 Number of electrons:                                                         14
 Number of occupied orbitals:                                                  7
 Number of molecular orbitals:                                                 7

 Number of orbital functions:                                                 14
 Number of independent orbital functions:                                     14

 Extrapolation method: ASPC


 SCF WAVEFUNCTION OPTIMIZATION

  ----------------------------------- OT ---------------------------------------
  Minimizer      : CG                  : conjugate gradient
  Preconditioner : FULL_ALL            : diagonalization, state selective
  Precond_solver : DEFAULT
  Line search    : 2PNT                : 2 energies, one gradient
  stepsize       :    0.15000000                  energy_gap     :    0.08000000
  eps_taylor     :   0.10000E-15                  max_taylor     :             4
  ----------------------------------- OT ---------------------------------------

  Step     Update method      Time    Convergence         Total energy    Change
  ------------------------------------------------------------------------------
     1 OT CG       0.15E+00    0.4     0.01111098       -16.1034427537 -1.61E+01
     2 OT LS       0.22E+00    0.4                      -16.1046330264
     3 OT CG       0.22E+00    0.7     0.00119527       -16.1047608316 -1.32E-03
     4 OT LS       0.21E+00    0.4                      -16.1047754163
     5 OT CG       0.21E+00    0.7     0.00014003       -16.1047754437 -1.46E-05
     6 OT LS       0.18E+00    0.3                      -16.1047756085
     7 OT CG       0.18E+00    0.5     0.00002198       -16.1047756139 -1.70E-07

  *** SCF run converged in     7 steps ***


  Electronic density on regular grids:        -13.9999999997        0.0000000003
  Core density on regular grids:               13.9999999987       -0.0000000013
  Total charge density on r-space grids:       -0.0000000011
  Total charge density g-space grids:          -0.0000000011

  Overlap energy of the core charge distribution:               0.00001030434802
  Self energy of the core charge distribution:                -38.70122451907286
  Core Hamiltonian energy:                                     12.62363684775766
  Hartree energy:                                              15.57517528288916
  Exchange-correlation energy:                                 -5.60237352986482

  Total energy:                                               -16.10477561394285

  outer SCF iter =    1 RMS gradient =   0.22E-04 energy =        -16.1047756139
  outer SCF loop converged in   1 iterations or    7 steps


 ENERGY| Total FORCE_EVAL ( QS ) energy [a.u.]:              -16.104775617710203

 STRESS| Analytical stress tensor [GPa]
 STRESS|                        x                   y                   z
 STRESS|      x       -1.22915374578E-01  -3.81701084854E-02   1.11121814545E-02
 STRESS|      y       -3.81701084854E-02  -4.74305926936E-02  -1.32821445757E-02
 STRESS|      z        1.11121814545E-02  -1.32821445757E-02  -1.55176181288E-01
 STRESS| 1/3 Trace                                            -1.08507382853E-01
 STRESS| Determinant                                          -6.39775936567E-04

 STRESS| Eigenvectors and eigenvalues of the analytical stress tensor [GPa]
 STRESS|                        1                   2                   3
 STRESS| Eigenvalues  -1.58659218891E-01  -1.37546331221E-01  -2.93165984474E-02
 STRESS|      x          -0.277967902376      0.878906654237     -0.387629898727
 STRESS|      y           0.019294144351      0.408559997830      0.912527514197
 STRESS|      z           0.960396574985      0.246174371761     -0.130524317449

 Number of electrons:                                                         14
 Number of occupied orbitals:                                                  7
 Number of molecular orbitals:                                                 7

 Number of orbital functions:                                                 14
 Number of independent orbital functions:                                     14

 Extrapolation method: ASPC


 SCF WAVEFUNCTION OPTIMIZATION

  ----------------------------------- OT ---------------------------------------
  Minimizer      : CG                  : conjugate gradient
  Preconditioner : FULL_ALL            : diagonalization, state selective
  Precond_solver : DEFAULT
  Line search    : 2PNT                : 2 energies, one gradient
  stepsize       :    0.15000000                  energy_gap     :    0.08000000
  eps_taylor     :   0.10000E-15                  max_taylor     :             4
  ----------------------------------- OT ---------------------------------------

  Step     Update method      Time    Convergence         Total energy    Change
  ------------------------------------------------------------------------------
     1 OT CG       0.15E+00    0.3     0.01064858       -16.1035454978 -1.61E+01
     2 OT LS       0.22E+00    0.3                      -16.1046369136
     3 OT CG       0.22E+00    0.6     0.00151593       -16.1047530867 -1.21E-03
     4 OT LS       0.16E+00    0.3                      -16.1047686396
     5 OT CG       0.16E+00    0.6     0.00040350       -16.1047710295 -1.79E-05
     6 OT LS       0.17E+00    0.3                      -16.1047723787
     7 OT CG       0.17E+00    0.5     0.00003894       -16.1047723840 -1.35E-06

  *** SCF run converged in     7 steps ***


  Electronic density on regular grids:        -13.9999999998        0.0000000002
  Core density on regular grids:               13.9999999987       -0.0000000013
  Total charge density on r-space grids:       -0.0000000011
  Total charge density g-space grids:          -0.0000000011

  Overlap energy of the core charge distribution:               0.00001030434802
  Self energy of the core charge distribution:                -38.70122451907286
  Core Hamiltonian energy:                                     12.62374600788291
  Hartree energy:                                              15.57507992702031
  Exchange-correlation energy:                                 -5.60238410422378

  Total energy:                                               -16.10477238404541

  outer SCF iter =    1 RMS gradient =   0.39E-04 energy =        -16.1047723840
  outer SCF loop converged in   1 iterations or    7 steps


 ENERGY| Total FORCE_EVAL ( QS ) energy [a.u.]:              -16.104772398308324

 STRESS| Analytical stress tensor [GPa]
 STRESS|                        x                   y                   z
 STRESS|      x       -1.22955496941E-01  -3.81885522663E-02   1.11145163916E-02
 STRESS|      y       -3.81885522663E-02  -4.74886061584E-02  -1.33012430119E-02
 STRESS|      z        1.11145163916E-02  -1.33012430119E-02  -1.55194543502E-01
 STRESS| 1/3 Trace                                            -1.08546215534E-01
 STRESS| Determinant                                          -6.40936864467E-04

 STRESS| Eigenvectors and eigenvalues of the analytical stress tensor [GPa]
 STRESS|                        1                   2                   3
 STRESS| Eigenvalues  -1.58681035765E-01  -1.37604203268E-01  -2.93534075672E-02
 STRESS|      x          -0.278057041074      0.878810956104     -0.387782910069
 STRESS|      y           0.019385355077      0.408754830420      0.912438324829
 STRESS|      z           0.960368934274      0.246192591360     -0.130693221101

 Number of electrons:                                                         14
 Number of occupied orbitals:                                                  7
 Number of molecular orbitals:                                                 7

 Number of orbital functions:                                                 14
 Number of independent orbital functions:                                     14

 Extrapolation method: ASPC


 SCF WAVEFUNCTION OPTIMIZATION

  ----------------------------------- OT ---------------------------------------
  Minimizer      : CG                  : conjugate gradient
  Preconditioner : FULL_ALL            : diagonalization, state selective
  Precond_solver : DEFAULT
  Line search    : 2PNT                : 2 energies, one gradient
  stepsize       :    0.15000000                  energy_gap     :    0.08000000
  eps_taylor     :   0.10000E-15                  max_taylor     :             4
  ----------------------------------- OT ---------------------------------------

  Step     Update method      Time    Convergence         Total energy    Change
  ------------------------------------------------------------------------------
     1 OT CG       0.15E+00    0.3     0.01100375       -16.1041511715 -1.61E+01
     2 OT LS       0.22E+00    0.3                      -16.1053244723
     3 OT CG       0.22E+00    0.6     0.00125241       -16.1054560173 -1.30E-03
     4 OT LS       0.19E+00    0.3                      -16.1054701594
     5 OT CG       0.19E+00    0.6     0.00029652       -16.1054705416 -1.45E-05
     6 OT LS       0.15E+00    0.3                      -16.1054711113
     7 OT CG       0.15E+00    0.6     0.00003987       -16.1054711683 -6.27E-07

  *** SCF run converged in     7 steps ***


  Electronic density on regular grids:        -13.9999999998        0.0000000002
  Core density on regular grids:               13.9999999987       -0.0000000013
  Total charge density on r-space grids:       -0.0000000011
  Total charge density g-space grids:          -0.0000000011

  Overlap energy of the core charge distribution:               0.00001180812962
  Self energy of the core charge distribution:                -38.70122451907286
  Core Hamiltonian energy:                                     12.63137297212772
  Hartree energy:                                              15.56820035666875
  Exchange-correlation energy:                                 -5.60383178615442

  Total energy:                                               -16.10547116830118

  outer SCF iter =    1 RMS gradient =   0.40E-04 energy =        -16.1054711683
  outer SCF loop converged in   1 iterations or    7 steps


 ENERGY| Total FORCE_EVAL ( QS ) energy [a.u.]:              -16.105471182130074

 STRESS| Analytical stress tensor [GPa]
 STRESS|                        x                   y                   z
 STRESS|      x       -1.02420276870E-01  -2.82667723618E-02   4.61215044726E-02
 STRESS|      y       -2.82667723618E-02  -4.01279686610E-02  -4.74825643420E-03
 STRESS|      z        4.61215044726E-02  -4.74825643420E-03  -1.73499922306E-01
 STRESS| 1/3 Trace                                            -1.05349389279E-01
 STRESS| Determinant                                          -4.74392385193E-04

 STRESS| Eigenvectors and eigenvalues of the analytical stress tensor [GPa]
 STRESS|                        1                   2                   3
 STRESS| Eigenvalues  -1.96635935714E-01  -9.36513461117E-02  -2.57608860116E-02
 STRESS|      x          -0.452200198160      0.783894071102     -0.425470405640
 STRESS|      y          -0.054662731826      0.451775301392      0.890455536679
 STRESS|      z           0.890239836524      0.425921544822     -0.161443089425

 Number of electrons:                                                         14
 Number of occupied orbitals:                                                  7
 Number of molecular orbitals:                                                 7

 Number of orbital functions:                                                 14
 Number of independent orbital functions:                                     14

 Extrapolation method: ASPC


 SCF WAVEFUNCTION OPTIMIZATION

  ----------------------------------- OT ---------------------------------------
  Minimizer      : CG                  : conjugate gradient
  Preconditioner : FULL_ALL            : diagonalization, state selective
  Precond_solver : DEFAULT
  Line search    : 2PNT                : 2 energies, one gradient
  stepsize       :    0.15000000                  energy_gap     :    0.08000000
  eps_taylor     :   0.10000E-15                  max_taylor     :             4
  ----------------------------------- OT ---------------------------------------

  Step     Update method      Time    Convergence         Total energy    Change
  ------------------------------------------------------------------------------
     1 OT CG       0.15E+00    0.3     0.01159239       -16.1040088510 -1.61E+01
     2 OT LS       0.22E+00    0.3                      -16.1053109337
     3 OT CG       0.22E+00    0.5     0.00120666       -16.1054579906 -1.45E-03
     4 OT LS       0.21E+00    0.3                      -16.1054730277
     5 OT CG       0.21E+00    0.6     0.00013059       -16.1054730553 -1.51E-05
     6 OT LS       0.17E+00    0.3                      -16.1054731926
     7 OT CG       0.17E+00    0.5     0.00002000       -16.1054731997 -1.44E-07

  *** SCF run converged in     7 steps ***


  Electronic density on regular grids:        -13.9999999998        0.0000000002
  Core density on regular grids:               13.9999999987       -0.0000000013
  Total charge density on r-space grids:       -0.0000000011
  Total charge density g-space grids:          -0.0000000011

  Overlap energy of the core charge distribution:               0.00001180812962
  Self energy of the core charge distribution:                -38.70122451907286
  Core Hamiltonian energy:                                     12.63141067367201
  Hartree energy:                                              15.56816610248799
  Exchange-correlation energy:                                 -5.60383726488252

  Total energy:                                               -16.10547319966576

  outer SCF iter =    1 RMS gradient =   0.20E-04 energy =        -16.1054731997
  outer SCF loop converged in   1 iterations or    7 steps


 ENERGY| Total FORCE_EVAL ( QS ) energy [a.u.]:              -16.105473203222449

 STRESS| Analytical stress tensor [GPa]
 STRESS|                        x                   y                   z
 STRESS|      x       -1.02443080518E-01  -2.82582604845E-02   4.61382360392E-02
 STRESS|      y       -2.82582604845E-02  -4.01068223458E-02  -4.75587941360E-03
 STRESS|      z        4.61382360392E-02  -4.75587941360E-03  -1.73491492151E-01
 STRESS| 1/3 Trace                                            -1.05347131672E-01
 STRESS| Determinant                                          -4.74185364684E-04

 STRESS| Eigenvectors and eigenvalues of the analytical stress tensor [GPa]
 STRESS|                        1                   2                   3
 STRESS| Eigenvalues  -1.96646167398E-01  -9.36452459138E-02  -2.57499817027E-02
 STRESS|      x          -0.452360913832      0.783909003357     -0.425272004831
 STRESS|      y          -0.054615238714      0.451605762117      0.890544446573
 STRESS|      z           0.890161097407      0.426073831722     -0.161475417895

 Number of electrons:                                                         14
 Number of occupied orbitals:                                                  7
 Number of molecular orbitals:                                                 7

 Number of orbital functions:                                                 14
 Number of independent orbital functions:                                     14

 Extrapolation method: ASPC


 SCF WAVEFUNCTION OPTIMIZATION

  ----------------------------------- OT ---------------------------------------
  Minimizer      : CG                  : conjugate gradient
  Preconditioner : FULL_ALL            : diagonalization, state selective
  Precond_solver : DEFAULT
  Line search    : 2PNT                : 2 energies, one gradient
  stepsize       :    0.15000000                  energy_gap     :    0.08000000
  eps_taylor     :   0.10000E-15                  max_taylor     :             4
  ----------------------------------- OT ---------------------------------------

  Step     Update method      Time    Convergence         Total energy    Change
  ------------------------------------------------------------------------------
     1 OT CG       0.15E+00    0.3     0.01199392       -16.1060584250 -1.61E+01
     2 OT LS       0.21E+00    0.3                      -16.1074318975
     3 OT CG       0.21E+00    0.6     0.00183937       -16.1075664450 -1.51E-03
     4 OT LS       0.16E+00    0.4                      -16.1075898525
     5 OT CG       0.16E+00    0.7     0.00048335       -16.1075929113 -2.65E-05
     6 OT LS       0.17E+00    0.4                      -16.1075948914
     7 OT CG       0.17E+00    0.6     0.00003726       -16.1075949052 -1.99E-06

  *** SCF run converged in     7 steps ***


  Electronic density on regular grids:        -13.9999999998        0.0000000002
  Core density on regular grids:               13.9999999987       -0.0000000013
  Total charge density on r-space grids:       -0.0000000011
  Total charge density g-space grids:          -0.0000000011

  Overlap energy of the core charge distribution:               0.00001288010372
  Self energy of the core charge distribution:                -38.70122451907286
  Core Hamiltonian energy:                                     12.65847153322166
  Hartree energy:                                              15.54793519163707
  Exchange-correlation energy:                                 -5.61278999104283

  Total energy:                                               -16.10759490515323

  outer SCF iter =    1 RMS gradient =   0.37E-04 energy =        -16.1075949052
  outer SCF loop converged in   1 iterations or    7 steps


 ENERGY| Total FORCE_EVAL ( QS ) energy [a.u.]:              -16.107594917790845

 STRESS| Analytical stress tensor [GPa]
 STRESS|                        x                   y                   z
 STRESS|      x       -4.65700228838E-02  -9.19588286489E-03   5.21913450373E-02
 STRESS|      y       -9.19588286489E-03  -2.50828521352E-02   3.79001829305E-03
 STRESS|      z        5.21913450373E-02   3.79001829305E-03  -1.08340533791E-01
 STRESS| 1/3 Trace                                            -5.99978029365E-02
 STRESS| Determinant                                          -5.20367802299E-05

 STRESS| Eigenvectors and eigenvalues of the analytical stress tensor [GPa]
 STRESS|                        1                   2                   3
 STRESS| Eigenvalues  -1.38644193002E-01  -2.78935649589E-02  -1.34556508492E-02
 STRESS|      x          -0.497163370517      0.387803708284     -0.776168066115
 STRESS|      y          -0.069124223160      0.874010085930      0.480965915077
 STRESS|      z           0.864899083586      0.292770650055     -0.407719170113

 Number of electrons:                                                         14
 Number of occupied orbitals:                                                  7
 Number of molecular orbitals:                                                 7

 Number of orbital functions:                                                 14
 Number of independent orbital functions:                                     14

 Extrapolation method: ASPC


 SCF WAVEFUNCTION OPTIMIZATION

  ----------------------------------- OT ---------------------------------------
  Minimizer      : CG                  : conjugate gradient
  Preconditioner : FULL_ALL            : diagonalization, state selective
  Precond_solver : DEFAULT
  Line search    : 2PNT                : 2 energies, one gradient
  stepsize       :    0.15000000                  energy_gap     :    0.08000000
  eps_taylor     :   0.10000E-15                  max_taylor     :             4
  ----------------------------------- OT ---------------------------------------

  Step     Update method      Time    Convergence         Total energy    Change
  ------------------------------------------------------------------------------
     1 OT CG       0.15E+00    0.3     0.01256429       -16.1059565593 -1.61E+01
     2 OT LS       0.21E+00    0.3                      -16.1074369902
     3 OT CG       0.21E+00    0.5     0.00228501       -16.1075589029 -1.60E-03
     4 OT LS       0.15E+00    0.3                      -16.1075937224
     5 OT CG       0.15E+00    0.5     0.00054384       -16.1075983571 -3.95E-05
     6 OT LS       0.18E+00    0.3                      -16.1076009588
     7 OT CG       0.18E+00    0.6     0.00003708       -16.1076010304 -2.67E-06

  *** SCF run converged in     7 steps ***


  Electronic density on regular grids:        -13.9999999998        0.0000000002
  Core density on regular grids:               13.9999999987       -0.0000000013
  Total charge density on r-space grids:       -0.0000000011
  Total charge density g-space grids:          -0.0000000011

  Overlap energy of the core charge distribution:               0.00001288010372
  Self energy of the core charge distribution:                -38.70122451907286
  Core Hamiltonian energy:                                     12.65846574066386
  Hartree energy:                                              15.54792162560358
  Exchange-correlation energy:                                 -5.61277675774523

  Total energy:                                               -16.10760103044694

  outer SCF iter =    1 RMS gradient =   0.37E-04 energy =        -16.1076010304
  outer SCF loop converged in   1 iterations or    7 steps


 ENERGY| Total FORCE_EVAL ( QS ) energy [a.u.]:              -16.107601043154755

 STRESS| Analytical stress tensor [GPa]
 STRESS|                        x                   y                   z
 STRESS|      x       -4.65547575753E-02  -9.20984592138E-03   5.21956559072E-02
 STRESS|      y       -9.20984592138E-03  -2.50618781718E-02   3.79032246646E-03
 STRESS|      z        5.21956559072E-02   3.79032246646E-03  -1.08341465475E-01
 STRESS| 1/3 Trace                                            -5.99860337408E-02
 STRESS| Determinant                                          -5.19147568014E-05

 STRESS| Eigenvectors and eigenvalues of the analytical stress tensor [GPa]
 STRESS|                        1                   2                   3
 STRESS| Eigenvalues  -1.38645720371E-01  -2.78836641321E-02  -1.34287167187E-02
 STRESS|      x          -0.497135409225      0.388298742631     -0.775938445604
 STRESS|      y          -0.069172104113      0.873692758983      0.481535235380
 STRESS|      z           0.864911327771      0.293061511241     -0.407484166222

 Number of electrons:                                                         14
 Number of occupied orbitals:                                                  7
 Number of molecular orbitals:                                                 7

 Number of orbital functions:                                                 14
 Number of independent orbital functions:                                     14

 Extrapolation method: ASPC


 SCF WAVEFUNCTION OPTIMIZATION

  ----------------------------------- OT ---------------------------------------
  Minimizer      : CG                  : conjugate gradient
  Preconditioner : FULL_ALL            : diagonalization, state selective
  Precond_solver : DEFAULT
  Line search    : 2PNT                : 2 energies, one gradient
  stepsize       :    0.15000000                  energy_gap     :    0.08000000
  eps_taylor     :   0.10000E-15                  max_taylor     :             4
  ----------------------------------- OT ---------------------------------------

  Step     Update method      Time    Convergence         Total energy    Change
  ------------------------------------------------------------------------------
     1 OT CG       0.15E+00    0.3     0.01359672       -16.1074062059 -1.61E+01
     2 OT LS       0.20E+00    0.3                      -16.1091004732
     3 OT CG       0.20E+00    0.5     0.00290184       -16.1092102569 -1.80E-03
     4 OT LS       0.15E+00    0.3                      -16.1092667223
     5 OT CG       0.15E+00    0.5     0.00059758       -16.1092728531 -6.26E-05
     6 OT LS       0.20E+00    0.3                      -16.1092761315
     7 OT CG       0.20E+00    0.6     0.00003477       -16.1092763232 -3.47E-06

  *** SCF run converged in     7 steps ***


  Electronic density on regular grids:        -13.9999999997        0.0000000003
  Core density on regular grids:               13.9999999987       -0.0000000013
  Total charge density on r-space grids:       -0.0000000011
  Total charge density g-space grids:          -0.0000000011

  Overlap energy of the core charge distribution:               0.00001342206800
  Self energy of the core charge distribution:                -38.70122451907286
  Core Hamiltonian energy:                                     12.69757669339327
  Hartree energy:                                              15.52005016774965
  Exchange-correlation energy:                                 -5.62569208730346

  Total energy:                                               -16.10927632316539

  outer SCF iter =    1 RMS gradient =   0.35E-04 energy =        -16.1092763232
  outer SCF loop converged in   1 iterations or    7 steps


 ENERGY| Total FORCE_EVAL ( QS ) energy [a.u.]:              -16.109276334688634

 STRESS| Analytical stress tensor [GPa]
 STRESS|                        x                   y                   z
 STRESS|      x        3.16289655078E-02   1.82377264113E-02   2.26613357787E-03
 STRESS|      y        1.82377264113E-02  -1.07759619222E-02  -1.86818898101E-02
 STRESS|      z        2.26613357787E-03  -1.86818898101E-02   7.70235327210E-03
 STRESS| 1/3 Trace                                             9.51845228590E-03
 STRESS| Determinant                                          -1.77149223737E-05

 STRESS| Eigenvectors and eigenvalues of the analytical stress tensor [GPa]
 STRESS|                        1                   2                   3
 STRESS| Eigenvalues  -2.72160574357E-02   1.66290198513E-02   3.91423944421E-02
 STRESS|      x          -0.278118578729      0.325179755716      0.903829730999
 STRESS|      y           0.839325038399     -0.375302240099      0.393295955349
 STRESS|      z           0.467101205396      0.867989835798     -0.168552985342

 Number of electrons:                                                         14
 Number of occupied orbitals:                                                  7
 Number of molecular orbitals:                                                 7

 Number of orbital functions:                                                 14
 Number of independent orbital functions:                                     14

 Extrapolation method: ASPC


 SCF WAVEFUNCTION OPTIMIZATION

  ----------------------------------- OT ---------------------------------------
  Minimizer      : CG                  : conjugate gradient
  Preconditioner : FULL_ALL            : diagonalization, state selective
  Precond_solver : DEFAULT
  Line search    : 2PNT                : 2 energies, one gradient
  stepsize       :    0.15000000                  energy_gap     :    0.08000000
  eps_taylor     :   0.10000E-15                  max_taylor     :             4
  ----------------------------------- OT ---------------------------------------

  Step     Update method      Time    Convergence         Total energy    Change
  ------------------------------------------------------------------------------
     1 OT CG       0.15E+00    0.3     0.01457105       -16.1071847955 -1.61E+01
     2 OT LS       0.19E+00    0.3                      -16.1091003090
     3 OT CG       0.19E+00    0.5     0.00305175       -16.1092046417 -2.02E-03
     4 OT LS       0.16E+00    0.3                      -16.1092718901
     5 OT CG       0.16E+00    0.5     0.00065098       -16.1092760203 -7.14E-05
     6 OT LS       0.20E+00    0.3                      -16.1092799175
     7 OT CG       0.20E+00    0.5     0.00003441       -16.1092800785 -4.06E-06

  *** SCF run converged in     7 steps ***


  Electronic density on regular grids:        -13.9999999997        0.0000000003
  Core density on regular grids:               13.9999999987       -0.0000000013
  Total charge density on r-space grids:       -0.0000000010
  Total charge density g-space grids:          -0.0000000010

  Overlap energy of the core charge distribution:               0.00001342206800
  Self energy of the core charge distribution:                -38.70122451907286
  Core Hamiltonian energy:                                     12.69758914159863
  Hartree energy:                                              15.52002466540987
  Exchange-correlation energy:                                 -5.62568278848384

  Total energy:                                               -16.10928007848020

  outer SCF iter =    1 RMS gradient =   0.34E-04 energy =        -16.1092800785
  outer SCF loop converged in   1 iterations or    7 steps


 ENERGY| Total FORCE_EVAL ( QS ) energy [a.u.]:              -16.109280089818558

 STRESS| Analytical stress tensor [GPa]
 STRESS|                        x                   y                   z
 STRESS|      x        3.16104251428E-02   1.82190350908E-02   2.26861633087E-03
 STRESS|      y        1.82190350908E-02  -1.07627798044E-02  -1.86859894697E-02
 STRESS|      z        2.26861633087E-03  -1.86859894697E-02   7.70767088841E-03
 STRESS| 1/3 Trace                                             9.51843874225E-03
 STRESS| Determinant                                          -1.77072642970E-05

 STRESS| Eigenvectors and eigenvalues of the analytical stress tensor [GPa]
 STRESS|                        1                   2                   3
 STRESS| Eigenvalues  -2.72021805785E-02   1.66415586195E-02   3.91159381858E-02
 STRESS|      x          -0.278010655989      0.325405972167      0.903781515874
 STRESS|      y           0.839255722673     -0.375419814754      0.393331659864
 STRESS|      z           0.467289960429      0.867854202023     -0.168728115362

 Number of electrons:                                                         14
 Number of occupied orbitals:                                                  7
 Number of molecular orbitals:                                                 7

 Number of orbital functions:                                                 14
 Number of independent orbital functions:                                     14

 Extrapolation method: ASPC


 SCF WAVEFUNCTION OPTIMIZATION

  ----------------------------------- OT ---------------------------------------
  Minimizer      : CG                  : conjugate gradient
  Preconditioner : FULL_ALL            : diagonalization, state selective
  Precond_solver : DEFAULT
  Line search    : 2PNT                : 2 energies, one gradient
  stepsize       :    0.15000000                  energy_gap     :    0.08000000
  eps_taylor     :   0.10000E-15                  max_taylor     :             4
  ----------------------------------- OT ---------------------------------------

  Step     Update method      Time    Convergence         Total energy    Change
  ------------------------------------------------------------------------------
     1 OT CG       0.15E+00    0.3     0.01368108       -16.1079265678 -1.61E+01
     2 OT LS       0.19E+00    0.3                      -16.1096152714
     3 OT CG       0.19E+00    0.5     0.00291132       -16.1097072478 -1.78E-03
     4 OT LS       0.15E+00    0.3                      -16.1097671998
     5 OT CG       0.15E+00    0.6     0.00060017       -16.1097714256 -6.42E-05
     6 OT LS       0.20E+00    0.3                      -16.1097747776
     7 OT CG       0.20E+00    0.5     0.00003251       -16.1097749630 -3.54E-06

  *** SCF run converged in     7 steps ***


  Electronic density on regular grids:        -13.9999999997        0.0000000003
  Core density on regular grids:               13.9999999987       -0.0000000013
  Total charge density on r-space grids:       -0.0000000011
  Total charge density g-space grids:          -0.0000000011

  Overlap energy of the core charge distribution:               0.00001424341341
  Self energy of the core charge distribution:                -38.70122451907286
  Core Hamiltonian energy:                                     12.72269257224588
  Hartree energy:                                              15.50226818431157
  Exchange-correlation energy:                                 -5.63352544385533

  Total energy:                                               -16.10977496295732

  outer SCF iter =    1 RMS gradient =   0.33E-04 energy =        -16.1097749630
  outer SCF loop converged in   1 iterations or    7 steps


 ENERGY| Total FORCE_EVAL ( QS ) energy [a.u.]:              -16.109774973133348

 STRESS| Analytical stress tensor [GPa]
 STRESS|                        x                   y                   z
 STRESS|      x        6.88777595146E-02   3.19619954773E-02  -4.57349027209E-02
 STRESS|      y        3.19619954773E-02   2.28363035839E-03  -3.09927595510E-02
 STRESS|      z       -4.57349027209E-02  -3.09927595510E-02   8.47535905231E-02
 STRESS| 1/3 Trace                                             5.19716601320E-02
 STRESS| Determinant                                          -5.35787706396E-05

 STRESS| Eigenvectors and eigenvalues of the analytical stress tensor [GPa]
 STRESS|                        1                   2                   3
 STRESS| Eigenvalues  -1.26276539745E-02   3.08046563699E-02   1.37737978001E-01
 STRESS|      x          -0.274342756154      0.733567575254     -0.621783454815
 STRESS|      y           0.946078125833      0.090070149190     -0.311164824563
 STRESS|      z           0.172256297320      0.673621541194      0.718722329744

 Number of electrons:                                                         14
 Number of occupied orbitals:                                                  7
 Number of molecular orbitals:                                                 7

 Number of orbital functions:                                                 14
 Number of independent orbital functions:                                     14

 Extrapolation method: ASPC


 SCF WAVEFUNCTION OPTIMIZATION

  ----------------------------------- OT ---------------------------------------
  Minimizer      : CG                  : conjugate gradient
  Preconditioner : FULL_ALL            : diagonalization, state selective
  Precond_solver : DEFAULT
  Line search    : 2PNT                : 2 energies, one gradient
  stepsize       :    0.15000000                  energy_gap     :    0.08000000
  eps_taylor     :   0.10000E-15                  max_taylor     :             4
  ----------------------------------- OT ---------------------------------------

  Step     Update method      Time    Convergence         Total energy    Change
  ------------------------------------------------------------------------------
     1 OT CG       0.15E+00    0.4     0.01259834       -16.1081952749 -1.61E+01
     2 OT LS       0.20E+00    0.4                      -16.1096359842
     3 OT CG       0.20E+00    0.6     0.00245489       -16.1097202146 -1.52E-03
     4 OT LS       0.16E+00    0.3                      -16.1097651731
     5 OT CG       0.16E+00    0.6     0.00055560       -16.1097675341 -4.73E-05
     6 OT LS       0.19E+00    0.3                      -16.1097703308
     7 OT CG       0.19E+00    0.5     0.00003169       -16.1097703984 -2.86E-06

  *** SCF run converged in     7 steps ***


  Electronic density on regular grids:        -13.9999999998        0.0000000002
  Core density on regular grids:               13.9999999987       -0.0000000013
  Total charge density on r-space grids:       -0.0000000011
  Total charge density g-space grids:          -0.0000000011

  Overlap energy of the core charge distribution:               0.00001424341341
  Self energy of the core charge distribution:                -38.70122451907286
  Core Hamiltonian energy:                                     12.72270646995472
  Hartree energy:                                              15.50224608362467
  Exchange-correlation energy:                                 -5.63351267635855

  Total energy:                                               -16.10977039843861

  outer SCF iter =    1 RMS gradient =   0.32E-04 energy =        -16.1097703984
  outer SCF loop converged in   1 iterations or    7 steps


 ENERGY| Total FORCE_EVAL ( QS ) energy [a.u.]:              -16.109770408185788

 STRESS| Analytical stress tensor [GPa]
 STRESS|                        x                   y                   z
 STRESS|      x        6.88153958956E-02   3.19444635282E-02  -4.57521189173E-02
 STRESS|      y        3.19444635282E-02   2.22347545131E-03  -3.09882817399E-02
 STRESS|      z       -4.57521189173E-02  -3.09882817399E-02   8.47608712085E-02
 STRESS| 1/3 Trace                                             5.19332475185E-02
 STRESS| Determinant                                          -5.36804179955E-05

 STRESS| Eigenvectors and eigenvalues of the analytical stress tensor [GPa]
 STRESS|                        1                   2                   3
 STRESS| Eigenvalues  -1.26737907749E-02   3.07551126341E-02   1.37718420696E-01
 STRESS|      x          -0.274247834539      0.733774650869     -0.621580957714
 STRESS|      y           0.946128539002      0.090185173737     -0.310978169851
 STRESS|      z           0.172130511347      0.673380573064      0.718978226989

 Number of electrons:                                                         14
 Number of occupied orbitals:                                                  7
 Number of molecular orbitals:                                                 7

 Number of orbital functions:                                                 14
 Number of independent orbital functions:                                     14

 Extrapolation method: ASPC


 SCF WAVEFUNCTION OPTIMIZATION

  ----------------------------------- OT ---------------------------------------
  Minimizer      : CG                  : conjugate gradient
  Preconditioner : FULL_ALL            : diagonalization, state selective
  Precond_solver : DEFAULT
  Line search    : 2PNT                : 2 energies, one gradient
  stepsize       :    0.15000000                  energy_gap     :    0.08000000
  eps_taylor     :   0.10000E-15                  max_taylor     :             4
  ----------------------------------- OT ---------------------------------------

  Step     Update method      Time    Convergence         Total energy    Change
  ------------------------------------------------------------------------------
     1 OT CG       0.15E+00    0.3     0.01160470       -16.1082580490 -1.61E+01
     2 OT LS       0.20E+00    0.3                      -16.1095092566
     3 OT CG       0.20E+00    0.6     0.00186815       -16.1096022349 -1.34E-03
     4 OT LS       0.17E+00    0.3                      -16.1096298913
     5 OT CG       0.17E+00    0.5     0.00049402       -16.1096311083 -2.89E-05
     6 OT LS       0.17E+00    0.3                      -16.1096331580
     7 OT CG       0.17E+00    0.6     0.00003248       -16.1096331584 -2.05E-06

  *** SCF run converged in     7 steps ***


  Electronic density on regular grids:        -13.9999999998        0.0000000002
  Core density on regular grids:               13.9999999987       -0.0000000013
  Total charge density on r-space grids:       -0.0000000011
  Total charge density g-space grids:          -0.0000000011

  Overlap energy of the core charge distribution:               0.00001509185605
  Self energy of the core charge distribution:                -38.70122451907286
  Core Hamiltonian energy:                                     12.71971462586131
  Hartree energy:                                              15.50245982126053
  Exchange-correlation energy:                                 -5.63059817830913

  Total energy:                                               -16.10963315840410

  outer SCF iter =    1 RMS gradient =   0.32E-04 energy =        -16.1096331584
  outer SCF loop converged in   1 iterations or    7 steps


 ENERGY| Total FORCE_EVAL ( QS ) energy [a.u.]:              -16.109633168721746

 STRESS| Analytical stress tensor [GPa]
 STRESS|                        x                   y                   z
 STRESS|      x        2.03555688666E-02   1.45718559101E-02  -7.88986662187E-02
 STRESS|      y        1.45718559101E-02   4.98063909188E-03  -4.18597083550E-02
 STRESS|      z       -7.88986662187E-02  -4.18597083550E-02   6.20055293572E-02
 STRESS| 1/3 Trace                                             2.91139124386E-02
 STRESS| Determinant                                           2.27001545110E-05

 STRESS| Eigenvectors and eigenvalues of the analytical stress tensor [GPa]
 STRESS|                        1                   2                   3
 STRESS| Eigenvalues  -4.53444909806E-02  -3.67134352704E-03   1.36357571823E-01
 STRESS|      x           0.694301941043     -0.450441961778     -0.561290347088
 STRESS|      y           0.330660035608      0.892377718127     -0.307125298604
 STRESS|      z           0.639225121156      0.027641404809      0.768522736960

 Number of electrons:                                                         14
 Number of occupied orbitals:                                                  7
 Number of molecular orbitals:                                                 7

 Number of orbital functions:                                                 14
 Number of independent orbital functions:                                     14

 Extrapolation method: ASPC


 SCF WAVEFUNCTION OPTIMIZATION

  ----------------------------------- OT ---------------------------------------
  Minimizer      : CG                  : conjugate gradient
  Preconditioner : FULL_ALL            : diagonalization, state selective
  Precond_solver : DEFAULT
  Line search    : 2PNT                : 2 energies, one gradient
  stepsize       :    0.15000000                  energy_gap     :    0.08000000
  eps_taylor     :   0.10000E-15                  max_taylor     :             4
  ----------------------------------- OT ---------------------------------------

  Step     Update method      Time    Convergence         Total energy    Change
  ------------------------------------------------------------------------------
     1 OT CG       0.15E+00    0.3     0.01145463       -16.1082698235 -1.61E+01
     2 OT LS       0.21E+00    0.3                      -16.1095046362
     3 OT CG       0.21E+00    0.6     0.00143954       -16.1096113264 -1.34E-03
     4 OT LS       0.21E+00    0.3                      -16.1096329406
     5 OT CG       0.21E+00    0.6     0.00016428       -16.1096329484 -2.16E-05
     6 OT LS       0.15E+00    0.3                      -16.1096331076
     7 OT CG       0.15E+00    0.6     0.00003193       -16.1096331445 -1.96E-07

  *** SCF run converged in     7 steps ***


  Electronic density on regular grids:        -13.9999999998        0.0000000002
  Core density on regular grids:               13.9999999987       -0.0000000013
  Total charge density on r-space grids:       -0.0000000011
  Total charge density g-space grids:          -0.0000000011

  Overlap energy of the core charge distribution:               0.00001509185605
  Self energy of the core charge distribution:                -38.70122451907286
  Core Hamiltonian energy:                                     12.71961347787206
  Hartree energy:                                              15.50253540290866
  Exchange-correlation energy:                                 -5.63057259805466

  Total energy:                                               -16.10963314449074

  outer SCF iter =    1 RMS gradient =   0.32E-04 energy =        -16.1096331445
  outer SCF loop converged in   1 iterations or    7 steps


 ENERGY| Total FORCE_EVAL ( QS ) energy [a.u.]:              -16.109633153486683

 STRESS| Analytical stress tensor [GPa]
 STRESS|                        x                   y                   z
 STRESS|      x        2.03366609985E-02   1.45575308214E-02  -7.89305799760E-02
 STRESS|      y        1.45575308214E-02   4.99604907147E-03  -4.18531216868E-02
 STRESS|      z       -7.89305799760E-02  -4.18531216868E-02   6.20413941488E-02
 STRESS| 1/3 Trace                                             2.91247014062E-02
 STRESS| Determinant                                           2.25880527623E-05

 STRESS| Eigenvectors and eigenvalues of the analytical stress tensor [GPa]
 STRESS|                        1                   2                   3
 STRESS| Eigenvalues  -4.53693966290E-02  -3.65023942036E-03   1.36393740268E-01
 STRESS|      x           0.694556574773     -0.450111301777     -0.561240572706
 STRESS|      y           0.330342279192      0.892538786213     -0.306999175379
 STRESS|      z           0.639112778011      0.027826805747      0.768609475524

 Number of electrons:                                                         14
 Number of occupied orbitals:                                                  7
 Number of molecular orbitals:                                                 7

 Number of orbital functions:                                                 14
 Number of independent orbital functions:                                     14

 Extrapolation method: ASPC


 SCF WAVEFUNCTION OPTIMIZATION

  ----------------------------------- OT ---------------------------------------
  Minimizer      : CG                  : conjugate gradient
  Preconditioner : FULL_ALL            : diagonalization, state selective
  Precond_solver : DEFAULT
  Line search    : 2PNT                : 2 energies, one gradient
  stepsize       :    0.15000000                  energy_gap     :    0.08000000
  eps_taylor     :   0.10000E-15                  max_taylor     :             4
  ----------------------------------- OT ---------------------------------------

  Step     Update method      Time    Convergence         Total energy    Change
  ------------------------------------------------------------------------------
     1 OT CG       0.15E+00    0.3     0.01166578       -16.1068709496 -1.61E+01
     2 OT LS       0.21E+00    0.3                      -16.1081486796
     3 OT CG       0.21E+00    0.5     0.00145484       -16.1082533560 -1.38E-03
     4 OT LS       0.21E+00    0.3                      -16.1082754991
     5 OT CG       0.21E+00    0.6     0.00011991       -16.1082755234 -2.22E-05
     6 OT LS       0.17E+00    0.3                      -16.1082756362
     7 OT CG       0.17E+00    0.5     0.00002622       -16.1082756440 -1.21E-07

  *** SCF run converged in     7 steps ***


  Electronic density on regular grids:        -13.9999999998        0.0000000002
  Core density on regular grids:               13.9999999987       -0.0000000013
  Total charge density on r-space grids:       -0.0000000011
  Total charge density g-space grids:          -0.0000000011

  Overlap energy of the core charge distribution:               0.00001581359715
  Self energy of the core charge distribution:                -38.70122451907286
  Core Hamiltonian energy:                                     12.71761986282517
  Hartree energy:                                              15.50266647934736
  Exchange-correlation energy:                                 -5.62735328069625

  Total energy:                                               -16.10827564399943

  outer SCF iter =    1 RMS gradient =   0.26E-04 energy =        -16.1082756440
  outer SCF loop converged in   1 iterations or    7 steps


 ENERGY| Total FORCE_EVAL ( QS ) energy [a.u.]:              -16.108275649823668

 STRESS| Analytical stress tensor [GPa]
 STRESS|                        x                   y                   z
 STRESS|      x        7.92525677248E-03   8.93703679338E-03  -8.40794909683E-02
 STRESS|      y        8.93703679338E-03   2.16169241862E-03  -5.52217850683E-02
 STRESS|      z       -8.40794909683E-02  -5.52217850683E-02   6.04686912063E-03
 STRESS| 1/3 Trace                                             5.37793943724E-03
 STRESS| Determinant                                           4.31608785415E-05

 STRESS| Eigenvectors and eigenvalues of the analytical stress tensor [GPa]
 STRESS|                        1                   2                   3
 STRESS| Eigenvalues  -9.04649382017E-02  -4.30204835223E-03   1.10900804866E-01
 STRESS|      x           0.582651775494     -0.548153670254      0.600037050773
 STRESS|      y           0.373966908844      0.836327257929      0.400880866013
 STRESS|      z           0.721571659368      0.009179947275     -0.692278895363

 Number of electrons:                                                         14
 Number of occupied orbitals:                                                  7
 Number of molecular orbitals:                                                 7

 Number of orbital functions:                                                 14
 Number of independent orbital functions:                                     14

 Extrapolation method: ASPC


 SCF WAVEFUNCTION OPTIMIZATION

  ----------------------------------- OT ---------------------------------------
  Minimizer      : CG                  : conjugate gradient
  Preconditioner : FULL_ALL            : diagonalization, state selective
  Precond_solver : DEFAULT
  Line search    : 2PNT                : 2 energies, one gradient
  stepsize       :    0.15000000                  energy_gap     :    0.08000000
  eps_taylor     :   0.10000E-15                  max_taylor     :             4
  ----------------------------------- OT ---------------------------------------

  Step     Update method      Time    Convergence         Total energy    Change
  ------------------------------------------------------------------------------
     1 OT CG       0.15E+00    0.3     0.01197713       -16.1068215323 -1.61E+01
     2 OT LS       0.20E+00    0.3                      -16.1081533603
     3 OT CG       0.20E+00    0.5     0.00147365       -16.1082540162 -1.43E-03
     4 OT LS       0.22E+00    0.3                      -16.1082771772
     5 OT CG       0.22E+00    0.5     0.00010281       -16.1082772804 -2.33E-05
     6 OT LS       0.18E+00    0.3                      -16.1082773696
     7 OT CG       0.18E+00    0.6     0.00001911       -16.1082773737 -9.33E-08

  *** SCF run converged in     7 steps ***


  Electronic density on regular grids:        -13.9999999998        0.0000000002
  Core density on regular grids:               13.9999999987       -0.0000000013
  Total charge density on r-space grids:       -0.0000000011
  Total charge density g-space grids:          -0.0000000011

  Overlap energy of the core charge distribution:               0.00001581359715
  Self energy of the core charge distribution:                -38.70122451907286
  Core Hamiltonian energy:                                     12.71757786606867
  Hartree energy:                                              15.50269304499508
  Exchange-correlation energy:                                 -5.62733957930285

  Total energy:                                               -16.10827737371481

  outer SCF iter =    1 RMS gradient =   0.19E-04 energy =        -16.1082773737
  outer SCF loop converged in   1 iterations or    7 steps


 ENERGY| Total FORCE_EVAL ( QS ) energy [a.u.]:              -16.108277377029118

 STRESS| Analytical stress tensor [GPa]
 STRESS|                        x                   y                   z
 STRESS|      x        7.92489895019E-03   8.93165631854E-03  -8.40856337961E-02
 STRESS|      y        8.93165631854E-03   2.17975531367E-03  -5.52138481235E-02
 STRESS|      z       -8.40856337961E-02  -5.52138481235E-02   6.06132070661E-03
 STRESS| 1/3 Trace                                             5.38865832349E-03
 STRESS| Determinant                                           4.29836848433E-05

 STRESS| Eigenvectors and eigenvalues of the analytical stress tensor [GPa]
 STRESS|                        1                   2                   3
 STRESS| Eigenvalues  -9.04582373630E-02  -4.28440228128E-03   1.10908614615E-01
 STRESS|      x           0.582746246290     -0.548063209724      0.600027941502
 STRESS|      y           0.373868787552      0.836385631692      0.400850601589
 STRESS|      z           0.721546216212      0.009262464412     -0.692304315040

 Number of electrons:                                                         14
 Number of occupied orbitals:                                                  7
 Number of molecular orbitals:                                                 7

 Number of orbital functions:                                                 14
 Number of independent orbital functions:                                     14

 Extrapolation method: ASPC


 SCF WAVEFUNCTION OPTIMIZATION

  ----------------------------------- OT ---------------------------------------
  Minimizer      : CG                  : conjugate gradient
  Preconditioner : FULL_ALL            : diagonalization, state selective
  Precond_solver : DEFAULT
  Line search    : 2PNT                : 2 energies, one gradient
  stepsize       :    0.15000000                  energy_gap     :    0.08000000
  eps_taylor     :   0.10000E-15                  max_taylor     :             4
  ----------------------------------- OT ---------------------------------------

  Step     Update method      Time    Convergence         Total energy    Change
  ------------------------------------------------------------------------------
     1 OT CG       0.15E+00    0.3     0.01166478       -16.1055718957 -1.61E+01
     2 OT LS       0.20E+00    0.3                      -16.1068204225
     3 OT CG       0.20E+00    0.6     0.00136416       -16.1069007519 -1.33E-03
     4 OT LS       0.22E+00    0.3                      -16.1069205523
     5 OT CG       0.22E+00    0.6     0.00011846       -16.1069207271 -2.00E-05
     6 OT LS       0.17E+00    0.3                      -16.1069208313
     7 OT CG       0.17E+00    0.6     0.00002195       -16.1069208425 -1.15E-07

  *** SCF run converged in     7 steps ***


  Electronic density on regular grids:        -13.9999999997        0.0000000003
  Core density on regular grids:               13.9999999987       -0.0000000013
  Total charge density on r-space grids:       -0.0000000011
  Total charge density g-space grids:          -0.0000000011

  Overlap energy of the core charge distribution:               0.00001470443438
  Self energy of the core charge distribution:                -38.70122451907286
  Core Hamiltonian energy:                                     12.70759813370773
  Hartree energy:                                              15.50774950177005
  Exchange-correlation energy:                                 -5.62105866335137

  Total energy:                                               -16.10692084251207

  outer SCF iter =    1 RMS gradient =   0.22E-04 energy =        -16.1069208425
  outer SCF loop converged in   1 iterations or    7 steps


 ENERGY| Total FORCE_EVAL ( QS ) energy [a.u.]:              -16.106920846848766

 STRESS| Analytical stress tensor [GPa]
 STRESS|                        x                   y                   z
 STRESS|      x       -2.35812380707E-02  -9.47700102775E-03  -3.91328474575E-02
 STRESS|      y       -9.47700102775E-03  -1.22141561821E-02  -4.35299211494E-02
 STRESS|      z       -3.91328474575E-02  -4.35299211494E-02  -7.76020909214E-02
 STRESS| 1/3 Trace                                            -3.77991617247E-02
 STRESS| Determinant                                           1.57187079816E-05

 STRESS| Eigenvectors and eigenvalues of the analytical stress tensor [GPa]
 STRESS|                        1                   2                   3
 STRESS| Eigenvalues  -1.16109125801E-01  -1.03581455334E-02   1.30697861598E-02
 STRESS|      x           0.392621402842     -0.845246565293      0.362500590194
 STRESS|      y           0.385638637321      0.509129529898      0.769460826288
 STRESS|      z           0.834943875620      0.162312555418     -0.525854883896

 Number of electrons:                                                         14
 Number of occupied orbitals:                                                  7
 Number of molecular orbitals:                                                 7

 Number of orbital functions:                                                 14
 Number of independent orbital functions:                                     14

 Extrapolation method: ASPC


 SCF WAVEFUNCTION OPTIMIZATION

  ----------------------------------- OT ---------------------------------------
  Minimizer      : CG                  : conjugate gradient
  Preconditioner : FULL_ALL            : diagonalization, state selective
  Precond_solver : DEFAULT
  Line search    : 2PNT                : 2 energies, one gradient
  stepsize       :    0.15000000                  energy_gap     :    0.08000000
  eps_taylor     :   0.10000E-15                  max_taylor     :             4
  ----------------------------------- OT ---------------------------------------

  Step     Update method      Time    Convergence         Total energy    Change
  ------------------------------------------------------------------------------
     1 OT CG       0.15E+00    0.3     0.01142103       -16.1056624639 -1.61E+01
     2 OT LS       0.19E+00    0.3                      -16.1068388370
     3 OT CG       0.19E+00    0.6     0.00125306       -16.1069041123 -1.24E-03
     4 OT LS       0.22E+00    0.3                      -16.1069208471
     5 OT CG       0.22E+00    0.5     0.00019062       -16.1069210837 -1.70E-05
     6 OT LS       0.14E+00    0.3                      -16.1069212596
     7 OT CG       0.14E+00    0.5     0.00002667       -16.1069213363 -2.53E-07

  *** SCF run converged in     7 steps ***


  Electronic density on regular grids:        -13.9999999997        0.0000000003
  Core density on regular grids:               13.9999999987       -0.0000000013
  Total charge density on r-space grids:       -0.0000000011
  Total charge density g-space grids:          -0.0000000011

  Overlap energy of the core charge distribution:               0.00001470443438
  Self energy of the core charge distribution:                -38.70122451907286
  Core Hamiltonian energy:                                     12.70760633160006
  Hartree energy:                                              15.50773766220584
  Exchange-correlation energy:                                 -5.62105551544789

  Total energy:                                               -16.10692133628047

  outer SCF iter =    1 RMS gradient =   0.27E-04 energy =        -16.1069213363
  outer SCF loop converged in   1 iterations or    7 steps


 ENERGY| Total FORCE_EVAL ( QS ) energy [a.u.]:              -16.106921342464041

 STRESS| Analytical stress tensor [GPa]
 STRESS|                        x                   y                   z
 STRESS|      x       -2.35974144714E-02  -9.48604344062E-03  -3.91440331462E-02
 STRESS|      y       -9.48604344062E-03  -1.22182856231E-02  -4.35344173929E-02
 STRESS|      z       -3.91440331462E-02  -4.35344173929E-02  -7.75957589041E-02
 STRESS| 1/3 Trace                                            -3.78038196662E-02
 STRESS| Determinant                                           1.57239036481E-05

 STRESS| Eigenvectors and eigenvalues of the analytical stress tensor [GPa]
 STRESS|                        1                   2                   3
 STRESS| Eigenvalues  -1.16120789328E-01  -1.03604964057E-02   1.30698267354E-02
 STRESS|      x           0.392751140277     -0.845234969347      0.362387069863
 STRESS|      y           0.385662612084      0.509105242389      0.769464880169
 STRESS|      z           0.834871781444      0.162449065140     -0.525927190572

 Number of electrons:                                                         14
 Number of occupied orbitals:                                                  7
 Number of molecular orbitals:                                                 7

 Number of orbital functions:                                                 14
 Number of independent orbital functions:                                     14

 Extrapolation method: ASPC


 SCF WAVEFUNCTION OPTIMIZATION

  ----------------------------------- OT ---------------------------------------
  Minimizer      : CG                  : conjugate gradient
  Preconditioner : FULL_ALL            : diagonalization, state selective
  Precond_solver : DEFAULT
  Line search    : 2PNT                : 2 energies, one gradient
  stepsize       :    0.15000000                  energy_gap     :    0.08000000
  eps_taylor     :   0.10000E-15                  max_taylor     :             4
  ----------------------------------- OT ---------------------------------------

  Step     Update method      Time    Convergence         Total energy    Change
  ------------------------------------------------------------------------------
     1 OT CG       0.15E+00    0.3     0.01146831       -16.1038552363 -1.61E+01
     2 OT LS       0.19E+00    0.3                      -16.1050344424
     3 OT CG       0.19E+00    0.5     0.00122091       -16.1050927464 -1.24E-03
     4 OT LS       0.22E+00    0.3                      -16.1051083870
     5 OT CG       0.22E+00    0.6     0.00018873       -16.1051086155 -1.59E-05
     6 OT LS       0.15E+00    0.3                      -16.1051088261
     7 OT CG       0.15E+00    0.5     0.00002626       -16.1051088789 -2.63E-07

  *** SCF run converged in     7 steps ***


  Electronic density on regular grids:        -13.9999999998        0.0000000002
  Core density on regular grids:               13.9999999987       -0.0000000013
  Total charge density on r-space grids:       -0.0000000011
  Total charge density g-space grids:          -0.0000000011

  Overlap energy of the core charge distribution:               0.00001170636144
  Self energy of the core charge distribution:                -38.70122451907286
  Core Hamiltonian energy:                                     12.69086432642888
  Hartree energy:                                              15.51721338377575
  Exchange-correlation energy:                                 -5.61197377639393

  Total energy:                                               -16.10510887890072

  outer SCF iter =    1 RMS gradient =   0.26E-04 energy =        -16.1051088789
  outer SCF loop converged in   1 iterations or    7 steps


 ENERGY| Total FORCE_EVAL ( QS ) energy [a.u.]:              -16.105108884708610

 STRESS| Analytical stress tensor [GPa]
 STRESS|                        x                   y                   z
 STRESS|      x       -1.24992673983E-01  -7.52732815940E-02   6.92524084149E-03
 STRESS|      y       -7.52732815940E-02  -5.39114001482E-02  -8.86688920775E-03
 STRESS|      z        6.92524084149E-03  -8.86688920775E-03  -1.17455330682E-01
 STRESS| 1/3 Trace                                            -9.87864682707E-02
 STRESS| Determinant                                          -1.04309475182E-04

 STRESS| Eigenvectors and eigenvalues of the analytical stress tensor [GPa]
 STRESS|                        1                   2                   3
 STRESS| Eigenvalues  -1.72716209985E-01  -1.18548788994E-01  -5.09440583276E-03
 STRESS|      x           0.845231058750     -0.035952113765     -0.533190306401
 STRESS|      y           0.534017689710      0.094606654000      0.840163488909
 STRESS|      z          -0.020237697500      0.994865330854     -0.099163547058

 Number of electrons:                                                         14
 Number of occupied orbitals:                                                  7
 Number of molecular orbitals:                                                 7

 Number of orbital functions:                                                 14
 Number of independent orbital functions:                                     14

 Extrapolation method: ASPC


 SCF WAVEFUNCTION OPTIMIZATION

  ----------------------------------- OT ---------------------------------------
  Minimizer      : CG                  : conjugate gradient
  Preconditioner : FULL_ALL            : diagonalization, state selective
  Precond_solver : DEFAULT
  Line search    : 2PNT                : 2 energies, one gradient
  stepsize       :    0.15000000                  energy_gap     :    0.08000000
  eps_taylor     :   0.10000E-15                  max_taylor     :             4
  ----------------------------------- OT ---------------------------------------

  Step     Update method      Time    Convergence         Total energy    Change
  ------------------------------------------------------------------------------
     1 OT CG       0.15E+00    0.3     0.01187095       -16.1037715553 -1.61E+01
     2 OT LS       0.19E+00    0.3                      -16.1050291217
     3 OT CG       0.19E+00    0.5     0.00134842       -16.1050907750 -1.32E-03
     4 OT LS       0.21E+00    0.3                      -16.1051094287
     5 OT CG       0.21E+00    0.5     0.00027812       -16.1051095966 -1.88E-05
     6 OT LS       0.14E+00    0.3                      -16.1051100311
     7 OT CG       0.14E+00    0.5     0.00003245       -16.1051101453 -5.49E-07

  *** SCF run converged in     7 steps ***


  Electronic density on regular grids:        -13.9999999997        0.0000000003
  Core density on regular grids:               13.9999999987       -0.0000000013
  Total charge density on r-space grids:       -0.0000000011
  Total charge density g-space grids:          -0.0000000011

  Overlap energy of the core charge distribution:               0.00001170636144
  Self energy of the core charge distribution:                -38.70122451907286
  Core Hamiltonian energy:                                     12.69101352383121
  Hartree energy:                                              15.51709303258723
  Exchange-correlation energy:                                 -5.61200388895736

  Total energy:                                               -16.10511014525035

  outer SCF iter =    1 RMS gradient =   0.32E-04 energy =        -16.1051101453
  outer SCF loop converged in   1 iterations or    7 steps


 ENERGY| Total FORCE_EVAL ( QS ) energy [a.u.]:              -16.105110154209708

 STRESS| Analytical stress tensor [GPa]
 STRESS|                        x                   y                   z
 STRESS|      x       -1.25058156588E-01  -7.52912621678E-02   6.91637558351E-03
 STRESS|      y       -7.52912621678E-02  -5.38831067621E-02  -8.87820902999E-03
 STRESS|      z        6.91637558351E-03  -8.87820902999E-03  -1.17478045456E-01
 STRESS| 1/3 Trace                                            -9.88064362688E-02
 STRESS| Determinant                                          -1.03990387373E-04

 STRESS| Eigenvectors and eigenvalues of the analytical stress tensor [GPa]
 STRESS|                        1                   2                   3
 STRESS| Eigenvalues  -1.72770626084E-01  -1.18572474776E-01  -5.07620794669E-03
 STRESS|      x           0.845338249578     -0.036118536825     -0.533009094761
 STRESS|      y           0.533856178929      0.094501576882      0.840277949363
 STRESS|      z          -0.020020589890      0.994869289537     -0.099167901642

 Number of electrons:                                                         14
 Number of occupied orbitals:                                                  7
 Number of molecular orbitals:                                                 7

 Number of orbital functions:                                                 14
 Number of independent orbital functions:                                     14

 Extrapolation method: ASPC


 SCF WAVEFUNCTION OPTIMIZATION

  ----------------------------------- OT ---------------------------------------
  Minimizer      : CG                  : conjugate gradient
  Preconditioner : FULL_ALL            : diagonalization, state selective
  Precond_solver : DEFAULT
  Line search    : 2PNT                : 2 energies, one gradient
  stepsize       :    0.15000000                  energy_gap     :    0.08000000
  eps_taylor     :   0.10000E-15                  max_taylor     :             4
  ----------------------------------- OT ---------------------------------------

  Step     Update method      Time    Convergence         Total energy    Change
  ------------------------------------------------------------------------------
     1 OT CG       0.15E+00    0.3     0.01103787       -16.1024951195 -1.61E+01
     2 OT LS       0.19E+00    0.3                      -16.1035836941
     3 OT CG       0.19E+00    0.6     0.00128877       -16.1036356702 -1.14E-03
     4 OT LS       0.21E+00    0.3                      -16.1036527159
     5 OT CG       0.21E+00    0.6     0.00024191       -16.1036528860 -1.72E-05
     6 OT LS       0.15E+00    0.3                      -16.1036532360
     7 OT CG       0.15E+00    0.6     0.00003154       -16.1036533133 -4.27E-07

  *** SCF run converged in     7 steps ***


  Electronic density on regular grids:        -13.9999999998        0.0000000002
  Core density on regular grids:               13.9999999987       -0.0000000013
  Total charge density on r-space grids:       -0.0000000011
  Total charge density g-space grids:          -0.0000000011

  Overlap energy of the core charge distribution:               0.00000963345518
  Self energy of the core charge distribution:                -38.70122451907286
  Core Hamiltonian energy:                                     12.67967792937815
  Hartree energy:                                              15.52370301894027
  Exchange-correlation energy:                                 -5.60581937595610

  Total energy:                                               -16.10365331325535

  outer SCF iter =    1 RMS gradient =   0.32E-04 energy =        -16.1036533133
  outer SCF loop converged in   1 iterations or    7 steps


 ENERGY| Total FORCE_EVAL ( QS ) energy [a.u.]:              -16.103653321545671

 STRESS| Analytical stress tensor [GPa]
 STRESS|                        x                   y                   z
 STRESS|      x       -1.91524321259E-01  -1.16325748818E-01   3.52693284510E-02
 STRESS|      y       -1.16325748818E-01  -8.12504380100E-02   5.83856715300E-03
 STRESS|      z        3.52693284510E-02   5.83856715300E-03  -1.47940340449E-01
 STRESS| 1/3 Trace                                            -1.40238366573E-01
 STRESS| Determinant                                          -2.40592468764E-04

 STRESS| Eigenvectors and eigenvalues of the analytical stress tensor [GPa]
 STRESS|                        1                   2                   3
 STRESS| Eigenvalues  -2.73784154922E-01  -1.40684581864E-01  -6.24636293192E-03
 STRESS|      x           0.824295078591      0.161261315188     -0.542708403874
 STRESS|      y           0.505742898413      0.221139030667      0.833859490454
 STRESS|      z          -0.254483288480      0.961817195386     -0.100727049718

 Number of electrons:                                                         14
 Number of occupied orbitals:                                                  7
 Number of molecular orbitals:                                                 7

 Number of orbital functions:                                                 14
 Number of independent orbital functions:                                     14

 Extrapolation method: ASPC


 SCF WAVEFUNCTION OPTIMIZATION

  ----------------------------------- OT ---------------------------------------
  Minimizer      : CG                  : conjugate gradient
  Preconditioner : FULL_ALL            : diagonalization, state selective
  Precond_solver : DEFAULT
  Line search    : 2PNT                : 2 energies, one gradient
  stepsize       :    0.15000000                  energy_gap     :    0.08000000
  eps_taylor     :   0.10000E-15                  max_taylor     :             4
  ----------------------------------- OT ---------------------------------------

  Step     Update method      Time    Convergence         Total energy    Change
  ------------------------------------------------------------------------------
     1 OT CG       0.15E+00    0.3     0.01019523       -16.1026717481 -1.61E+01
     2 OT LS       0.19E+00    0.3                      -16.1035975042
     3 OT CG       0.19E+00    0.6     0.00125349       -16.1036415666 -9.70E-04
     4 OT LS       0.21E+00    0.4                      -16.1036574431
     5 OT CG       0.21E+00    0.6     0.00028409       -16.1036575499 -1.60E-05
     6 OT LS       0.15E+00    0.3                      -16.1036580188
     7 OT CG       0.15E+00    0.6     0.00003130       -16.1036581238 -5.74E-07

  *** SCF run converged in     7 steps ***


  Electronic density on regular grids:        -13.9999999997        0.0000000003
  Core density on regular grids:               13.9999999987       -0.0000000013
  Total charge density on r-space grids:       -0.0000000010
  Total charge density g-space grids:          -0.0000000010

  Overlap energy of the core charge distribution:               0.00000963345518
  Self energy of the core charge distribution:                -38.70122451907286
  Core Hamiltonian energy:                                     12.67981759563913
  Hartree energy:                                              15.52359324453504
  Exchange-correlation energy:                                 -5.60585407840383

  Total energy:                                               -16.10365812384733

  outer SCF iter =    1 RMS gradient =   0.31E-04 energy =        -16.1036581238
  outer SCF loop converged in   1 iterations or    7 steps


 ENERGY| Total FORCE_EVAL ( QS ) energy [a.u.]:              -16.103658132273132

 STRESS| Analytical stress tensor [GPa]
 STRESS|                        x                   y                   z
 STRESS|      x       -1.91570526645E-01  -1.16332370736E-01   3.52693532695E-02
 STRESS|      y       -1.16332370736E-01  -8.11740079341E-02   5.83431194719E-03
 STRESS|      z        3.52693532695E-02   5.83431194719E-03  -1.47958100453E-01
 STRESS| 1/3 Trace                                            -1.40234211677E-01
 STRESS| Determinant                                          -2.38860381066E-04

 STRESS| Eigenvectors and eigenvalues of the analytical stress tensor [GPa]
 STRESS|                        1                   2                   3
 STRESS| Eigenvalues  -2.73801596880E-01  -1.40700752116E-01  -6.20028603595E-03
 STRESS|      x           0.824394290090      0.161347360566     -0.542532103848
 STRESS|      y           0.505579187712      0.221049267872      0.833982557447
 STRESS|      z          -0.254487208754      0.961823398765     -0.100657886768

 Number of electrons:                                                         14
 Number of occupied orbitals:                                                  7
 Number of molecular orbitals:                                                 7

 Number of orbital functions:                                                 14
 Number of independent orbital functions:                                     14

 Extrapolation method: ASPC


 SCF WAVEFUNCTION OPTIMIZATION

  ----------------------------------- OT ---------------------------------------
  Minimizer      : CG                  : conjugate gradient
  Preconditioner : FULL_ALL            : diagonalization, state selective
  Precond_solver : DEFAULT
  Line search    : 2PNT                : 2 energies, one gradient
  stepsize       :    0.15000000                  energy_gap     :    0.08000000
  eps_taylor     :   0.10000E-15                  max_taylor     :             4
  ----------------------------------- OT ---------------------------------------

  Step     Update method      Time    Convergence         Total energy    Change
  ------------------------------------------------------------------------------
     1 OT CG       0.15E+00    0.3     0.00871710       -16.1017228317 -1.61E+01
     2 OT LS       0.19E+00    0.3                      -16.1023985291
     3 OT CG       0.19E+00    0.6     0.00103770       -16.1024292222 -7.06E-04
     4 OT LS       0.21E+00    0.3                      -16.1024402809
     5 OT CG       0.21E+00    0.6     0.00020992       -16.1024404079 -1.12E-05
     6 OT LS       0.15E+00    0.3                      -16.1024406576
     7 OT CG       0.15E+00    0.6     0.00002707       -16.1024407231 -3.15E-07

  *** SCF run converged in     7 steps ***


  Electronic density on regular grids:        -13.9999999997        0.0000000003
  Core density on regular grids:               13.9999999987       -0.0000000013
  Total charge density on r-space grids:       -0.0000000010
  Total charge density g-space grids:          -0.0000000010

  Overlap energy of the core charge distribution:               0.00000767410638
  Self energy of the core charge distribution:                -38.70122451907286
  Core Hamiltonian energy:                                     12.67307378003436
  Hartree energy:                                              15.52764959206365
  Exchange-correlation energy:                                 -5.60194725020745

  Total energy:                                               -16.10244072307593

  outer SCF iter =    1 RMS gradient =   0.27E-04 energy =        -16.1024407231
  outer SCF loop converged in   1 iterations or    7 steps


 ENERGY| Total FORCE_EVAL ( QS ) energy [a.u.]:              -16.102440729307059

 STRESS| Analytical stress tensor [GPa]
 STRESS|                        x                   y                   z
 STRESS|      x       -2.42501091733E-01  -1.41651252246E-01   9.77806782563E-02
 STRESS|      y       -1.41651252246E-01  -9.01229792702E-02   5.21488590111E-02
 STRESS|      z        9.77806782563E-02   5.21488590111E-02  -1.67930571145E-01
 STRESS| 1/3 Trace                                            -1.66851547382E-01
 STRESS| Determinant                                          -2.24017779004E-04

 STRESS| Eigenvectors and eigenvalues of the analytical stress tensor [GPa]
 STRESS|                        1                   2                   3
 STRESS| Eigenvalues  -3.83900816437E-01  -1.11416444874E-01  -5.23738083587E-03
 STRESS|      x           0.767178061820      0.368224387557     -0.525212930029
 STRESS|      y           0.450894514517      0.272787447459      0.849871252183
 STRESS|      z          -0.456214815893      0.888818209150     -0.043246188769

 Number of electrons:                                                         14
 Number of occupied orbitals:                                                  7
 Number of molecular orbitals:                                                 7

 Number of orbital functions:                                                 14
 Number of independent orbital functions:                                     14

 Extrapolation method: ASPC


 SCF WAVEFUNCTION OPTIMIZATION

  ----------------------------------- OT ---------------------------------------
  Minimizer      : CG                  : conjugate gradient
  Preconditioner : FULL_ALL            : diagonalization, state selective
  Precond_solver : DEFAULT
  Line search    : 2PNT                : 2 energies, one gradient
  stepsize       :    0.15000000                  energy_gap     :    0.08000000
  eps_taylor     :   0.10000E-15                  max_taylor     :             4
  ----------------------------------- OT ---------------------------------------

  Step     Update method      Time    Convergence         Total energy    Change
  ------------------------------------------------------------------------------
     1 OT CG       0.15E+00    0.3     0.00768612       -16.1018824980 -1.61E+01
     2 OT LS       0.19E+00    0.3                      -16.1024070537
     3 OT CG       0.19E+00    0.5     0.00092725       -16.1024310048 -5.49E-04
     4 OT LS       0.21E+00    0.3                      -16.1024398248
     5 OT CG       0.21E+00    0.6     0.00020021       -16.1024399212 -8.92E-06
     6 OT LS       0.14E+00    0.3                      -16.1024401424
     7 OT CG       0.14E+00    0.6     0.00002404       -16.1024402042 -2.83E-07

  *** SCF run converged in     7 steps ***


  Electronic density on regular grids:        -13.9999999997        0.0000000003
  Core density on regular grids:               13.9999999987       -0.0000000013
  Total charge density on r-space grids:       -0.0000000011
  Total charge density g-space grids:          -0.0000000011

  Overlap energy of the core charge distribution:               0.00000767410638
  Self energy of the core charge distribution:                -38.70122451907286
  Core Hamiltonian energy:                                     12.67317532521992
  Hartree energy:                                              15.52757065973971
  Exchange-correlation energy:                                 -5.60196934416640

  Total energy:                                               -16.10244020417325

  outer SCF iter =    1 RMS gradient =   0.24E-04 energy =        -16.1024402042
  outer SCF loop converged in   1 iterations or    7 steps


 ENERGY| Total FORCE_EVAL ( QS ) energy [a.u.]:              -16.102440209189105

 STRESS| Analytical stress tensor [GPa]
 STRESS|                        x                   y                   z
 STRESS|      x       -2.42538478095E-01  -1.41661838418E-01   9.77794250507E-02
 STRESS|      y       -1.41661838418E-01  -9.01141294631E-02   5.21512898110E-02
 STRESS|      z        9.77794250507E-02   5.21512898110E-02  -1.67950501714E-01
 STRESS| 1/3 Trace                                            -1.66867703091E-01
 STRESS| Determinant                                          -2.23855450130E-04

 STRESS| Eigenvectors and eigenvalues of the analytical stress tensor [GPa]
 STRESS|                        1                   2                   3
 STRESS| Eigenvalues  -3.83932616795E-01  -1.11438369865E-01  -5.23212261294E-03
 STRESS|      x           0.767202496290      0.368262094322     -0.525150796984
 STRESS|      y           0.450871987384      0.272693277493      0.849913423475
 STRESS|      z          -0.456195989328      0.888831483632     -0.043171900869

 Number of electrons:                                                         14
 Number of occupied orbitals:                                                  7
 Number of molecular orbitals:                                                 7

 Number of orbital functions:                                                 14
 Number of independent orbital functions:                                     14

 Extrapolation method: ASPC


 SCF WAVEFUNCTION OPTIMIZATION

  ----------------------------------- OT ---------------------------------------
  Minimizer      : CG                  : conjugate gradient
  Preconditioner : FULL_ALL            : diagonalization, state selective
  Precond_solver : DEFAULT
  Line search    : 2PNT                : 2 energies, one gradient
  stepsize       :    0.15000000                  energy_gap     :    0.08000000
  eps_taylor     :   0.10000E-15                  max_taylor     :             4
  ----------------------------------- OT ---------------------------------------

  Step     Update method      Time    Convergence         Total energy    Change
  ------------------------------------------------------------------------------
     1 OT CG       0.15E+00    0.3     0.00696320       -16.1008411402 -1.61E+01
     2 OT LS       0.19E+00    0.3                      -16.1012792382
     3 OT CG       0.19E+00    0.5     0.00089112       -16.1013034640 -4.62E-04
     4 OT LS       0.22E+00    0.3                      -16.1013119494
     5 OT CG       0.22E+00    0.6     0.00009571       -16.1013120756 -8.61E-06

  *** SCF run converged in     5 steps ***


  Electronic density on regular grids:        -13.9999999997        0.0000000003
  Core density on regular grids:               13.9999999987       -0.0000000013
  Total charge density on r-space grids:       -0.0000000011
  Total charge density g-space grids:          -0.0000000011

  Overlap energy of the core charge distribution:               0.00000806972270
  Self energy of the core charge distribution:                -38.70122451907286
  Core Hamiltonian energy:                                     12.68379763379277
  Hartree energy:                                              15.52131966173443
  Exchange-correlation energy:                                 -5.60521292180880

  Total energy:                                               -16.10131207563176

  outer SCF iter =    1 RMS gradient =   0.96E-04 energy =        -16.1013120756
  outer SCF loop converged in   1 iterations or    5 steps


 ENERGY| Total FORCE_EVAL ( QS ) energy [a.u.]:              -16.101312127764775

 STRESS| Analytical stress tensor [GPa]
 STRESS|                        x                   y                   z
 STRESS|      x       -2.23295168591E-01  -1.13354343589E-01   1.92353176964E-01
 STRESS|      y       -1.13354343589E-01  -5.87548048697E-02   1.21986179107E-01
 STRESS|      z        1.92353176964E-01   1.21986179107E-01  -1.60993243089E-01
 STRESS| 1/3 Trace                                            -1.47681072183E-01
 STRESS| Determinant                                           1.33553452425E-04

 STRESS| Eigenvectors and eigenvalues of the analytical stress tensor [GPa]
 STRESS|                        1                   2                   3
 STRESS| Eigenvalues  -4.56001285801E-01  -1.18200757889E-02   2.47781450402E-02
 STRESS|      x           0.692160168372     -0.696196270452      0.190328805827
 STRESS|      y           0.384978775268      0.579189956258      0.718561296734
 STRESS|      z          -0.610496227598     -0.424086957568      0.668913005187

 Number of electrons:                                                         14
 Number of occupied orbitals:                                                  7
 Number of molecular orbitals:                                                 7

 Number of orbital functions:                                                 14
 Number of independent orbital functions:                                     14

 Extrapolation method: ASPC


 SCF WAVEFUNCTION OPTIMIZATION

  ----------------------------------- OT ---------------------------------------
  Minimizer      : CG                  : conjugate gradient
  Preconditioner : FULL_ALL            : diagonalization, state selective
  Precond_solver : DEFAULT
  Line search    : 2PNT                : 2 energies, one gradient
  stepsize       :    0.15000000                  energy_gap     :    0.08000000
  eps_taylor     :   0.10000E-15                  max_taylor     :             4
  ----------------------------------- OT ---------------------------------------

  Step     Update method      Time    Convergence         Total energy    Change
  ------------------------------------------------------------------------------
     1 OT CG       0.15E+00    0.5     0.00699762       -16.1008215565 -1.61E+01
     2 OT LS       0.20E+00    0.5                      -16.1012712803
     3 OT CG       0.20E+00    0.8     0.00109244       -16.1013010509 -4.79E-04
     4 OT LS       0.20E+00    0.5                      -16.1013124849
     5 OT CG       0.20E+00    0.9     0.00025605       -16.1013124899 -1.14E-05
     6 OT LS       0.14E+00    0.4                      -16.1013128974
     7 OT CG       0.14E+00    0.6     0.00001994       -16.1013129551 -4.65E-07

  *** SCF run converged in     7 steps ***


  Electronic density on regular grids:        -13.9999999997        0.0000000003
  Core density on regular grids:               13.9999999987       -0.0000000013
  Total charge density on r-space grids:       -0.0000000010
  Total charge density g-space grids:          -0.0000000010

  Overlap energy of the core charge distribution:               0.00000806972270
  Self energy of the core charge distribution:                -38.70122451907286
  Core Hamiltonian energy:                                     12.68409373161098
  Hartree energy:                                              15.52109027698985
  Exchange-correlation energy:                                 -5.60528051431518

  Total energy:                                               -16.10131295506451

  outer SCF iter =    1 RMS gradient =   0.20E-04 energy =        -16.1013129551
  outer SCF loop converged in   1 iterations or    7 steps


 ENERGY| Total FORCE_EVAL ( QS ) energy [a.u.]:              -16.101312958869482

 STRESS| Analytical stress tensor [GPa]
 STRESS|                        x                   y                   z
 STRESS|      x       -2.23410137313E-01  -1.13402882608E-01   1.92367956060E-01
 STRESS|      y       -1.13402882608E-01  -5.87644379683E-02   1.21992004923E-01
 STRESS|      z        1.92367956060E-01   1.21992004923E-01  -1.60977882608E-01
 STRESS| 1/3 Trace                                            -1.47717485963E-01
 STRESS| Determinant                                           1.33673520812E-04

 STRESS| Eigenvectors and eigenvalues of the analytical stress tensor [GPa]
 STRESS|                        1                   2                   3
 STRESS| Eigenvalues  -4.56093175435E-01  -1.18312625274E-02   2.47719800728E-02
 STRESS|      x           0.692256952664     -0.696213325774      0.189913971319
 STRESS|      y           0.384985255929      0.578875698178      0.718811017428
 STRESS|      z          -0.610382391788     -0.424487845614      0.668762592196

 Number of electrons:                                                         14
 Number of occupied orbitals:                                                  7
 Number of molecular orbitals:                                                 7

 Number of orbital functions:                                                 14
 Number of independent orbital functions:                                     14

 Extrapolation method: ASPC


 SCF WAVEFUNCTION OPTIMIZATION

  ----------------------------------- OT ---------------------------------------
  Minimizer      : CG                  : conjugate gradient
  Preconditioner : FULL_ALL            : diagonalization, state selective
  Precond_solver : DEFAULT
  Line search    : 2PNT                : 2 energies, one gradient
  stepsize       :    0.15000000                  energy_gap     :    0.08000000
  eps_taylor     :   0.10000E-15                  max_taylor     :             4
  ----------------------------------- OT ---------------------------------------

  Step     Update method      Time    Convergence         Total energy    Change
  ------------------------------------------------------------------------------
     1 OT CG       0.15E+00    0.4     0.00616136       -16.0990996138 -1.61E+01
     2 OT LS       0.20E+00    0.4                      -16.0994516463
     3 OT CG       0.20E+00    0.7     0.00125479       -16.0994776778 -3.78E-04
     4 OT LS       0.17E+00    0.4                      -16.0994897524
     5 OT CG       0.17E+00    0.7     0.00028765       -16.0994904308 -1.28E-05
     6 OT LS       0.17E+00    0.4                      -16.0994911196
     7 OT CG       0.17E+00    0.6     0.00001855       -16.0994911201 -6.89E-07

  *** SCF run converged in     7 steps ***


  Electronic density on regular grids:        -13.9999999997        0.0000000003
  Core density on regular grids:               13.9999999987       -0.0000000013
  Total charge density on r-space grids:       -0.0000000010
  Total charge density g-space grids:          -0.0000000010

  Overlap energy of the core charge distribution:               0.00001154275643
  Self energy of the core charge distribution:                -38.70122451907286
  Core Hamiltonian energy:                                     12.70660515772967
  Hartree energy:                                              15.50844144603889
  Exchange-correlation energy:                                 -5.61332474759414

  Total energy:                                               -16.09949112014201

  outer SCF iter =    1 RMS gradient =   0.19E-04 energy =        -16.0994911201
  outer SCF loop converged in   1 iterations or    7 steps


 ENERGY| Total FORCE_EVAL ( QS ) energy [a.u.]:              -16.099491123677787

 STRESS| Analytical stress tensor [GPa]
 STRESS|                        x                   y                   z
 STRESS|      x       -1.48935103918E-01  -5.61969874596E-02   2.47666689203E-01
 STRESS|      y       -5.61969874596E-02  -1.25606126050E-02   1.71217535818E-01
 STRESS|      z        2.47666689203E-01   1.71217535818E-01  -1.21605247376E-01
 STRESS| 1/3 Trace                                            -9.43669879662E-02
 STRESS| Determinant                                           5.27051306763E-04

 STRESS| Eigenvectors and eigenvalues of the analytical stress tensor [GPa]
 STRESS|                        1                   2                   3
 STRESS| Eigenvalues  -4.43462621841E-01  -7.09721105647E-03   1.67458868999E-01
 STRESS|      x           0.640528242009     -0.613721619974      0.461594350447
 STRESS|      y           0.354263213233      0.769453163552      0.531450284457
 STRESS|      z          -0.681337762743     -0.176883018619      0.710275475281

 Number of electrons:                                                         14
 Number of occupied orbitals:                                                  7
 Number of molecular orbitals:                                                 7

 Number of orbital functions:                                                 14
 Number of independent orbital functions:                                     14

 Extrapolation method: ASPC


 SCF WAVEFUNCTION OPTIMIZATION

  ----------------------------------- OT ---------------------------------------
  Minimizer      : CG                  : conjugate gradient
  Preconditioner : FULL_ALL            : diagonalization, state selective
  Precond_solver : DEFAULT
  Line search    : 2PNT                : 2 energies, one gradient
  stepsize       :    0.15000000                  energy_gap     :    0.08000000
  eps_taylor     :   0.10000E-15                  max_taylor     :             4
  ----------------------------------- OT ---------------------------------------

  Step     Update method      Time    Convergence         Total energy    Change
  ------------------------------------------------------------------------------
     1 OT CG       0.15E+00    0.4     0.00564950       -16.0991571059 -1.61E+01
     2 OT LS       0.20E+00    0.4                      -16.0994545290
     3 OT CG       0.20E+00    0.8     0.00139290       -16.0994773480 -3.20E-04
     4 OT LS       0.15E+00    0.4                      -16.0994905358
     5 OT CG       0.15E+00    0.8     0.00022853       -16.0994920586 -1.47E-05
     6 OT LS       0.18E+00    0.5                      -16.0994925073
     7 OT CG       0.18E+00    0.9     0.00001752       -16.0994925151 -4.56E-07

  *** SCF run converged in     7 steps ***


  Electronic density on regular grids:        -13.9999999997        0.0000000003
  Core density on regular grids:               13.9999999987       -0.0000000013
  Total charge density on r-space grids:       -0.0000000010
  Total charge density g-space grids:          -0.0000000010

  Overlap energy of the core charge distribution:               0.00001154275643
  Self energy of the core charge distribution:                -38.70122451907286
  Core Hamiltonian energy:                                     12.70659899770598
  Hartree energy:                                              15.50844124093561
  Exchange-correlation energy:                                 -5.61331977743510

  Total energy:                                               -16.09949251510994

  outer SCF iter =    1 RMS gradient =   0.18E-04 energy =        -16.0994925151
  outer SCF loop converged in   1 iterations or    7 steps


 ENERGY| Total FORCE_EVAL ( QS ) energy [a.u.]:              -16.099492518166198

 STRESS| Analytical stress tensor [GPa]
 STRESS|                        x                   y                   z
 STRESS|      x       -1.48950642333E-01  -5.62027393486E-02   2.47668200963E-01
 STRESS|      y       -5.62027393486E-02  -1.25590631825E-02   1.71219947440E-01
 STRESS|      z        2.47668200963E-01   1.71219947440E-01  -1.21589601589E-01
 STRESS| 1/3 Trace                                            -9.43664357015E-02
 STRESS| Determinant                                           5.27022943237E-04

 STRESS| Eigenvectors and eigenvalues of the analytical stress tensor [GPa]
 STRESS|                        1                   2                   3
 STRESS| Eigenvalues  -4.43466633864E-01  -7.09655258404E-03   1.67463879344E-01
 STRESS|      x           0.640547710378     -0.613721484892      0.461567513709
 STRESS|      y           0.354265747253      0.769448157250      0.531455843535
 STRESS|      z          -0.681318142319     -0.176905263592      0.710288755832

 Number of electrons:                                                         14
 Number of occupied orbitals:                                                  7
 Number of molecular orbitals:                                                 7

 Number of orbital functions:                                                 14
 Number of independent orbital functions:                                     14

 Extrapolation method: ASPC


 SCF WAVEFUNCTION OPTIMIZATION

  ----------------------------------- OT ---------------------------------------
  Minimizer      : CG                  : conjugate gradient
  Preconditioner : FULL_ALL            : diagonalization, state selective
  Precond_solver : DEFAULT
  Line search    : 2PNT                : 2 energies, one gradient
  stepsize       :    0.15000000                  energy_gap     :    0.08000000
  eps_taylor     :   0.10000E-15                  max_taylor     :             4
  ----------------------------------- OT ---------------------------------------

  Step     Update method      Time    Convergence         Total energy    Change
  ------------------------------------------------------------------------------
     1 OT CG       0.15E+00    0.5     0.00505827       -16.0992120734 -1.61E+01
     2 OT LS       0.19E+00    0.5                      -16.0994435113
     3 OT CG       0.19E+00    0.6     0.00148964       -16.0994565795 -2.45E-04
     4 OT LS       0.16E+00    0.3                      -16.0994733212
     5 OT CG       0.16E+00    0.8     0.00014939       -16.0994741018 -1.75E-05
     6 OT LS       0.18E+00    0.5                      -16.0994742981
     7 OT CG       0.18E+00    0.9     0.00001849       -16.0994743007 -1.99E-07

  *** SCF run converged in     7 steps ***


  Electronic density on regular grids:        -13.9999999997        0.0000000003
  Core density on regular grids:               13.9999999987       -0.0000000013
  Total charge density on r-space grids:       -0.0000000010
  Total charge density g-space grids:          -0.0000000010

  Overlap energy of the core charge distribution:               0.00001488733680
  Self energy of the core charge distribution:                -38.70122451907286
  Core Hamiltonian energy:                                     12.73951002302553
  Hartree energy:                                              15.48867007309303
  Exchange-correlation energy:                                 -5.62644476510963

  Total energy:                                               -16.09947430072714

  outer SCF iter =    1 RMS gradient =   0.18E-04 energy =        -16.0994743007
  outer SCF loop converged in   1 iterations or    7 steps


 ENERGY| Total FORCE_EVAL ( QS ) energy [a.u.]:              -16.099474303809110

 STRESS| Analytical stress tensor [GPa]
 STRESS|                        x                   y                   z
 STRESS|      x       -5.20854725186E-03   4.12444233632E-02   2.57691968748E-01
 STRESS|      y        4.12444233632E-02   5.66252838762E-02   1.86667944836E-01
 STRESS|      z        2.57691968748E-01   1.86667944836E-01  -8.03319830434E-02
 STRESS| 1/3 Trace                                            -9.63841547301E-03
 STRESS| Determinant                                           5.49573581120E-04

 STRESS| Eigenvectors and eigenvalues of the analytical stress tensor [GPa]
 STRESS|                        1                   2                   3
 STRESS| Eigenvalues  -3.39986554003E-01  -5.11239758818E-03   3.16183705172E-01
 STRESS|      x          -0.556856009141      0.605819777961      0.568237434278
 STRESS|      y          -0.305601405093     -0.785567824268      0.538043654995
 STRESS|      z           0.772346532515      0.125958684123      0.622587538910

 Number of electrons:                                                         14
 Number of occupied orbitals:                                                  7
 Number of molecular orbitals:                                                 7

 Number of orbital functions:                                                 14
 Number of independent orbital functions:                                     14

 Extrapolation method: ASPC


 SCF WAVEFUNCTION OPTIMIZATION

  ----------------------------------- OT ---------------------------------------
  Minimizer      : CG                  : conjugate gradient
  Preconditioner : FULL_ALL            : diagonalization, state selective
  Precond_solver : DEFAULT
  Line search    : 2PNT                : 2 energies, one gradient
  stepsize       :    0.15000000                  energy_gap     :    0.08000000
  eps_taylor     :   0.10000E-15                  max_taylor     :             4
  ----------------------------------- OT ---------------------------------------

  Step     Update method      Time    Convergence         Total energy    Change
  ------------------------------------------------------------------------------
     1 OT CG       0.15E+00    0.5     0.00513751       -16.0992148990 -1.61E+01
     2 OT LS       0.19E+00    0.5                      -16.0994469513
     3 OT CG       0.19E+00    0.9     0.00158195       -16.0994562173 -2.41E-04
     4 OT LS       0.17E+00    0.5                      -16.0994766592
     5 OT CG       0.17E+00    0.7     0.00013122       -16.0994768927 -2.07E-05
     6 OT LS       0.18E+00    0.4                      -16.0994770410
     7 OT CG       0.18E+00    0.8     0.00002132       -16.0994770412 -1.49E-07

  *** SCF run converged in     7 steps ***


  Electronic density on regular grids:        -13.9999999997        0.0000000003
  Core density on regular grids:               13.9999999987       -0.0000000013
  Total charge density on r-space grids:       -0.0000000010
  Total charge density g-space grids:          -0.0000000010

  Overlap energy of the core charge distribution:               0.00001488733680
  Self energy of the core charge distribution:                -38.70122451907286
  Core Hamiltonian energy:                                     12.73950857548923
  Hartree energy:                                              15.48866176588862
  Exchange-correlation energy:                                 -5.62643775086037

  Total energy:                                               -16.09947704121858

  outer SCF iter =    1 RMS gradient =   0.21E-04 energy =        -16.0994770412
  outer SCF loop converged in   1 iterations or    7 steps


 ENERGY| Total FORCE_EVAL ( QS ) energy [a.u.]:              -16.099477045394472

 STRESS| Analytical stress tensor [GPa]
 STRESS|                        x                   y                   z
 STRESS|      x       -5.20171915185E-03   4.12359841145E-02   2.57699938069E-01
 STRESS|      y        4.12359841145E-02   5.66307860623E-02   1.86675009590E-01
 STRESS|      z        2.57699938069E-01   1.86675009590E-01  -8.03432219873E-02
 STRESS| 1/3 Trace                                            -9.63805169231E-03
 STRESS| Determinant                                           5.48150076546E-04

 STRESS| Eigenvectors and eigenvalues of the analytical stress tensor [GPa]
 STRESS|                        1                   2                   3
 STRESS| Eigenvalues  -3.40003689460E-01  -5.09882344852E-03   3.16188357832E-01
 STRESS|      x          -0.556844029275      0.605827734954      0.568240690747
 STRESS|      y          -0.305612763574     -0.785563992213      0.538042798371
 STRESS|      z           0.772350675407      0.125944311892      0.622585307007

 Number of electrons:                                                         14
 Number of occupied orbitals:                                                  7
 Number of molecular orbitals:                                                 7

 Number of orbital functions:                                                 14
 Number of independent orbital functions:                                     14

 Extrapolation method: ASPC


 SCF WAVEFUNCTION OPTIMIZATION

  ----------------------------------- OT ---------------------------------------
  Minimizer      : CG                  : conjugate gradient
  Preconditioner : FULL_ALL            : diagonalization, state selective
  Precond_solver : DEFAULT
  Line search    : 2PNT                : 2 energies, one gradient
  stepsize       :    0.15000000                  energy_gap     :    0.08000000
  eps_taylor     :   0.10000E-15                  max_taylor     :             4
  ----------------------------------- OT ---------------------------------------

  Step     Update method      Time    Convergence         Total energy    Change
  ------------------------------------------------------------------------------
     1 OT CG       0.15E+00    0.4     0.00550891       -16.1008650474 -1.61E+01
     2 OT LS       0.21E+00    0.4                      -16.1011486603
     3 OT CG       0.21E+00    0.9     0.00155520       -16.1011712485 -3.06E-04
     4 OT LS       0.16E+00    0.5                      -16.1011881485
     5 OT CG       0.16E+00    0.8     0.00016289       -16.1011899149 -1.87E-05
     6 OT LS       0.17E+00    0.5                      -16.1011901348
     7 OT CG       0.17E+00    0.8     0.00002514       -16.1011901360 -2.21E-07

  *** SCF run converged in     7 steps ***


  Electronic density on regular grids:        -13.9999999997        0.0000000003
  Core density on regular grids:               13.9999999987       -0.0000000013
  Total charge density on r-space grids:       -0.0000000010
  Total charge density g-space grids:          -0.0000000010

  Overlap energy of the core charge distribution:               0.00001771578903
  Self energy of the core charge distribution:                -38.70122451907286
  Core Hamiltonian energy:                                     12.76534890271266
  Hartree energy:                                              15.47258594532469
  Exchange-correlation energy:                                 -5.63791818072276

  Total energy:                                               -16.10119013596923

  outer SCF iter =    1 RMS gradient =   0.25E-04 energy =        -16.1011901360
  outer SCF loop converged in   1 iterations or    7 steps


 ENERGY| Total FORCE_EVAL ( QS ) energy [a.u.]:              -16.101190141892324

 STRESS| Analytical stress tensor [GPa]
 STRESS|                        x                   y                   z
 STRESS|      x        1.39349254601E-01   1.42226375901E-01   2.16592939447E-01
 STRESS|      y        1.42226375901E-01   1.24035156729E-01   1.45851265088E-01
 STRESS|      z        2.16592939447E-01   1.45851265088E-01  -7.02638647308E-02
 STRESS| 1/3 Trace                                             6.43735155331E-02
 STRESS| Determinant                                           4.09710280848E-04

 STRESS| Eigenvectors and eigenvalues of the analytical stress tensor [GPa]
 STRESS|                        1                   2                   3
 STRESS| Eigenvalues  -2.14974094779E-01  -4.61788467451E-03   4.12712526053E-01
 STRESS|      x          -0.458733147207     -0.581826066877      0.671596848977
 STRESS|      y          -0.181752079051      0.801273487204      0.570023666582
 STRESS|      z           0.869787377130     -0.139424626968      0.473318805860

 Number of electrons:                                                         14
 Number of occupied orbitals:                                                  7
 Number of molecular orbitals:                                                 7

 Number of orbital functions:                                                 14
 Number of independent orbital functions:                                     14

 Extrapolation method: ASPC


 SCF WAVEFUNCTION OPTIMIZATION

  ----------------------------------- OT ---------------------------------------
  Minimizer      : CG                  : conjugate gradient
  Preconditioner : FULL_ALL            : diagonalization, state selective
  Precond_solver : DEFAULT
  Line search    : 2PNT                : 2 energies, one gradient
  stepsize       :    0.15000000                  energy_gap     :    0.08000000
  eps_taylor     :   0.10000E-15                  max_taylor     :             4
  ----------------------------------- OT ---------------------------------------

  Step     Update method      Time    Convergence         Total energy    Change
  ------------------------------------------------------------------------------
     1 OT CG       0.15E+00    0.4     0.00618361       -16.1007595612 -1.61E+01
     2 OT LS       0.22E+00    0.5                      -16.1011319051
     3 OT CG       0.22E+00    1.0     0.00139134       -16.1011757793 -4.16E-04
     4 OT LS       0.15E+00    0.5                      -16.1011875272
     5 OT CG       0.15E+00    0.8     0.00017392       -16.1011903851 -1.46E-05
     6 OT LS       0.16E+00    0.5                      -16.1011906256
     7 OT CG       0.16E+00    0.9     0.00002903       -16.1011906263 -2.41E-07

  *** SCF run converged in     7 steps ***


  Electronic density on regular grids:        -13.9999999997        0.0000000003
  Core density on regular grids:               13.9999999987       -0.0000000013
  Total charge density on r-space grids:       -0.0000000010
  Total charge density g-space grids:          -0.0000000010

  Overlap energy of the core charge distribution:               0.00001771578903
  Self energy of the core charge distribution:                -38.70122451907286
  Core Hamiltonian energy:                                     12.76530274552884
  Hartree energy:                                              15.47261417100023
  Exchange-correlation energy:                                 -5.63790073953581

  Total energy:                                               -16.10119062629056

  outer SCF iter =    1 RMS gradient =   0.29E-04 energy =        -16.1011906263
  outer SCF loop converged in   1 iterations or    7 steps


 ENERGY| Total FORCE_EVAL ( QS ) energy [a.u.]:              -16.101190634051179

 STRESS| Analytical stress tensor [GPa]
 STRESS|                        x                   y                   z
 STRESS|      x        1.39375676066E-01   1.42224397387E-01   2.16590470183E-01
 STRESS|      y        1.42224397387E-01   1.24026921330E-01   1.45852516603E-01
 STRESS|      z        2.16590470183E-01   1.45852516603E-01  -7.02884798265E-02
 STRESS| 1/3 Trace                                             6.43713725230E-02
 STRESS| Determinant                                           4.09349253123E-04

 STRESS| Eigenvectors and eigenvalues of the analytical stress tensor [GPa]
 STRESS|                        1                   2                   3
 STRESS| Eigenvalues  -2.14986185357E-01  -4.61354128482E-03   4.12713844211E-01
 STRESS|      x          -0.458676871618     -0.581837404518      0.671625462700
 STRESS|      y          -0.181788961582      0.801277429458      0.570006363550
 STRESS|      z           0.869809347437     -0.139354640199      0.473299042219

 Number of electrons:                                                         14
 Number of occupied orbitals:                                                  7
 Number of molecular orbitals:                                                 7

 Number of orbital functions:                                                 14
 Number of independent orbital functions:                                     14

 Extrapolation method: ASPC


 SCF WAVEFUNCTION OPTIMIZATION

  ----------------------------------- OT ---------------------------------------
  Minimizer      : CG                  : conjugate gradient
  Preconditioner : FULL_ALL            : diagonalization, state selective
  Precond_solver : DEFAULT
  Line search    : 2PNT                : 2 energies, one gradient
  stepsize       :    0.15000000                  energy_gap     :    0.08000000
  eps_taylor     :   0.10000E-15                  max_taylor     :             4
  ----------------------------------- OT ---------------------------------------

  Step     Update method      Time    Convergence         Total energy    Change
  ------------------------------------------------------------------------------
     1 OT CG       0.15E+00    0.4     0.00670848       -16.1029543796 -1.61E+01
     2 OT LS       0.23E+00    0.4                      -16.1034041159
     3 OT CG       0.23E+00    0.7     0.00099484       -16.1034709681 -5.17E-04
     4 OT LS       0.17E+00    0.5                      -16.1034778000
     5 OT CG       0.17E+00    0.9     0.00010201       -16.1034790910 -8.12E-06
     6 OT LS       0.18E+00    0.5                      -16.1034791819
     7 OT CG       0.18E+00    0.8     0.00002281       -16.1034791823 -9.13E-08

  *** SCF run converged in     7 steps ***


  Electronic density on regular grids:        -13.9999999997        0.0000000003
  Core density on regular grids:               13.9999999987       -0.0000000013
  Total charge density on r-space grids:       -0.0000000010
  Total charge density g-space grids:          -0.0000000010

  Overlap energy of the core charge distribution:               0.00002099267209
  Self energy of the core charge distribution:                -38.70122451907286
  Core Hamiltonian energy:                                     12.77260148328676
  Hartree energy:                                              15.46752153553240
  Exchange-correlation energy:                                 -5.64239867474333

  Total energy:                                               -16.10347918232495

  outer SCF iter =    1 RMS gradient =   0.23E-04 energy =        -16.1034791823
  outer SCF loop converged in   1 iterations or    7 steps


 ENERGY| Total FORCE_EVAL ( QS ) energy [a.u.]:              -16.103479186444268

 STRESS| Analytical stress tensor [GPa]
 STRESS|                        x                   y                   z
 STRESS|      x        1.87958481280E-01   1.75837245145E-01   1.27112476422E-01
 STRESS|      y        1.75837245145E-01   1.46674374646E-01   7.59896053853E-02
 STRESS|      z        1.27112476422E-01   7.59896053853E-02  -5.44819001165E-02
 STRESS| 1/3 Trace                                             9.33836519365E-02
 STRESS| Determinant                                           1.24166048238E-04

 STRESS| Eigenvectors and eigenvalues of the analytical stress tensor [GPa]
 STRESS|                        1                   2                   3
 STRESS| Eigenvalues  -1.08911582746E-01  -2.90853817235E-03   3.91971076728E-01
 STRESS|      x          -0.391476883339     -0.567671333226      0.724220344402
 STRESS|      y          -0.004255922587      0.788143804502      0.615476425664
 STRESS|      z           0.920178100660     -0.237862567165      0.310956045458

 Number of electrons:                                                         14
 Number of occupied orbitals:                                                  7
 Number of molecular orbitals:                                                 7

 Number of orbital functions:                                                 14
 Number of independent orbital functions:                                     14

 Extrapolation method: ASPC


 SCF WAVEFUNCTION OPTIMIZATION

  ----------------------------------- OT ---------------------------------------
  Minimizer      : CG                  : conjugate gradient
  Preconditioner : FULL_ALL            : diagonalization, state selective
  Precond_solver : DEFAULT
  Line search    : 2PNT                : 2 energies, one gradient
  stepsize       :    0.15000000                  energy_gap     :    0.08000000
  eps_taylor     :   0.10000E-15                  max_taylor     :             4
  ----------------------------------- OT ---------------------------------------

  Step     Update method      Time    Convergence         Total energy    Change
  ------------------------------------------------------------------------------
     1 OT CG       0.15E+00    0.4     0.00748608       -16.1028223116 -1.61E+01
     2 OT LS       0.23E+00    0.5                      -16.1033821616
     3 OT CG       0.23E+00    0.7     0.00113687       -16.1034650178 -6.43E-04
     4 OT LS       0.16E+00    0.4                      -16.1034733732
     5 OT CG       0.16E+00    0.8     0.00016032       -16.1034753376 -1.03E-05
     6 OT LS       0.16E+00    0.4                      -16.1034755402
     7 OT CG       0.16E+00    0.8     0.00003116       -16.1034755403 -2.03E-07

  *** SCF run converged in     7 steps ***


  Electronic density on regular grids:        -13.9999999997        0.0000000003
  Core density on regular grids:               13.9999999987       -0.0000000013
  Total charge density on r-space grids:       -0.0000000011
  Total charge density g-space grids:          -0.0000000011

  Overlap energy of the core charge distribution:               0.00002099267209
  Self energy of the core charge distribution:                -38.70122451907286
  Core Hamiltonian energy:                                     12.77260954023608
  Hartree energy:                                              15.46750999020238
  Exchange-correlation energy:                                 -5.64239154429253

  Total energy:                                               -16.10347554025483

  outer SCF iter =    1 RMS gradient =   0.31E-04 energy =        -16.1034755403
  outer SCF loop converged in   1 iterations or    7 steps


 ENERGY| Total FORCE_EVAL ( QS ) energy [a.u.]:              -16.103475548771783

 STRESS| Analytical stress tensor [GPa]
 STRESS|                        x                   y                   z
 STRESS|      x        1.87972655116E-01   1.75831937449E-01   1.27105901377E-01
 STRESS|      y        1.75831937449E-01   1.46613196790E-01   7.59888038068E-02
 STRESS|      z        1.27105901377E-01   7.59888038068E-02  -5.45177996800E-02
 STRESS| 1/3 Trace                                             9.33560174088E-02
 STRESS| Determinant                                           1.25558689564E-04

 STRESS| Eigenvectors and eigenvalues of the analytical stress tensor [GPa]
 STRESS|                        1                   2                   3
 STRESS| Eigenvalues  -1.08935085894E-01  -2.94072978336E-03   3.91943867904E-01
 STRESS|      x          -0.391371749524     -0.567668665127      0.724279255748
 STRESS|      y          -0.004347303655      0.788192770895      0.615413078232
 STRESS|      z           0.920222394112     -0.237706631252      0.310944211770

 Number of electrons:                                                         14
 Number of occupied orbitals:                                                  7
 Number of molecular orbitals:                                                 7

 Number of orbital functions:                                                 14
 Number of independent orbital functions:                                     14

 Extrapolation method: ASPC


 SCF WAVEFUNCTION OPTIMIZATION

  ----------------------------------- OT ---------------------------------------
  Minimizer      : CG                  : conjugate gradient
  Preconditioner : FULL_ALL            : diagonalization, state selective
  Precond_solver : DEFAULT
  Line search    : 2PNT                : 2 energies, one gradient
  stepsize       :    0.15000000                  energy_gap     :    0.08000000
  eps_taylor     :   0.10000E-15                  max_taylor     :             4
  ----------------------------------- OT ---------------------------------------

  Step     Update method      Time    Convergence         Total energy    Change
  ------------------------------------------------------------------------------
     1 OT CG       0.15E+00    0.5     0.00844882       -16.1037381436 -1.61E+01
     2 OT LS       0.23E+00    0.5                      -16.1044432151
     3 OT CG       0.23E+00    0.9     0.00140274       -16.1045377633 -8.00E-04
     4 OT LS       0.17E+00    0.5                      -16.1045515091
     5 OT CG       0.17E+00    0.8     0.00025828       -16.1045537758 -1.60E-05
     6 OT LS       0.16E+00    0.5                      -16.1045542837
     7 OT CG       0.16E+00    0.9     0.00003212       -16.1045542858 -5.10E-07

  *** SCF run converged in     7 steps ***


  Electronic density on regular grids:        -13.9999999997        0.0000000003
  Core density on regular grids:               13.9999999987       -0.0000000013
  Total charge density on r-space grids:       -0.0000000010
  Total charge density g-space grids:          -0.0000000010

  Overlap energy of the core charge distribution:               0.00002419790370
  Self energy of the core charge distribution:                -38.70122451907286
  Core Hamiltonian energy:                                     12.77552821339889
  Hartree energy:                                              15.46587911869658
  Exchange-correlation energy:                                 -5.64476129674013

  Total energy:                                               -16.10455428581382

  outer SCF iter =    1 RMS gradient =   0.32E-04 energy =        -16.1045542858
  outer SCF loop converged in   1 iterations or    7 steps


 ENERGY| Total FORCE_EVAL ( QS ) energy [a.u.]:              -16.104554295162600

 STRESS| Analytical stress tensor [GPa]
 STRESS|                        x                   y                   z
 STRESS|      x        1.92601169252E-01   1.66058565159E-01   8.16221673413E-03
 STRESS|      y        1.66058565159E-01   1.32318504729E-01  -4.16070370832E-03
 STRESS|      z        8.16221673413E-03  -4.16070370832E-03   7.30111562504E-03
 STRESS| 1/3 Trace                                             1.10740263202E-01
 STRESS| Determinant                                          -3.86931820157E-05

 STRESS| Eigenvectors and eigenvalues of the analytical stress tensor [GPa]
 STRESS|                        1                   2                   3
 STRESS| Eigenvalues  -1.03433778814E-02   1.12924370613E-02   3.31271730426E-01
 STRESS|      x          -0.581573848350      0.268841349072      0.767786551031
 STRESS|      y           0.689540926877     -0.337865471923      0.640609267061
 STRESS|      z           0.431630824985      0.901981846775      0.011116609709

 Number of electrons:                                                         14
 Number of occupied orbitals:                                                  7
 Number of molecular orbitals:                                                 7

 Number of orbital functions:                                                 14
 Number of independent orbital functions:                                     14

 Extrapolation method: ASPC


 SCF WAVEFUNCTION OPTIMIZATION

  ----------------------------------- OT ---------------------------------------
  Minimizer      : CG                  : conjugate gradient
  Preconditioner : FULL_ALL            : diagonalization, state selective
  Precond_solver : DEFAULT
  Line search    : 2PNT                : 2 energies, one gradient
  stepsize       :    0.15000000                  energy_gap     :    0.08000000
  eps_taylor     :   0.10000E-15                  max_taylor     :             4
  ----------------------------------- OT ---------------------------------------

  Step     Update method      Time    Convergence         Total energy    Change
  ------------------------------------------------------------------------------
     1 OT CG       0.15E+00    0.5     0.00959522       -16.1035214820 -1.61E+01
     2 OT LS       0.22E+00    0.5                      -16.1044209951
     3 OT CG       0.22E+00    0.8     0.00158703       -16.1045303766 -1.01E-03
     4 OT LS       0.18E+00    0.5                      -16.1045504816
     5 OT CG       0.18E+00    0.8     0.00031021       -16.1045520848 -2.17E-05
     6 OT LS       0.15E+00    0.4                      -16.1045527781
     7 OT CG       0.15E+00    0.6     0.00003425       -16.1045527972 -7.12E-07

  *** SCF run converged in     7 steps ***


  Electronic density on regular grids:        -13.9999999997        0.0000000003
  Core density on regular grids:               13.9999999987       -0.0000000013
  Total charge density on r-space grids:       -0.0000000010
  Total charge density g-space grids:          -0.0000000010

  Overlap energy of the core charge distribution:               0.00002419790370
  Self energy of the core charge distribution:                -38.70122451907286
  Core Hamiltonian energy:                                     12.77564095128070
  Hartree energy:                                              15.46578063373143
  Exchange-correlation energy:                                 -5.64477406107849

  Total energy:                                               -16.10455279723552

  outer SCF iter =    1 RMS gradient =   0.34E-04 energy =        -16.1045527972
  outer SCF loop converged in   1 iterations or    7 steps


 ENERGY| Total FORCE_EVAL ( QS ) energy [a.u.]:              -16.104552808015153

 STRESS| Analytical stress tensor [GPa]
 STRESS|                        x                   y                   z
 STRESS|      x        1.92585454473E-01   1.66048390108E-01   8.18110547197E-03
 STRESS|      y        1.66048390108E-01   1.32253084835E-01  -4.15217504680E-03
 STRESS|      z        8.18110547197E-03  -4.15217504680E-03   7.25918961817E-03
 STRESS| 1/3 Trace                                             1.10699242976E-01
 STRESS| Determinant                                          -3.87123270795E-05

 STRESS| Eigenvectors and eigenvalues of the analytical stress tensor [GPa]
 STRESS|                        1                   2                   3
 STRESS| Eigenvalues  -1.03838570984E-02   1.12555335526E-02   3.31226052473E-01
 STRESS|      x          -0.581463276481      0.268936425679      0.767836999009
 STRESS|      y           0.689472974666     -0.338120801345      0.640547688235
 STRESS|      z           0.431888267158      0.901857817309      0.011180431588

 Number of electrons:                                                         14
 Number of occupied orbitals:                                                  7
 Number of molecular orbitals:                                                 7

 Number of orbital functions:                                                 14
 Number of independent orbital functions:                                     14

 Extrapolation method: ASPC


 SCF WAVEFUNCTION OPTIMIZATION

  ----------------------------------- OT ---------------------------------------
  Minimizer      : CG                  : conjugate gradient
  Preconditioner : FULL_ALL            : diagonalization, state selective
  Precond_solver : DEFAULT
  Line search    : 2PNT                : 2 energies, one gradient
  stepsize       :    0.15000000                  energy_gap     :    0.08000000
  eps_taylor     :   0.10000E-15                  max_taylor     :             4
  ----------------------------------- OT ---------------------------------------

  Step     Update method      Time    Convergence         Total energy    Change
  ------------------------------------------------------------------------------
     1 OT CG       0.15E+00    0.5     0.01002547       -16.1032470306 -1.61E+01
     2 OT LS       0.22E+00    0.5                      -16.1042140850
     3 OT CG       0.22E+00    0.9     0.00199177       -16.1043156768 -1.07E-03
     4 OT LS       0.16E+00    0.5                      -16.1043429354
     5 OT CG       0.16E+00    1.0     0.00041255       -16.1043468162 -3.11E-05
     6 OT LS       0.17E+00    0.5                      -16.1043481948
     7 OT CG       0.17E+00    0.8     0.00003260       -16.1043481961 -1.38E-06

  *** SCF run converged in     7 steps ***


  Electronic density on regular grids:        -13.9999999997        0.0000000003
  Core density on regular grids:               13.9999999987       -0.0000000013
  Total charge density on r-space grids:       -0.0000000011
  Total charge density g-space grids:          -0.0000000011

  Overlap energy of the core charge distribution:               0.00002525506127
  Self energy of the core charge distribution:                -38.70122451907286
  Core Hamiltonian energy:                                     12.75245792510767
  Hartree energy:                                              15.48070316680375
  Exchange-correlation energy:                                 -5.63631002401149

  Total energy:                                               -16.10434819611166

  outer SCF iter =    1 RMS gradient =   0.33E-04 energy =        -16.1043481961
  outer SCF loop converged in   1 iterations or    7 steps


 ENERGY| Total FORCE_EVAL ( QS ) energy [a.u.]:              -16.104348206839738

 STRESS| Analytical stress tensor [GPa]
 STRESS|                        x                   y                   z
 STRESS|      x        1.10173384524E-01   1.05539182724E-01  -5.64459712033E-02
 STRESS|      y        1.05539182724E-01   7.90088853642E-02  -7.27716832566E-02
 STRESS|      z       -5.64459712033E-02  -7.27716832566E-02  -8.65748424694E-03
 STRESS| 1/3 Trace                                             6.01749285469E-02
 STRESS| Determinant                                           5.29297356470E-05

 STRESS| Eigenvectors and eigenvalues of the analytical stress tensor [GPa]
 STRESS|                        1                   2                   3
 STRESS| Eigenvalues  -4.98792999971E-02  -4.51707434316E-03   2.34921159981E-01
 STRESS|      x          -0.036580035385     -0.720701253196      0.692280004516
 STRESS|      y           0.513873352018      0.580572843986      0.631561042903
 STRESS|      z           0.857085806146     -0.378846771753     -0.349111793607

 Number of electrons:                                                         14
 Number of occupied orbitals:                                                  7
 Number of molecular orbitals:                                                 7

 Number of orbital functions:                                                 14
 Number of independent orbital functions:                                     14

 Extrapolation method: ASPC


 SCF WAVEFUNCTION OPTIMIZATION

  ----------------------------------- OT ---------------------------------------
  Minimizer      : CG                  : conjugate gradient
  Preconditioner : FULL_ALL            : diagonalization, state selective
  Precond_solver : DEFAULT
  Line search    : 2PNT                : 2 energies, one gradient
  stepsize       :    0.15000000                  energy_gap     :    0.08000000
  eps_taylor     :   0.10000E-15                  max_taylor     :             4
  ----------------------------------- OT ---------------------------------------

  Step     Update method      Time    Convergence         Total energy    Change
  ------------------------------------------------------------------------------
     1 OT CG       0.15E+00    0.5     0.01043399       -16.1031810252 -1.61E+01
     2 OT LS       0.21E+00    0.5                      -16.1042122091
     3 OT CG       0.21E+00    0.8     0.00240772       -16.1043066446 -1.13E-03
     4 OT LS       0.15E+00    0.4                      -16.1043447052
     5 OT CG       0.15E+00    0.6     0.00044170       -16.1043505852 -4.39E-05
     6 OT LS       0.18E+00    0.4                      -16.1043522502
     7 OT CG       0.18E+00    0.9     0.00003153       -16.1043522780 -1.69E-06

  *** SCF run converged in     7 steps ***


  Electronic density on regular grids:        -13.9999999997        0.0000000003
  Core density on regular grids:               13.9999999987       -0.0000000013
  Total charge density on r-space grids:       -0.0000000010
  Total charge density g-space grids:          -0.0000000010

  Overlap energy of the core charge distribution:               0.00002525506127
  Self energy of the core charge distribution:                -38.70122451907286
  Core Hamiltonian energy:                                     12.75248258181258
  Hartree energy:                                              15.48068419310719
  Exchange-correlation energy:                                 -5.63631978886994

  Total energy:                                               -16.10435227796176

  outer SCF iter =    1 RMS gradient =   0.32E-04 energy =        -16.1043522780
  outer SCF loop converged in   1 iterations or    7 steps


 ENERGY| Total FORCE_EVAL ( QS ) energy [a.u.]:              -16.104352288486290

 STRESS| Analytical stress tensor [GPa]
 STRESS|                        x                   y                   z
 STRESS|      x        1.10188070680E-01   1.05546301337E-01  -5.64387834728E-02
 STRESS|      y        1.05546301337E-01   7.90206157974E-02  -7.27720886180E-02
 STRESS|      z       -5.64387834728E-02  -7.27720886180E-02  -8.63457350050E-03
 STRESS| 1/3 Trace                                             6.01913709924E-02
 STRESS| Determinant                                           5.27611325345E-05

 STRESS| Eigenvectors and eigenvalues of the analytical stress tensor [GPa]
 STRESS|                        1                   2                   3
 STRESS| Eigenvalues  -4.98604305993E-02  -4.50405525929E-03   2.34938598836E-01
 STRESS|      x          -0.036759366343     -0.720691730011      0.692280419541
 STRESS|      y           0.514004616233      0.580451153910      0.631566079216
 STRESS|      z           0.856999418598     -0.379051300247     -0.349101859495

 Number of electrons:                                                         14
 Number of occupied orbitals:                                                  7
 Number of molecular orbitals:                                                 7

 Number of orbital functions:                                                 14
 Number of independent orbital functions:                                     14

 Extrapolation method: ASPC


 SCF WAVEFUNCTION OPTIMIZATION

  ----------------------------------- OT ---------------------------------------
  Minimizer      : CG                  : conjugate gradient
  Preconditioner : FULL_ALL            : diagonalization, state selective
  Precond_solver : DEFAULT
  Line search    : 2PNT                : 2 energies, one gradient
  stepsize       :    0.15000000                  energy_gap     :    0.08000000
  eps_taylor     :   0.10000E-15                  max_taylor     :             4
  ----------------------------------- OT ---------------------------------------

  Step     Update method      Time    Convergence         Total energy    Change
  ------------------------------------------------------------------------------
     1 OT CG       0.15E+00    0.4     0.01000379       -16.1020245155 -1.61E+01
     2 OT LS       0.20E+00    0.4                      -16.1029563154
     3 OT CG       0.20E+00    0.9     0.00261785       -16.1030270219 -1.00E-03
     4 OT LS       0.15E+00    0.5                      -16.1030723045
     5 OT CG       0.15E+00    0.9     0.00041180       -16.1030781954 -5.12E-05
     6 OT LS       0.18E+00    0.4                      -16.1030796484
     7 OT CG       0.18E+00    0.6     0.00003209       -16.1030796795 -1.48E-06

  *** SCF run converged in     7 steps ***


  Electronic density on regular grids:        -13.9999999997        0.0000000003
  Core density on regular grids:               13.9999999987       -0.0000000013
  Total charge density on r-space grids:       -0.0000000010
  Total charge density g-space grids:          -0.0000000010

  Overlap energy of the core charge distribution:               0.00002266844274
  Self energy of the core charge distribution:                -38.70122451907286
  Core Hamiltonian energy:                                     12.71382258540406
  Hartree energy:                                              15.50524849451346
  Exchange-correlation energy:                                 -5.62094890875471

  Total energy:                                               -16.10307967946732

  outer SCF iter =    1 RMS gradient =   0.32E-04 energy =        -16.1030796795
  outer SCF loop converged in   1 iterations or    7 steps


 ENERGY| Total FORCE_EVAL ( QS ) energy [a.u.]:              -16.103079690027933

 STRESS| Analytical stress tensor [GPa]
 STRESS|                        x                   y                   z
 STRESS|      x       -7.21921823510E-03   2.31691381271E-02  -3.34346432922E-02
 STRESS|      y        2.31691381271E-02   2.08526956032E-03  -1.00395933083E-01
 STRESS|      z       -3.34346432922E-02  -1.00395933083E-01  -9.84093473718E-02
 STRESS| 1/3 Trace                                            -3.45144320155E-02
 STRESS| Determinant                                           2.80286177839E-04

 STRESS| Eigenvectors and eigenvalues of the analytical stress tensor [GPa]
 STRESS|                        1                   2                   3
 STRESS| Eigenvalues  -1.62208123174E-01  -2.15432404514E-02   8.02080675788E-02
 STRESS|      x           0.108627872110      0.911653648315      0.396342794706
 STRESS|      y           0.507144549507     -0.393737450242      0.766665002581
 STRESS|      z           0.854987948047      0.117721900220     -0.505111040171

 Number of electrons:                                                         14
 Number of occupied orbitals:                                                  7
 Number of molecular orbitals:                                                 7

 Number of orbital functions:                                                 14
 Number of independent orbital functions:                                     14

 Extrapolation method: ASPC


 SCF WAVEFUNCTION OPTIMIZATION

  ----------------------------------- OT ---------------------------------------
  Minimizer      : CG                  : conjugate gradient
  Preconditioner : FULL_ALL            : diagonalization, state selective
  Precond_solver : DEFAULT
  Line search    : 2PNT                : 2 energies, one gradient
  stepsize       :    0.15000000                  energy_gap     :    0.08000000
  eps_taylor     :   0.10000E-15                  max_taylor     :             4
  ----------------------------------- OT ---------------------------------------

  Step     Update method      Time    Convergence         Total energy    Change
  ------------------------------------------------------------------------------
     1 OT CG       0.15E+00    0.3     0.00971597       -16.1021043671 -1.61E+01
     2 OT LS       0.20E+00    0.3                      -16.1029718206
     3 OT CG       0.20E+00    0.5     0.00267771       -16.1030302219 -9.26E-04
     4 OT LS       0.15E+00    0.3                      -16.1030797522
     5 OT CG       0.15E+00    0.5     0.00040513       -16.1030845288 -5.43E-05
     6 OT LS       0.18E+00    0.3                      -16.1030859496
     7 OT CG       0.18E+00    0.6     0.00003383       -16.1030859801 -1.45E-06

  *** SCF run converged in     7 steps ***


  Electronic density on regular grids:        -13.9999999997        0.0000000003
  Core density on regular grids:               13.9999999987       -0.0000000013
  Total charge density on r-space grids:       -0.0000000011
  Total charge density g-space grids:          -0.0000000011

  Overlap energy of the core charge distribution:               0.00002266844274
  Self energy of the core charge distribution:                -38.70122451907286
  Core Hamiltonian energy:                                     12.71381666318003
  Hartree energy:                                              15.50526554275581
  Exchange-correlation energy:                                 -5.62096633541980

  Total energy:                                               -16.10308598011407

  outer SCF iter =    1 RMS gradient =   0.34E-04 energy =        -16.1030859801
  outer SCF loop converged in   1 iterations or    7 steps


 ENERGY| Total FORCE_EVAL ( QS ) energy [a.u.]:              -16.103085991178162

 STRESS| Analytical stress tensor [GPa]
 STRESS|                        x                   y                   z
 STRESS|      x       -7.18772930985E-03   2.31895960580E-02  -3.34420057764E-02
 STRESS|      y        2.31895960580E-02   2.18435243271E-03  -1.00415726017E-01
 STRESS|      z       -3.34420057764E-02  -1.00415726017E-01  -9.84029196082E-02
 STRESS| 1/3 Trace                                            -3.44687654951E-02
 STRESS| Determinant                                           2.80241242022E-04

 STRESS| Eigenvectors and eigenvalues of the analytical stress tensor [GPa]
 STRESS|                        1                   2                   3
 STRESS| Eigenvalues  -1.62193852167E-01  -2.15160527293E-02   8.03036084114E-02
 STRESS|      x           0.108624516003      0.911688447907      0.396263660302
 STRESS|      y           0.507018658748     -0.393686556214      0.766774396506
 STRESS|      z           0.855063035223      0.117622571853     -0.505007065679

 Number of electrons:                                                         14
 Number of occupied orbitals:                                                  7
 Number of molecular orbitals:                                                 7

 Number of orbital functions:                                                 14
 Number of independent orbital functions:                                     14

 Extrapolation method: ASPC


 SCF WAVEFUNCTION OPTIMIZATION

  ----------------------------------- OT ---------------------------------------
  Minimizer      : CG                  : conjugate gradient
  Preconditioner : FULL_ALL            : diagonalization, state selective
  Precond_solver : DEFAULT
  Line search    : 2PNT                : 2 energies, one gradient
  stepsize       :    0.15000000                  energy_gap     :    0.08000000
  eps_taylor     :   0.10000E-15                  max_taylor     :             4
  ----------------------------------- OT ---------------------------------------

  Step     Update method      Time    Convergence         Total energy    Change
  ------------------------------------------------------------------------------
     1 OT CG       0.15E+00    0.3     0.00906267       -16.1023600877 -1.61E+01
     2 OT LS       0.21E+00    0.3                      -16.1031269744
     3 OT CG       0.21E+00    0.6     0.00227565       -16.1031871551 -8.27E-04
     4 OT LS       0.15E+00    0.3                      -16.1032216608
     5 OT CG       0.15E+00    0.6     0.00038443       -16.1032261023 -3.89E-05
     6 OT LS       0.17E+00    0.3                      -16.1032273386
     7 OT CG       0.17E+00    0.6     0.00003761       -16.1032273539 -1.25E-06

  *** SCF run converged in     7 steps ***


  Electronic density on regular grids:        -13.9999999998        0.0000000002
  Core density on regular grids:               13.9999999987       -0.0000000013
  Total charge density on r-space grids:       -0.0000000011
  Total charge density g-space grids:          -0.0000000011

  Overlap energy of the core charge distribution:               0.00001794246746
  Self energy of the core charge distribution:                -38.70122451907286
  Core Hamiltonian energy:                                     12.68703072926735
  Hartree energy:                                              15.52142839146367
  Exchange-correlation energy:                                 -5.61047989805132

  Total energy:                                               -16.10322735392571

  outer SCF iter =    1 RMS gradient =   0.38E-04 energy =        -16.1032273539
  outer SCF loop converged in   1 iterations or    7 steps


 ENERGY| Total FORCE_EVAL ( QS ) energy [a.u.]:              -16.103227366926806

 STRESS| Analytical stress tensor [GPa]
 STRESS|                        x                   y                   z
 STRESS|      x       -9.43995749837E-02  -5.00169182206E-02  -1.67442145075E-02
 STRESS|      y       -5.00169182206E-02  -6.32916906219E-02  -9.61669133264E-02
 STRESS|      z       -1.67442145075E-02  -9.61669133264E-02  -1.46651255326E-01
 STRESS| 1/3 Trace                                            -1.01447506977E-01
 STRESS| Determinant                                           2.20358710856E-04

 STRESS| Eigenvectors and eigenvalues of the analytical stress tensor [GPa]
 STRESS|                        1                   2                   3
 STRESS| Eigenvalues  -2.23587928894E-01  -9.15230027102E-02   1.07684106726E-02
 STRESS|      x           0.315693915074      0.894308493088     -0.317095681422
 STRESS|      y           0.558641169204      0.094948799370      0.823956776517
 STRESS|      z           0.766979397413     -0.437260842850     -0.469622784003

 Number of electrons:                                                         14
 Number of occupied orbitals:                                                  7
 Number of molecular orbitals:                                                 7

 Number of orbital functions:                                                 14
 Number of independent orbital functions:                                     14

 Extrapolation method: ASPC


 SCF WAVEFUNCTION OPTIMIZATION

  ----------------------------------- OT ---------------------------------------
  Minimizer      : CG                  : conjugate gradient
  Preconditioner : FULL_ALL            : diagonalization, state selective
  Precond_solver : DEFAULT
  Line search    : 2PNT                : 2 energies, one gradient
  stepsize       :    0.15000000                  energy_gap     :    0.08000000
  eps_taylor     :   0.10000E-15                  max_taylor     :             4
  ----------------------------------- OT ---------------------------------------

  Step     Update method      Time    Convergence         Total energy    Change
  ------------------------------------------------------------------------------
     1 OT CG       0.15E+00    0.3     0.00875356       -16.1024130699 -1.61E+01
     2 OT LS       0.21E+00    0.3                      -16.1031410862
     3 OT CG       0.21E+00    0.6     0.00186396       -16.1032092820 -7.96E-04
     4 OT LS       0.16E+00    0.3                      -16.1032327729
     5 OT CG       0.16E+00    0.5     0.00037315       -16.1032360408 -2.68E-05
     6 OT LS       0.17E+00    0.3                      -16.1032371671
     7 OT CG       0.17E+00    0.5     0.00003952       -16.1032371699 -1.13E-06

  *** SCF run converged in     7 steps ***


  Electronic density on regular grids:        -13.9999999997        0.0000000003
  Core density on regular grids:               13.9999999987       -0.0000000013
  Total charge density on r-space grids:       -0.0000000010
  Total charge density g-space grids:          -0.0000000010

  Overlap energy of the core charge distribution:               0.00001794246746
  Self energy of the core charge distribution:                -38.70122451907286
  Core Hamiltonian energy:                                     12.68706462848357
  Hartree energy:                                              15.52141658333088
  Exchange-correlation energy:                                 -5.61051180513317

  Total energy:                                               -16.10323716992411

  outer SCF iter =    1 RMS gradient =   0.40E-04 energy =        -16.1032371699
  outer SCF loop converged in   1 iterations or    7 steps


 ENERGY| Total FORCE_EVAL ( QS ) energy [a.u.]:              -16.103237184148632

 STRESS| Analytical stress tensor [GPa]
 STRESS|                        x                   y                   z
 STRESS|      x       -9.43572243410E-02  -4.99904503467E-02  -1.67525421999E-02
 STRESS|      y       -4.99904503467E-02  -6.31734387556E-02  -9.61941741157E-02
 STRESS|      z       -1.67525421999E-02  -9.61941741157E-02  -1.46623325947E-01
 STRESS| 1/3 Trace                                            -1.01384663015E-01
 STRESS| Determinant                                           2.22143744433E-04

 STRESS| Eigenvectors and eigenvalues of the analytical stress tensor [GPa]
 STRESS|                        1                   2                   3
 STRESS| Eigenvalues  -2.23548441505E-01  -9.14694615392E-02   1.08639140005E-02
 STRESS|      x           0.315586304140      0.894472017301     -0.316741369109
 STRESS|      y           0.558499828619      0.094763612682      0.824073903933
 STRESS|      z           0.767126603679     -0.436966438044     -0.469656370074

 Number of electrons:                                                         14
 Number of occupied orbitals:                                                  7
 Number of molecular orbitals:                                                 7

 Number of orbital functions:                                                 14
 Number of independent orbital functions:                                     14

 Extrapolation method: ASPC


 SCF WAVEFUNCTION OPTIMIZATION

  ----------------------------------- OT ---------------------------------------
  Minimizer      : CG                  : conjugate gradient
  Preconditioner : FULL_ALL            : diagonalization, state selective
  Precond_solver : DEFAULT
  Line search    : 2PNT                : 2 energies, one gradient
  stepsize       :    0.15000000                  energy_gap     :    0.08000000
  eps_taylor     :   0.10000E-15                  max_taylor     :             4
  ----------------------------------- OT ---------------------------------------

  Step     Update method      Time    Convergence         Total energy    Change
  ------------------------------------------------------------------------------
     1 OT CG       0.15E+00    0.3     0.00922068       -16.1043937417 -1.61E+01
     2 OT LS       0.22E+00    0.3                      -16.1052147470
     3 OT CG       0.22E+00    0.5     0.00165567       -16.1053046061 -9.11E-04
     4 OT LS       0.17E+00    0.3                      -16.1053248357
     5 OT CG       0.17E+00    0.5     0.00032062       -16.1053270057 -2.24E-05
     6 OT LS       0.15E+00    0.3                      -16.1053277817
     7 OT CG       0.15E+00    0.5     0.00004420       -16.1053277862 -7.80E-07

  *** SCF run converged in     7 steps ***


  Electronic density on regular grids:        -13.9999999997        0.0000000003
  Core density on regular grids:               13.9999999987       -0.0000000013
  Total charge density on r-space grids:       -0.0000000011
  Total charge density g-space grids:          -0.0000000011

  Overlap energy of the core charge distribution:               0.00001088076535
  Self energy of the core charge distribution:                -38.70122451907286
  Core Hamiltonian energy:                                     12.66509653144901
  Hartree energy:                                              15.53318567004925
  Exchange-correlation energy:                                 -5.60239634937971

  Total energy:                                               -16.10532778618896

  outer SCF iter =    1 RMS gradient =   0.44E-04 energy =        -16.1053277862
  outer SCF loop converged in   1 iterations or    7 steps


 ENERGY| Total FORCE_EVAL ( QS ) energy [a.u.]:              -16.105327803084975

 STRESS| Analytical stress tensor [GPa]
 STRESS|                        x                   y                   z
 STRESS|      x       -1.58784795596E-01  -1.08157146313E-01   9.61383041195E-04
 STRESS|      y       -1.08157146313E-01  -1.07553995735E-01  -6.74412207506E-02
 STRESS|      z        9.61383041195E-04  -6.74412207506E-02  -2.08178224801E-01
 STRESS| 1/3 Trace                                            -1.58172338711E-01
 STRESS| Determinant                                          -3.83664468946E-04

 STRESS| Eigenvectors and eigenvalues of the analytical stress tensor [GPa]
 STRESS|                        1                   2                   3
 STRESS| Eigenvalues  -2.74821572094E-01  -1.92441016981E-01  -7.25442705652E-03
 STRESS|      x           0.547152976044     -0.621050187773     -0.561177587822
 STRESS|      y           0.592272440408     -0.186491047838      0.783858689695
 STRESS|      z           0.591470182798      0.761260634306     -0.265791778498

 Number of electrons:                                                         14
 Number of occupied orbitals:                                                  7
 Number of molecular orbitals:                                                 7

 Number of orbital functions:                                                 14
 Number of independent orbital functions:                                     14

 Extrapolation method: ASPC


 SCF WAVEFUNCTION OPTIMIZATION

  ----------------------------------- OT ---------------------------------------
  Minimizer      : CG                  : conjugate gradient
  Preconditioner : FULL_ALL            : diagonalization, state selective
  Precond_solver : DEFAULT
  Line search    : 2PNT                : 2 energies, one gradient
  stepsize       :    0.15000000                  energy_gap     :    0.08000000
  eps_taylor     :   0.10000E-15                  max_taylor     :             4
  ----------------------------------- OT ---------------------------------------

  Step     Update method      Time    Convergence         Total energy    Change
  ------------------------------------------------------------------------------
     1 OT CG       0.15E+00    0.3     0.00980626       -16.1042627375 -1.61E+01
     2 OT LS       0.22E+00    0.3                      -16.1052018453
     3 OT CG       0.22E+00    0.5     0.00155487       -16.1053152017 -1.05E-03
     4 OT LS       0.17E+00    0.3                      -16.1053340120
     5 OT CG       0.17E+00    0.5     0.00027803       -16.1053357238 -2.05E-05
     6 OT LS       0.15E+00    0.3                      -16.1053362843
     7 OT CG       0.15E+00    0.5     0.00004352       -16.1053362966 -5.73E-07

  *** SCF run converged in     7 steps ***


  Electronic density on regular grids:        -13.9999999997        0.0000000003
  Core density on regular grids:               13.9999999987       -0.0000000013
  Total charge density on r-space grids:       -0.0000000011
  Total charge density g-space grids:          -0.0000000011

  Overlap energy of the core charge distribution:               0.00001088076535
  Self energy of the core charge distribution:                -38.70122451907286
  Core Hamiltonian energy:                                     12.66526317081750
  Hartree energy:                                              15.53306441391315
  Exchange-correlation energy:                                 -5.60245024299435

  Total energy:                                               -16.10533629657121

  outer SCF iter =    1 RMS gradient =   0.44E-04 energy =        -16.1053362966
  outer SCF loop converged in   1 iterations or    7 steps


 ENERGY| Total FORCE_EVAL ( QS ) energy [a.u.]:              -16.105336313029518

 STRESS| Analytical stress tensor [GPa]
 STRESS|                        x                   y                   z
 STRESS|      x       -1.58750766252E-01  -1.08141019926E-01   9.57127651834E-04
 STRESS|      y       -1.08141019926E-01  -1.07473376390E-01  -6.74701626260E-02
 STRESS|      z        9.57127651834E-04  -6.74701626260E-02  -2.08208985641E-01
 STRESS| 1/3 Trace                                            -1.58144376094E-01
 STRESS| Determinant                                          -3.80723477526E-04

 STRESS| Eigenvectors and eigenvalues of the analytical stress tensor [GPa]
 STRESS|                        1                   2                   3
 STRESS| Eigenvalues  -2.74806480698E-01  -1.92426906303E-01  -7.19974128208E-03
 STRESS|      x           0.546816775564     -0.621448097834     -0.561064769577
 STRESS|      y           0.592076981970     -0.186790644250      0.783935011747
 STRESS|      z           0.591976571651      0.760862350836     -0.265804856422

 Number of electrons:                                                         14
 Number of occupied orbitals:                                                  7
 Number of molecular orbitals:                                                 7

 Number of orbital functions:                                                 14
 Number of independent orbital functions:                                     14

 Extrapolation method: ASPC


 SCF WAVEFUNCTION OPTIMIZATION

  ----------------------------------- OT ---------------------------------------
  Minimizer      : CG                  : conjugate gradient
  Preconditioner : FULL_ALL            : diagonalization, state selective
  Precond_solver : DEFAULT
  Line search    : 2PNT                : 2 energies, one gradient
  stepsize       :    0.15000000                  energy_gap     :    0.08000000
  eps_taylor     :   0.10000E-15                  max_taylor     :             4
  ----------------------------------- OT ---------------------------------------

  Step     Update method      Time    Convergence         Total energy    Change
  ------------------------------------------------------------------------------
     1 OT CG       0.15E+00    0.3     0.00994517       -16.1053066354 -1.61E+01
     2 OT LS       0.22E+00    0.3                      -16.1062693904
     3 OT CG       0.22E+00    0.5     0.00154342       -16.1063830411 -1.08E-03
     4 OT LS       0.18E+00    0.3                      -16.1064034878
     5 OT CG       0.18E+00    0.5     0.00023258       -16.1064044498 -2.14E-05
     6 OT LS       0.16E+00    0.3                      -16.1064048596
     7 OT CG       0.16E+00    0.5     0.00003577       -16.1064048698 -4.20E-07

  *** SCF run converged in     7 steps ***


  Electronic density on regular grids:        -13.9999999998        0.0000000002
  Core density on regular grids:               13.9999999987       -0.0000000013
  Total charge density on r-space grids:       -0.0000000011
  Total charge density g-space grids:          -0.0000000011

  Overlap energy of the core charge distribution:               0.00000713677628
  Self energy of the core charge distribution:                -38.70122451907286
  Core Hamiltonian energy:                                     12.66833671098215
  Hartree energy:                                              15.53029349289543
  Exchange-correlation energy:                                 -5.60381769137033

  Total energy:                                               -16.10640486978932

  outer SCF iter =    1 RMS gradient =   0.36E-04 energy =        -16.1064048698
  outer SCF loop converged in   1 iterations or    7 steps


 ENERGY| Total FORCE_EVAL ( QS ) energy [a.u.]:              -16.106404880519655

 STRESS| Analytical stress tensor [GPa]
 STRESS|                        x                   y                   z
 STRESS|      x       -1.45111012621E-01  -1.15867209323E-01   6.52721206912E-03
 STRESS|      y       -1.15867209323E-01  -1.04097246516E-01  -2.40911773851E-02
 STRESS|      z        6.52721206912E-03  -2.40911773851E-02  -2.12157308739E-01
 STRESS| 1/3 Trace                                            -1.53788522625E-01
 STRESS| Determinant                                          -2.31423973490E-04

 STRESS| Eigenvectors and eigenvalues of the analytical stress tensor [GPa]
 STRESS|                        1                   2                   3
 STRESS| Eigenvalues  -2.45762354171E-01  -2.11143413018E-01  -4.45980068741E-03
 STRESS|      x           0.707399437007     -0.310294447886     -0.635061723089
 STRESS|      y           0.632297736914     -0.123738580774      0.764779926202
 STRESS|      z           0.315888601274      0.942552979540     -0.108665874800

 Number of electrons:                                                         14
 Number of occupied orbitals:                                                  7
 Number of molecular orbitals:                                                 7

 Number of orbital functions:                                                 14
 Number of independent orbital functions:                                     14

 Extrapolation method: ASPC


 SCF WAVEFUNCTION OPTIMIZATION

  ----------------------------------- OT ---------------------------------------
  Minimizer      : CG                  : conjugate gradient
  Preconditioner : FULL_ALL            : diagonalization, state selective
  Precond_solver : DEFAULT
  Line search    : 2PNT                : 2 energies, one gradient
  stepsize       :    0.15000000                  energy_gap     :    0.08000000
  eps_taylor     :   0.10000E-15                  max_taylor     :             4
  ----------------------------------- OT ---------------------------------------

  Step     Update method      Time    Convergence         Total energy    Change
  ------------------------------------------------------------------------------
     1 OT CG       0.15E+00    0.3     0.01010086       -16.1052865671 -1.61E+01
     2 OT LS       0.22E+00    0.3                      -16.1062681469
     3 OT CG       0.22E+00    0.5     0.00183769       -16.1063709577 -1.08E-03
     4 OT LS       0.17E+00    0.3                      -16.1063968630
     5 OT CG       0.17E+00    0.5     0.00038653       -16.1063990188 -2.81E-05
     6 OT LS       0.16E+00    0.3                      -16.1064001491
     7 OT CG       0.16E+00    0.5     0.00004128       -16.1064001587 -1.14E-06

  *** SCF run converged in     7 steps ***


  Electronic density on regular grids:        -13.9999999998        0.0000000002
  Core density on regular grids:               13.9999999987       -0.0000000013
  Total charge density on r-space grids:       -0.0000000011
  Total charge density g-space grids:          -0.0000000011

  Overlap energy of the core charge distribution:               0.00000713677628
  Self energy of the core charge distribution:                -38.70122451907286
  Core Hamiltonian energy:                                     12.66810356705956
  Hartree energy:                                              15.53049008192073
  Exchange-correlation energy:                                 -5.60377642536248

  Total energy:                                               -16.10640015867878

  outer SCF iter =    1 RMS gradient =   0.41E-04 energy =        -16.1064001587
  outer SCF loop converged in   1 iterations or    7 steps


 ENERGY| Total FORCE_EVAL ( QS ) energy [a.u.]:              -16.106400173516668

 STRESS| Analytical stress tensor [GPa]
 STRESS|                        x                   y                   z
 STRESS|      x       -1.45045346739E-01  -1.15823321286E-01   6.49847810596E-03
 STRESS|      y       -1.15823321286E-01  -1.04071118505E-01  -2.40891051765E-02
 STRESS|      z        6.49847810596E-03  -2.40891051765E-02  -2.12127809158E-01
 STRESS| 1/3 Trace                                            -1.53748091467E-01
 STRESS| Determinant                                          -2.31547404640E-04

 STRESS| Eigenvectors and eigenvalues of the analytical stress tensor [GPa]
 STRESS|                        1                   2                   3
 STRESS| Eigenvalues  -2.45688893378E-01  -2.11090754016E-01  -4.46462700745E-03
 STRESS|      x           0.707073372400     -0.310960298320     -0.635099156756
 STRESS|      y           0.632181907244     -0.124451412023      0.764760016082
 STRESS|      z           0.316848989577      0.942239639855     -0.108587194870

 Number of electrons:                                                         14
 Number of occupied orbitals:                                                  7
 Number of molecular orbitals:                                                 7

 Number of orbital functions:                                                 14
 Number of independent orbital functions:                                     14

 Extrapolation method: ASPC


 SCF WAVEFUNCTION OPTIMIZATION

  ----------------------------------- OT ---------------------------------------
  Minimizer      : CG                  : conjugate gradient
  Preconditioner : FULL_ALL            : diagonalization, state selective
  Precond_solver : DEFAULT
  Line search    : 2PNT                : 2 energies, one gradient
  stepsize       :    0.15000000                  energy_gap     :    0.08000000
  eps_taylor     :   0.10000E-15                  max_taylor     :             4
  ----------------------------------- OT ---------------------------------------

  Step     Update method      Time    Convergence         Total energy    Change
  ------------------------------------------------------------------------------
     1 OT CG       0.15E+00    0.3     0.01036359       -16.1028836048 -1.61E+01
     2 OT LS       0.21E+00    0.3                      -16.1039077652
     3 OT CG       0.21E+00    0.5     0.00229559       -16.1040078232 -1.12E-03
     4 OT LS       0.16E+00    0.3                      -16.1040427257
     5 OT CG       0.16E+00    0.5     0.00042530       -16.1040481923 -4.04E-05
     6 OT LS       0.18E+00    0.3                      -16.1040497360
     7 OT CG       0.18E+00    0.5     0.00003819       -16.1040497571 -1.56E-06

  *** SCF run converged in     7 steps ***


  Electronic density on regular grids:        -13.9999999998        0.0000000002
  Core density on regular grids:               13.9999999987       -0.0000000013
  Total charge density on r-space grids:       -0.0000000011
  Total charge density g-space grids:          -0.0000000011

  Overlap energy of the core charge distribution:               0.00000674956922
  Self energy of the core charge distribution:                -38.70122451907286
  Core Hamiltonian energy:                                     12.69281213131256
  Hartree energy:                                              15.51671384786952
  Exchange-correlation energy:                                 -5.61235796680033

  Total energy:                                               -16.10404975712190

  outer SCF iter =    1 RMS gradient =   0.38E-04 energy =        -16.1040497571
  outer SCF loop converged in   1 iterations or    7 steps


 ENERGY| Total FORCE_EVAL ( QS ) energy [a.u.]:              -16.104049770048277

 STRESS| Analytical stress tensor [GPa]
 STRESS|                        x                   y                   z
 STRESS|      x       -7.63822816772E-02  -8.75927104157E-02   2.74592316979E-02
 STRESS|      y       -8.75927104157E-02  -7.19814289959E-02   3.32924884831E-02
 STRESS|      z        2.74592316979E-02   3.32924884831E-02  -1.43363360048E-01
 STRESS| 1/3 Trace                                            -9.72423569069E-02
 STRESS| Determinant                                           2.90509941070E-04

 STRESS| Eigenvectors and eigenvalues of the analytical stress tensor [GPa]
 STRESS|                        1                   2                   3
 STRESS| Eigenvalues  -1.96505904320E-01  -1.08808175500E-01   1.35870090985E-02
 STRESS|      x           0.546817903386      0.470975510430     -0.692222687516
 STRESS|      y           0.552766126588      0.417893363401      0.720981793197
 STRESS|      z          -0.628840035170      0.776883006250      0.031827735804

 Number of electrons:                                                         14
 Number of occupied orbitals:                                                  7
 Number of molecular orbitals:                                                 7

 Number of orbital functions:                                                 14
 Number of independent orbital functions:                                     14

 Extrapolation method: ASPC


 SCF WAVEFUNCTION OPTIMIZATION

  ----------------------------------- OT ---------------------------------------
  Minimizer      : CG                  : conjugate gradient
  Preconditioner : FULL_ALL            : diagonalization, state selective
  Precond_solver : DEFAULT
  Line search    : 2PNT                : 2 energies, one gradient
  stepsize       :    0.15000000                  energy_gap     :    0.08000000
  eps_taylor     :   0.10000E-15                  max_taylor     :             4
  ----------------------------------- OT ---------------------------------------

  Step     Update method      Time    Convergence         Total energy    Change
  ------------------------------------------------------------------------------
     1 OT CG       0.15E+00    0.3     0.01075389       -16.1027978441 -1.61E+01
     2 OT LS       0.21E+00    0.3                      -16.1038940763
     3 OT CG       0.21E+00    0.5     0.00269906       -16.1039936109 -1.20E-03
     4 OT LS       0.15E+00    0.3                      -16.1040400916
     5 OT CG       0.15E+00    0.5     0.00040090       -16.1040480324 -5.44E-05
     6 OT LS       0.18E+00    0.3                      -16.1040494281
     7 OT CG       0.18E+00    0.5     0.00003536       -16.1040494647 -1.43E-06

  *** SCF run converged in     7 steps ***


  Electronic density on regular grids:        -13.9999999998        0.0000000002
  Core density on regular grids:               13.9999999987       -0.0000000013
  Total charge density on r-space grids:       -0.0000000011
  Total charge density g-space grids:          -0.0000000011

  Overlap energy of the core charge distribution:               0.00000674956922
  Self energy of the core charge distribution:                -38.70122451907286
  Core Hamiltonian energy:                                     12.69272927615377
  Hartree energy:                                              15.51679021515633
  Exchange-correlation energy:                                 -5.61235118648669

  Total energy:                                               -16.10404946468023

  outer SCF iter =    1 RMS gradient =   0.35E-04 energy =        -16.1040494647
  outer SCF loop converged in   1 iterations or    7 steps


 ENERGY| Total FORCE_EVAL ( QS ) energy [a.u.]:              -16.104049476395282

 STRESS| Analytical stress tensor [GPa]
 STRESS|                        x                   y                   z
 STRESS|      x       -7.63488306789E-02  -8.75535728676E-02   2.74458921745E-02
 STRESS|      y       -8.75535728676E-02  -7.19874690082E-02   3.32781089178E-02
 STRESS|      z        2.74458921745E-02   3.32781089178E-02  -1.43285937773E-01
 STRESS| 1/3 Trace                                            -9.72074124868E-02
 STRESS| Determinant                                           2.89698434886E-04

 STRESS| Eigenvectors and eigenvalues of the analytical stress tensor [GPa]
 STRESS|                        1                   2                   3
 STRESS| Eigenvalues  -1.96424305584E-01  -1.08758772869E-01   1.35608409921E-02
 STRESS|      x           0.546849078276      0.470821064088     -0.692303120895
 STRESS|      y           0.552895130728      0.417854687116      0.720905288421
 STRESS|      z          -0.628699498971      0.776997417027      0.031811223276

 Number of electrons:                                                         14
 Number of occupied orbitals:                                                  7
 Number of molecular orbitals:                                                 7

 Number of orbital functions:                                                 14
 Number of independent orbital functions:                                     14

 Extrapolation method: ASPC


 SCF WAVEFUNCTION OPTIMIZATION

  ----------------------------------- OT ---------------------------------------
  Minimizer      : CG                  : conjugate gradient
  Preconditioner : FULL_ALL            : diagonalization, state selective
  Precond_solver : DEFAULT
  Line search    : 2PNT                : 2 energies, one gradient
  stepsize       :    0.15000000                  energy_gap     :    0.08000000
  eps_taylor     :   0.10000E-15                  max_taylor     :             4
  ----------------------------------- OT ---------------------------------------

  Step     Update method      Time    Convergence         Total energy    Change
  ------------------------------------------------------------------------------
     1 OT CG       0.15E+00    0.3     0.01029690       -16.0996372089 -1.61E+01
     2 OT LS       0.21E+00    0.3                      -16.1006449124
     3 OT CG       0.21E+00    0.5     0.00261968       -16.1007401718 -1.10E-03
     4 OT LS       0.15E+00    0.3                      -16.1007833934
     5 OT CG       0.15E+00    0.5     0.00033656       -16.1007913930 -5.12E-05
     6 OT LS       0.19E+00    0.3                      -16.1007924007
     7 OT CG       0.19E+00    0.5     0.00002976       -16.1007924399 -1.05E-06

  *** SCF run converged in     7 steps ***


  Electronic density on regular grids:        -13.9999999998        0.0000000002
  Core density on regular grids:               13.9999999987       -0.0000000013
  Total charge density on r-space grids:       -0.0000000011
  Total charge density g-space grids:          -0.0000000011

  Overlap energy of the core charge distribution:               0.00000811071385
  Self energy of the core charge distribution:                -38.70122451907286
  Core Hamiltonian energy:                                     12.72075417127246
  Hartree energy:                                              15.50193466382590
  Exchange-correlation energy:                                 -5.62226486668735

  Total energy:                                               -16.10079243994799

  outer SCF iter =    1 RMS gradient =   0.30E-04 energy =        -16.1007924399
  outer SCF loop converged in   1 iterations or    7 steps


 ENERGY| Total FORCE_EVAL ( QS ) energy [a.u.]:              -16.100792448518938

 STRESS| Analytical stress tensor [GPa]
 STRESS|                        x                   y                   z
 STRESS|      x        2.41098398759E-02  -3.57452913774E-02   4.05166058136E-02
 STRESS|      y       -3.57452913774E-02  -3.18022367039E-02   6.64947827612E-02
 STRESS|      z        4.05166058136E-02   6.64947827612E-02  -7.93522647689E-02
 STRESS| 1/3 Trace                                            -2.90148871989E-02
 STRESS| Determinant                                          -8.47689144601E-05

 STRESS| Eigenvectors and eigenvalues of the analytical stress tensor [GPa]
 STRESS|                        1                   2                   3
 STRESS| Eigenvalues  -1.43434307225E-01   1.39135994827E-02   4.24760461452E-02
 STRESS|      x          -0.305606397838      0.187398209907      0.933534488128
 STRESS|      y          -0.557594525212      0.759514253473     -0.335002155551
 STRESS|      z           0.771811554107      0.622912521703      0.127620199232

 Number of electrons:                                                         14
 Number of occupied orbitals:                                                  7
 Number of molecular orbitals:                                                 7

 Number of orbital functions:                                                 14
 Number of independent orbital functions:                                     14

 Extrapolation method: ASPC


 SCF WAVEFUNCTION OPTIMIZATION

  ----------------------------------- OT ---------------------------------------
  Minimizer      : CG                  : conjugate gradient
  Preconditioner : FULL_ALL            : diagonalization, state selective
  Precond_solver : DEFAULT
  Line search    : 2PNT                : 2 energies, one gradient
  stepsize       :    0.15000000                  energy_gap     :    0.08000000
  eps_taylor     :   0.10000E-15                  max_taylor     :             4
  ----------------------------------- OT ---------------------------------------

  Step     Update method      Time    Convergence         Total energy    Change
  ------------------------------------------------------------------------------
     1 OT CG       0.15E+00    0.3     0.00975240       -16.0997459121 -1.61E+01
     2 OT LS       0.21E+00    0.3                      -16.1006555660
     3 OT CG       0.21E+00    0.5     0.00244134       -16.1007458101 -1.00E-03
     4 OT LS       0.15E+00    0.3                      -16.1007818691
     5 OT CG       0.15E+00    0.5     0.00029890       -16.1007897671 -4.40E-05
     6 OT LS       0.19E+00    0.3                      -16.1007905555
     7 OT CG       0.19E+00    0.5     0.00002740       -16.1007905864 -8.19E-07

  *** SCF run converged in     7 steps ***


  Electronic density on regular grids:        -13.9999999998        0.0000000002
  Core density on regular grids:               13.9999999987       -0.0000000013
  Total charge density on r-space grids:       -0.0000000011
  Total charge density g-space grids:          -0.0000000011

  Overlap energy of the core charge distribution:               0.00000811071385
  Self energy of the core charge distribution:                -38.70122451907286
  Core Hamiltonian energy:                                     12.72071285917403
  Hartree energy:                                              15.50197131198245
  Exchange-correlation energy:                                 -5.62225834922178

  Total energy:                                               -16.10079058642430

  outer SCF iter =    1 RMS gradient =   0.27E-04 energy =        -16.1007905864
  outer SCF loop converged in   1 iterations or    7 steps


 ENERGY| Total FORCE_EVAL ( QS ) energy [a.u.]:              -16.100790594118145

 STRESS| Analytical stress tensor [GPa]
 STRESS|                        x                   y                   z
 STRESS|      x        2.41350299324E-02  -3.57110840420E-02   4.05264751700E-02
 STRESS|      y       -3.57110840420E-02  -3.17916928946E-02   6.65073484892E-02
 STRESS|      z        4.05264751700E-02   6.65073484892E-02  -7.93602257184E-02
 STRESS| 1/3 Trace                                            -2.90056295602E-02
 STRESS| Determinant                                          -8.49457606804E-05

 STRESS| Eigenvectors and eigenvalues of the analytical stress tensor [GPa]
 STRESS|                        1                   2                   3
 STRESS| Eigenvalues  -1.43437235729E-01   1.39413843107E-02   4.24789627381E-02
 STRESS|      x          -0.305495159662      0.186525942937      0.933745564934
 STRESS|      y          -0.557536215106      0.759906082066     -0.334209687598
 STRESS|      z           0.771897711014      0.622696410019      0.128152661625

 Number of electrons:                                                         14
 Number of occupied orbitals:                                                  7
 Number of molecular orbitals:                                                 7

 Number of orbital functions:                                                 14
 Number of independent orbital functions:                                     14

 Extrapolation method: ASPC


 SCF WAVEFUNCTION OPTIMIZATION

  ----------------------------------- OT ---------------------------------------
  Minimizer      : CG                  : conjugate gradient
  Preconditioner : FULL_ALL            : diagonalization, state selective
  Precond_solver : DEFAULT
  Line search    : 2PNT                : 2 energies, one gradient
  stepsize       :    0.15000000                  energy_gap     :    0.08000000
  eps_taylor     :   0.10000E-15                  max_taylor     :             4
  ----------------------------------- OT ---------------------------------------

  Step     Update method      Time    Convergence         Total energy    Change
  ------------------------------------------------------------------------------
     1 OT CG       0.15E+00    0.3     0.00923084       -16.0984306559 -1.61E+01
     2 OT LS       0.23E+00    0.3                      -16.0992722972
     3 OT CG       0.23E+00    0.5     0.00150697       -16.0993854879 -9.55E-04
     4 OT LS       0.16E+00    0.3                      -16.0993988600
     5 OT CG       0.16E+00    0.5     0.00028896       -16.0994027533 -1.73E-05
     6 OT LS       0.17E+00    0.3                      -16.0994034490
     7 OT CG       0.17E+00    0.5     0.00002772       -16.0994034556 -7.02E-07

  *** SCF run converged in     7 steps ***


  Electronic density on regular grids:        -13.9999999998        0.0000000002
  Core density on regular grids:               13.9999999987       -0.0000000013
  Total charge density on r-space grids:       -0.0000000011
  Total charge density g-space grids:          -0.0000000011

  Overlap energy of the core charge distribution:               0.00001004154956
  Self energy of the core charge distribution:                -38.70122451907286
  Core Hamiltonian energy:                                     12.72546722705831
  Hartree energy:                                              15.50061953945162
  Exchange-correlation energy:                                 -5.62427574460923

  Total energy:                                               -16.09940345562260

  outer SCF iter =    1 RMS gradient =   0.28E-04 energy =        -16.0994034556
  outer SCF loop converged in   1 iterations or    7 steps


 ENERGY| Total FORCE_EVAL ( QS ) energy [a.u.]:              -16.099403463327473

 STRESS| Analytical stress tensor [GPa]
 STRESS|                        x                   y                   z
 STRESS|      x        7.90879445501E-02   1.81907060348E-03   6.41014378969E-02
 STRESS|      y        1.81907060348E-03  -1.05980191239E-02   5.51572630620E-02
 STRESS|      z        6.41014378969E-02   5.51572630620E-02  -1.07226819519E-01
 STRESS| 1/3 Trace                                            -1.29122980310E-02
 STRESS| Determinant                                          -9.39709813609E-05

 STRESS| Eigenvectors and eigenvalues of the analytical stress tensor [GPa]
 STRESS|                        1                   2                   3
 STRESS| Eigenvalues  -1.47236072366E-01   6.24141789548E-03   1.02257760377E-01
 STRESS|      x          -0.251625995669     -0.277107432393      0.927305682726
 STRESS|      y          -0.359399492418      0.916375547447      0.176317500241
 STRESS|      z           0.898619142436      0.288907125136      0.330176180080

 Number of electrons:                                                         14
 Number of occupied orbitals:                                                  7
 Number of molecular orbitals:                                                 7

 Number of orbital functions:                                                 14
 Number of independent orbital functions:                                     14

 Extrapolation method: ASPC


 SCF WAVEFUNCTION OPTIMIZATION

  ----------------------------------- OT ---------------------------------------
  Minimizer      : CG                  : conjugate gradient
  Preconditioner : FULL_ALL            : diagonalization, state selective
  Precond_solver : DEFAULT
  Line search    : 2PNT                : 2 energies, one gradient
  stepsize       :    0.15000000                  energy_gap     :    0.08000000
  eps_taylor     :   0.10000E-15                  max_taylor     :             4
  ----------------------------------- OT ---------------------------------------

  Step     Update method      Time    Convergence         Total energy    Change
  ------------------------------------------------------------------------------
     1 OT CG       0.15E+00    0.3     0.00947424       -16.0983725236 -1.61E+01
     2 OT LS       0.23E+00    0.3                      -16.0992662985
     3 OT CG       0.23E+00    0.5     0.00109153       -16.0993947930 -1.02E-03
     4 OT LS       0.19E+00    0.3                      -16.0994052910
     5 OT CG       0.19E+00    0.5     0.00013422       -16.0994058574 -1.11E-05
     6 OT LS       0.16E+00    0.3                      -16.0994059921
     7 OT CG       0.16E+00    0.5     0.00002657       -16.0994059974 -1.40E-07

  *** SCF run converged in     7 steps ***


  Electronic density on regular grids:        -13.9999999998        0.0000000002
  Core density on regular grids:               13.9999999987       -0.0000000013
  Total charge density on r-space grids:       -0.0000000011
  Total charge density g-space grids:          -0.0000000011

  Overlap energy of the core charge distribution:               0.00001004154956
  Self energy of the core charge distribution:                -38.70122451907286
  Core Hamiltonian energy:                                     12.72552963906736
  Hartree energy:                                              15.50056872764478
  Exchange-correlation energy:                                 -5.62428988661506

  Total energy:                                               -16.09940599742622

  outer SCF iter =    1 RMS gradient =   0.27E-04 energy =        -16.0994059974
  outer SCF loop converged in   1 iterations or    7 steps


 ENERGY| Total FORCE_EVAL ( QS ) energy [a.u.]:              -16.099406003727079

 STRESS| Analytical stress tensor [GPa]
 STRESS|                        x                   y                   z
 STRESS|      x        7.90749160407E-02   1.83318446534E-03   6.41241405517E-02
 STRESS|      y        1.83318446534E-03  -1.05468527961E-02   5.51593952512E-02
 STRESS|      z        6.41241405517E-02   5.51593952512E-02  -1.07254505520E-01
 STRESS| 1/3 Trace                                            -1.29088140917E-02
 STRESS| Determinant                                          -9.44445198430E-05

 STRESS| Eigenvectors and eigenvalues of the analytical stress tensor [GPa]
 STRESS|                        1                   2                   3
 STRESS| Eigenvalues  -1.47261743422E-01   6.27139949956E-03   1.02263901647E-01
 STRESS|      x          -0.251697310470     -0.277295893937      0.927229988249
 STRESS|      y          -0.359207496334      0.916405743976      0.176551655287
 STRESS|      z           0.898675936297      0.288630385811      0.330263624863

 Number of electrons:                                                         14
 Number of occupied orbitals:                                                  7
 Number of molecular orbitals:                                                 7

 Number of orbital functions:                                                 14
 Number of independent orbital functions:                                     14

 Extrapolation method: ASPC


 SCF WAVEFUNCTION OPTIMIZATION

  ----------------------------------- OT ---------------------------------------
  Minimizer      : CG                  : conjugate gradient
  Preconditioner : FULL_ALL            : diagonalization, state selective
  Precond_solver : DEFAULT
  Line search    : 2PNT                : 2 energies, one gradient
  stepsize       :    0.15000000                  energy_gap     :    0.08000000
  eps_taylor     :   0.10000E-15                  max_taylor     :             4
  ----------------------------------- OT ---------------------------------------

  Step     Update method      Time    Convergence         Total energy    Change
  ------------------------------------------------------------------------------
     1 OT CG       0.15E+00    0.3     0.01032414       -16.0985620096 -1.61E+01
     2 OT LS       0.22E+00    0.3                      -16.0995975221
     3 OT CG       0.22E+00    0.5     0.00198678       -16.0997166287 -1.15E-03
     4 OT LS       0.15E+00    0.3                      -16.0997409707
     5 OT CG       0.15E+00    0.5     0.00038197       -16.0997464971 -2.99E-05
     6 OT LS       0.17E+00    0.3                      -16.0997477204
     7 OT CG       0.17E+00    0.5     0.00003691       -16.0997477344 -1.24E-06

  *** SCF run converged in     7 steps ***


  Electronic density on regular grids:        -13.9999999998        0.0000000002
  Core density on regular grids:               13.9999999987       -0.0000000013
  Total charge density on r-space grids:       -0.0000000011
  Total charge density g-space grids:          -0.0000000011

  Overlap energy of the core charge distribution:               0.00001287004783
  Self energy of the core charge distribution:                -38.70122451907286
  Core Hamiltonian energy:                                     12.71896588901470
  Hartree energy:                                              15.50585472370895
  Exchange-correlation energy:                                 -5.62335669807753

  Total energy:                                               -16.09974773437891

  outer SCF iter =    1 RMS gradient =   0.37E-04 energy =        -16.0997477344
  outer SCF loop converged in   1 iterations or    7 steps


 ENERGY| Total FORCE_EVAL ( QS ) energy [a.u.]:              -16.099747747157437

 STRESS| Analytical stress tensor [GPa]
 STRESS|                        x                   y                   z
 STRESS|      x        7.28376228396E-02   1.00548312336E-02   7.28224919138E-02
 STRESS|      y        1.00548312336E-02  -4.96448538337E-04   3.99374828569E-02
 STRESS|      z        7.28224919138E-02   3.99374828569E-02  -1.19747141467E-01
 STRESS| 1/3 Trace                                            -1.58019890553E-02
 STRESS| Determinant                                          -3.86211282010E-05

 STRESS| Eigenvectors and eigenvalues of the analytical stress tensor [GPa]
 STRESS|                        1                   2                   3
 STRESS| Eigenvalues  -1.52208223425E-01   2.47979547545E-03   1.02322460784E-01
 STRESS|      x          -0.290807649271     -0.282346463360      0.914172514219
 STRESS|      y          -0.225499842517      0.948776092661      0.221300128830
 STRESS|      z           0.929828334775      0.141789987741      0.339580428214

 Number of electrons:                                                         14
 Number of occupied orbitals:                                                  7
 Number of molecular orbitals:                                                 7

 Number of orbital functions:                                                 14
 Number of independent orbital functions:                                     14

 Extrapolation method: ASPC


 SCF WAVEFUNCTION OPTIMIZATION

  ----------------------------------- OT ---------------------------------------
  Minimizer      : CG                  : conjugate gradient
  Preconditioner : FULL_ALL            : diagonalization, state selective
  Precond_solver : DEFAULT
  Line search    : 2PNT                : 2 energies, one gradient
  stepsize       :    0.15000000                  energy_gap     :    0.08000000
  eps_taylor     :   0.10000E-15                  max_taylor     :             4
  ----------------------------------- OT ---------------------------------------

  Step     Update method      Time    Convergence         Total energy    Change
  ------------------------------------------------------------------------------
     1 OT CG       0.15E+00    0.3     0.01131447       -16.0983824581 -1.61E+01
     2 OT LS       0.21E+00    0.3                      -16.0995925261
     3 OT CG       0.21E+00    0.5     0.00265590       -16.0997010583 -1.32E-03
     4 OT LS       0.15E+00    0.3                      -16.0997472678
     5 OT CG       0.15E+00    0.5     0.00046097       -16.0997543581 -5.33E-05
     6 OT LS       0.18E+00    0.3                      -16.0997562052
     7 OT CG       0.18E+00    0.5     0.00004556       -16.0997562491 -1.89E-06

  *** SCF run converged in     7 steps ***


  Electronic density on regular grids:        -13.9999999998        0.0000000002
  Core density on regular grids:               13.9999999987       -0.0000000013
  Total charge density on r-space grids:       -0.0000000011
  Total charge density g-space grids:          -0.0000000011

  Overlap energy of the core charge distribution:               0.00001287004783
  Self energy of the core charge distribution:                -38.70122451907286
  Core Hamiltonian energy:                                     12.71905648272716
  Hartree energy:                                              15.50577146384253
  Exchange-correlation energy:                                 -5.62337254661740

  Total energy:                                               -16.09975624907275

  outer SCF iter =    1 RMS gradient =   0.46E-04 energy =        -16.0997562491
  outer SCF loop converged in   1 iterations or    7 steps


 ENERGY| Total FORCE_EVAL ( QS ) energy [a.u.]:              -16.099756267491319

 STRESS| Analytical stress tensor [GPa]
 STRESS|                        x                   y                   z
 STRESS|      x        7.28101008412E-02   1.00376514854E-02   7.28516175711E-02
 STRESS|      y        1.00376514854E-02  -3.93423072825E-04   3.99286345141E-02
 STRESS|      z        7.28516175711E-02   3.99286345141E-02  -1.19787341500E-01
 STRESS| 1/3 Trace                                            -1.57902212438E-02
 STRESS| Determinant                                          -4.00960097055E-05

 STRESS| Eigenvectors and eigenvalues of the analytical stress tensor [GPa]
 STRESS|                        1                   2                   3
 STRESS| Eigenvalues  -1.52254374533E-01   2.57403632898E-03   1.02309674473E-01
 STRESS|      x          -0.290938226888     -0.282366149553      0.914124885189
 STRESS|      y          -0.225253385527      0.948813685696      0.221389932346
 STRESS|      z           0.929847224249      0.141498930815      0.339650102508

 Number of electrons:                                                         14
 Number of occupied orbitals:                                                  7
 Number of molecular orbitals:                                                 7

 Number of orbital functions:                                                 14
 Number of independent orbital functions:                                     14

 Extrapolation method: ASPC


 SCF WAVEFUNCTION OPTIMIZATION

  ----------------------------------- OT ---------------------------------------
  Minimizer      : CG                  : conjugate gradient
  Preconditioner : FULL_ALL            : diagonalization, state selective
  Precond_solver : DEFAULT
  Line search    : 2PNT                : 2 energies, one gradient
  stepsize       :    0.15000000                  energy_gap     :    0.08000000
  eps_taylor     :   0.10000E-15                  max_taylor     :             4
  ----------------------------------- OT ---------------------------------------

  Step     Update method      Time    Convergence         Total energy    Change
  ------------------------------------------------------------------------------
     1 OT CG       0.15E+00    0.3     0.01282283       -16.1002650849 -1.61E+01
     2 OT LS       0.20E+00    0.3                      -16.1017665197
     3 OT CG       0.20E+00    0.5     0.00334005       -16.1018590700 -1.59E-03
     4 OT LS       0.15E+00    0.3                      -16.1019369791
     5 OT CG       0.15E+00    0.5     0.00057958       -16.1019435197 -8.44E-05
     6 OT LS       0.19E+00    0.3                      -16.1019464936
     7 OT CG       0.19E+00    0.5     0.00005039       -16.1019465784 -3.06E-06

  *** SCF run converged in     7 steps ***


  Electronic density on regular grids:        -13.9999999998        0.0000000002
  Core density on regular grids:               13.9999999987       -0.0000000013
  Total charge density on r-space grids:       -0.0000000011
  Total charge density g-space grids:          -0.0000000011

  Overlap energy of the core charge distribution:               0.00001485394968
  Self energy of the core charge distribution:                -38.70122451907286
  Core Hamiltonian energy:                                     12.69829553159848
  Hartree energy:                                              15.51972984821976
  Exchange-correlation energy:                                 -5.61876229312602

  Total energy:                                               -16.10194657843096

  outer SCF iter =    1 RMS gradient =   0.50E-04 energy =        -16.1019465784
  outer SCF loop converged in   1 iterations or    7 steps


 ENERGY| Total FORCE_EVAL ( QS ) energy [a.u.]:              -16.101946601318758

 STRESS| Analytical stress tensor [GPa]
 STRESS|                        x                   y                   z
 STRESS|      x        1.15733877440E-02  -1.28888202513E-02   6.06561898808E-02
 STRESS|      y       -1.28888202513E-02  -1.04262792817E-02   2.94879937784E-02
 STRESS|      z        6.06561898808E-02   2.94879937784E-02  -1.22628365551E-01
 STRESS| 1/3 Trace                                            -4.04937523628E-02
 STRESS| Determinant                                           1.73583742978E-05

 STRESS| Eigenvectors and eigenvalues of the analytical stress tensor [GPa]
 STRESS|                        1                   2                   3
 STRESS| Eigenvalues  -1.53219302621E-01  -3.23901021917E-03   3.49770557519E-02
 STRESS|      x          -0.352067827407     -0.044711690420      0.934905936255
 STRESS|      y          -0.219666669761      0.974906928787     -0.036097567765
 STRESS|      z           0.909832291744      0.218076465814      0.353055032476

 Number of electrons:                                                         14
 Number of occupied orbitals:                                                  7
 Number of molecular orbitals:                                                 7

 Number of orbital functions:                                                 14
 Number of independent orbital functions:                                     14

 Extrapolation method: ASPC


 SCF WAVEFUNCTION OPTIMIZATION

  ----------------------------------- OT ---------------------------------------
  Minimizer      : CG                  : conjugate gradient
  Preconditioner : FULL_ALL            : diagonalization, state selective
  Precond_solver : DEFAULT
  Line search    : 2PNT                : 2 energies, one gradient
  stepsize       :    0.15000000                  energy_gap     :    0.08000000
  eps_taylor     :   0.10000E-15                  max_taylor     :             4
  ----------------------------------- OT ---------------------------------------

  Step     Update method      Time    Convergence         Total energy    Change
  ------------------------------------------------------------------------------
     1 OT CG       0.15E+00    0.3     0.01430875       -16.0999014888 -1.61E+01
     2 OT LS       0.19E+00    0.3                      -16.1017317269
     3 OT CG       0.19E+00    0.5     0.00383010       -16.1018226524 -1.92E-03
     4 OT LS       0.16E+00    0.3                      -16.1019297307
     5 OT CG       0.16E+00    0.5     0.00067563       -16.1019353556 -1.13E-04
     6 OT LS       0.19E+00    0.3                      -16.1019394859
     7 OT CG       0.19E+00    0.5     0.00005900       -16.1019396249 -4.27E-06

  *** SCF run converged in     7 steps ***


  Electronic density on regular grids:        -13.9999999998        0.0000000002
  Core density on regular grids:               13.9999999987       -0.0000000013
  Total charge density on r-space grids:       -0.0000000011
  Total charge density g-space grids:          -0.0000000011

  Overlap energy of the core charge distribution:               0.00001485394968
  Self energy of the core charge distribution:                -38.70122451907286
  Core Hamiltonian energy:                                     12.69838716273225
  Hartree energy:                                              15.51964169448575
  Exchange-correlation energy:                                 -5.61875881696310

  Total energy:                                               -16.10193962486828

  outer SCF iter =    1 RMS gradient =   0.59E-04 energy =        -16.1019396249
  outer SCF loop converged in   1 iterations or    7 steps


 ENERGY| Total FORCE_EVAL ( QS ) energy [a.u.]:              -16.101939654667717

 STRESS| Analytical stress tensor [GPa]
 STRESS|                        x                   y                   z
 STRESS|      x        1.15414127703E-02  -1.29414017498E-02   6.06781238703E-02
 STRESS|      y       -1.29414017498E-02  -1.05537813593E-02   2.94654791998E-02
 STRESS|      z        6.06781238703E-02   2.94654791998E-02  -1.22712134579E-01
 STRESS| 1/3 Trace                                            -4.05748343892E-02
 STRESS| Determinant                                           1.80595661208E-05

 STRESS| Eigenvectors and eigenvalues of the analytical stress tensor [GPa]
 STRESS|                        1                   2                   3
 STRESS| Eigenvalues  -1.53311948316E-01  -3.36972911240E-03   3.49571742603E-02
 STRESS|      x          -0.352121352352     -0.043455908112      0.934944991573
 STRESS|      y          -0.219705148302      0.974847805371     -0.037435333203
 STRESS|      z           0.909802286778      0.218594008181      0.352812214301

 Number of electrons:                                                         14
 Number of occupied orbitals:                                                  7
 Number of molecular orbitals:                                                 7

 Number of orbital functions:                                                 14
 Number of independent orbital functions:                                     14

 Extrapolation method: ASPC


 SCF WAVEFUNCTION OPTIMIZATION

  ----------------------------------- OT ---------------------------------------
  Minimizer      : CG                  : conjugate gradient
  Preconditioner : FULL_ALL            : diagonalization, state selective
  Precond_solver : DEFAULT
  Line search    : 2PNT                : 2 energies, one gradient
  stepsize       :    0.15000000                  energy_gap     :    0.08000000
  eps_taylor     :   0.10000E-15                  max_taylor     :             4
  ----------------------------------- OT ---------------------------------------

  Step     Update method      Time    Convergence         Total energy    Change
  ------------------------------------------------------------------------------
     1 OT CG       0.15E+00    0.3     0.01508843       -16.1002800060 -1.61E+01
     2 OT LS       0.19E+00    0.3                      -16.1023069274
     3 OT CG       0.19E+00    0.5     0.00397062       -16.1024000449 -2.12E-03
     4 OT LS       0.15E+00    0.3                      -16.1025129429
     5 OT CG       0.15E+00    0.5     0.00072494       -16.1025192067 -1.19E-04
     6 OT LS       0.19E+00    0.3                      -16.1025239096
     7 OT CG       0.19E+00    0.5     0.00006006       -16.1025240678 -4.86E-06

  *** SCF run converged in     7 steps ***


  Electronic density on regular grids:        -13.9999999998        0.0000000002
  Core density on regular grids:               13.9999999987       -0.0000000013
  Total charge density on r-space grids:       -0.0000000011
  Total charge density g-space grids:          -0.0000000011

  Overlap energy of the core charge distribution:               0.00001927364143
  Self energy of the core charge distribution:                -38.70122451907286
  Core Hamiltonian energy:                                     12.68395455440628
  Hartree energy:                                              15.53127704290609
  Exchange-correlation energy:                                 -5.61655041968280

  Total energy:                                               -16.10252406780187

  outer SCF iter =    1 RMS gradient =   0.60E-04 energy =        -16.1025240678
  outer SCF loop converged in   1 iterations or    7 steps


 ENERGY| Total FORCE_EVAL ( QS ) energy [a.u.]:              -16.102524101279172

 STRESS| Analytical stress tensor [GPa]
 STRESS|                        x                   y                   z
 STRESS|      x       -5.33354399716E-02  -3.15828243360E-02   2.33454541305E-02
 STRESS|      y       -3.15828243360E-02  -7.70918638775E-03   3.55405290121E-02
 STRESS|      z        2.33454541305E-02   3.55405290121E-02  -7.13861025966E-02
 STRESS| 1/3 Trace                                            -4.41435763186E-02
 STRESS| Determinant                                           6.10157909200E-05

 STRESS| Eigenvectors and eigenvalues of the analytical stress tensor [GPa]
 STRESS|                        1                   2                   3
 STRESS| Eigenvalues  -1.09381957253E-01  -3.78043144366E-02   1.47555427333E-02
 STRESS|      x          -0.540938262407      0.777424441184     -0.320931510627
 STRESS|      y          -0.422288609749      0.078946026173      0.903017084571
 STRESS|      z           0.727363819790      0.624002214099      0.285592560231

 Number of electrons:                                                         14
 Number of occupied orbitals:                                                  7
 Number of molecular orbitals:                                                 7

 Number of orbital functions:                                                 14
 Number of independent orbital functions:                                     14

 Extrapolation method: ASPC


 SCF WAVEFUNCTION OPTIMIZATION

  ----------------------------------- OT ---------------------------------------
  Minimizer      : CG                  : conjugate gradient
  Preconditioner : FULL_ALL            : diagonalization, state selective
  Precond_solver : DEFAULT
  Line search    : 2PNT                : 2 energies, one gradient
  stepsize       :    0.15000000                  energy_gap     :    0.08000000
  eps_taylor     :   0.10000E-15                  max_taylor     :             4
  ----------------------------------- OT ---------------------------------------

  Step     Update method      Time    Convergence         Total energy    Change
  ------------------------------------------------------------------------------
     1 OT CG       0.15E+00    0.3     0.01558350       -16.1001199244 -1.61E+01
     2 OT LS       0.19E+00    0.3                      -16.1022846090
     3 OT CG       0.19E+00    0.5     0.00407249       -16.1023889016 -2.27E-03
     4 OT LS       0.15E+00    0.3                      -16.1025059867
     5 OT CG       0.15E+00    0.5     0.00074991       -16.1025135279 -1.25E-04
     6 OT LS       0.19E+00    0.3                      -16.1025185522
     7 OT CG       0.19E+00    0.5     0.00007359       -16.1025187448 -5.22E-06

  *** SCF run converged in     7 steps ***


  Electronic density on regular grids:        -13.9999999998        0.0000000002
  Core density on regular grids:               13.9999999987       -0.0000000013
  Total charge density on r-space grids:       -0.0000000011
  Total charge density g-space grids:          -0.0000000011

  Overlap energy of the core charge distribution:               0.00001927364143
  Self energy of the core charge distribution:                -38.70122451907286
  Core Hamiltonian energy:                                     12.68405823356914
  Hartree energy:                                              15.53118193399633
  Exchange-correlation energy:                                 -5.61655366696310

  Total energy:                                               -16.10251874482907

  outer SCF iter =    1 RMS gradient =   0.74E-04 energy =        -16.1025187448
  outer SCF loop converged in   1 iterations or    7 steps


 ENERGY| Total FORCE_EVAL ( QS ) energy [a.u.]:              -16.102518793922627

 STRESS| Analytical stress tensor [GPa]
 STRESS|                        x                   y                   z
 STRESS|      x       -5.33982958024E-02  -3.16490744905E-02   2.33773863323E-02
 STRESS|      y       -3.16490744905E-02  -7.84028156290E-03   3.55098091820E-02
 STRESS|      z        2.33773863323E-02   3.55098091820E-02  -7.14400616696E-02
 STRESS| 1/3 Trace                                            -4.42262130116E-02
 STRESS| Determinant                                           6.07216570795E-05

 STRESS| Eigenvectors and eigenvalues of the analytical stress tensor [GPa]
 STRESS|                        1                   2                   3
 STRESS| Eigenvalues  -1.09488830529E-01  -3.78443624669E-02   1.46545539609E-02
 STRESS|      x          -0.541363168168      0.776687658528     -0.321997206884
 STRESS|      y          -0.422500755308      0.079808480891      0.902842022805
 STRESS|      z           0.726924364646      0.624809480936      0.284945750305

 Number of electrons:                                                         14
 Number of occupied orbitals:                                                  7
 Number of molecular orbitals:                                                 7

 Number of orbital functions:                                                 14
 Number of independent orbital functions:                                     14

 Extrapolation method: ASPC


 SCF WAVEFUNCTION OPTIMIZATION

  ----------------------------------- OT ---------------------------------------
  Minimizer      : CG                  : conjugate gradient
  Preconditioner : FULL_ALL            : diagonalization, state selective
  Precond_solver : DEFAULT
  Line search    : 2PNT                : 2 energies, one gradient
  stepsize       :    0.15000000                  energy_gap     :    0.08000000
  eps_taylor     :   0.10000E-15                  max_taylor     :             4
  ----------------------------------- OT ---------------------------------------

  Step     Update method      Time    Convergence         Total energy    Change
  ------------------------------------------------------------------------------
     1 OT CG       0.15E+00    0.3     0.01445766       -16.1006798934 -1.61E+01
     2 OT LS       0.20E+00    0.3                      -16.1025942598
     3 OT CG       0.20E+00    0.5     0.00339207       -16.1027157300 -2.04E-03
     4 OT LS       0.15E+00    0.3                      -16.1027908810
     5 OT CG       0.15E+00    0.5     0.00066166       -16.1027999286 -8.42E-05
     6 OT LS       0.18E+00    0.3                      -16.1028037177
     7 OT CG       0.18E+00    0.5     0.00006115       -16.1028038430 -3.91E-06

  *** SCF run converged in     7 steps ***


  Electronic density on regular grids:        -13.9999999998        0.0000000002
  Core density on regular grids:               13.9999999987       -0.0000000013
  Total charge density on r-space grids:       -0.0000000011
  Total charge density g-space grids:          -0.0000000011

  Overlap energy of the core charge distribution:               0.00002247622149
  Self energy of the core charge distribution:                -38.70122451907286
  Core Hamiltonian energy:                                     12.67948250810830
  Hartree energy:                                              15.53597196555956
  Exchange-correlation energy:                                 -5.61705627381738

  Total energy:                                               -16.10280384300089

  outer SCF iter =    1 RMS gradient =   0.61E-04 energy =        -16.1028038430
  outer SCF loop converged in   1 iterations or    7 steps


 ENERGY| Total FORCE_EVAL ( QS ) energy [a.u.]:              -16.102803879553001

 STRESS| Analytical stress tensor [GPa]
 STRESS|                        x                   y                   z
 STRESS|      x       -9.78286037203E-02  -4.70916615969E-02  -4.56955612541E-02
 STRESS|      y       -4.70916615969E-02  -1.26918695233E-02   2.33624190982E-02
 STRESS|      z       -4.56955612541E-02   2.33624190982E-02   1.09136961130E-02
 STRESS| 1/3 Trace                                            -3.32022590435E-02
 STRESS| Determinant                                           1.69791311431E-04

 STRESS| Eigenvectors and eigenvalues of the analytical stress tensor [GPa]
 STRESS|                        1                   2                   3
 STRESS| Eigenvalues  -1.27001332872E-01  -2.53480912535E-02   5.27426469950E-02
 STRESS|      x           0.912657823698     -0.104607553125     -0.395111321874
 STRESS|      y           0.325449327416      0.770802237380      0.547673850148
 STRESS|      z           0.247261869540     -0.628427538130      0.737523150275

 Number of electrons:                                                         14
 Number of occupied orbitals:                                                  7
 Number of molecular orbitals:                                                 7

 Number of orbital functions:                                                 14
 Number of independent orbital functions:                                     14

 Extrapolation method: ASPC


 SCF WAVEFUNCTION OPTIMIZATION

  ----------------------------------- OT ---------------------------------------
  Minimizer      : CG                  : conjugate gradient
  Preconditioner : FULL_ALL            : diagonalization, state selective
  Precond_solver : DEFAULT
  Line search    : 2PNT                : 2 energies, one gradient
  stepsize       :    0.15000000                  energy_gap     :    0.08000000
  eps_taylor     :   0.10000E-15                  max_taylor     :             4
  ----------------------------------- OT ---------------------------------------

  Step     Update method      Time    Convergence         Total energy    Change
  ------------------------------------------------------------------------------
     1 OT CG       0.15E+00    0.3     0.01352618       -16.1009020448 -1.61E+01
     2 OT LS       0.20E+00    0.3                      -16.1026074397
     3 OT CG       0.20E+00    0.5     0.00285326       -16.1027411567 -1.84E-03
     4 OT LS       0.15E+00    0.3                      -16.1027926888
     5 OT CG       0.15E+00    0.5     0.00058956       -16.1028009357 -5.98E-05
     6 OT LS       0.18E+00    0.3                      -16.1028038694
     7 OT CG       0.18E+00    0.5     0.00006234       -16.1028039392 -3.00E-06

  *** SCF run converged in     7 steps ***


  Electronic density on regular grids:        -13.9999999998        0.0000000002
  Core density on regular grids:               13.9999999987       -0.0000000013
  Total charge density on r-space grids:       -0.0000000011
  Total charge density g-space grids:          -0.0000000011

  Overlap energy of the core charge distribution:               0.00002247622149
  Self energy of the core charge distribution:                -38.70122451907286
  Core Hamiltonian energy:                                     12.67958697445215
  Hartree energy:                                              15.53588668291246
  Exchange-correlation energy:                                 -5.61707555372362

  Total energy:                                               -16.10280393921038

  outer SCF iter =    1 RMS gradient =   0.62E-04 energy =        -16.1028039392
  outer SCF loop converged in   1 iterations or    7 steps


 ENERGY| Total FORCE_EVAL ( QS ) energy [a.u.]:              -16.102803976646442

 STRESS| Analytical stress tensor [GPa]
 STRESS|                        x                   y                   z
 STRESS|      x       -9.78964508104E-02  -4.71305193805E-02  -4.56493938295E-02
 STRESS|      y       -4.71305193805E-02  -1.27360752299E-02   2.33282473711E-02
 STRESS|      z       -4.56493938295E-02   2.33282473711E-02   1.08997835776E-02
 STRESS| 1/3 Trace                                            -3.32442474876E-02
 STRESS| Determinant                                           1.69575229087E-04

 STRESS| Eigenvectors and eigenvalues of the analytical stress tensor [GPa]
 STRESS|                        1                   2                   3
 STRESS| Eigenvalues  -1.27071156173E-01  -2.53351204134E-02   5.26735341236E-02
 STRESS|      x           0.912629818672     -0.105110537783     -0.395042515330
 STRESS|      y           0.325830279657      0.770629179618      0.547690876663
 STRESS|      z           0.246863206918     -0.628555838704      0.737547364378

 Number of electrons:                                                         14
 Number of occupied orbitals:                                                  7
 Number of molecular orbitals:                                                 7

 Number of orbital functions:                                                 14
 Number of independent orbital functions:                                     14

 Extrapolation method: ASPC


 SCF WAVEFUNCTION OPTIMIZATION

  ----------------------------------- OT ---------------------------------------
  Minimizer      : CG                  : conjugate gradient
  Preconditioner : FULL_ALL            : diagonalization, state selective
  Precond_solver : DEFAULT
  Line search    : 2PNT                : 2 energies, one gradient
  stepsize       :    0.15000000                  energy_gap     :    0.08000000
  eps_taylor     :   0.10000E-15                  max_taylor     :             4
  ----------------------------------- OT ---------------------------------------

  Step     Update method      Time    Convergence         Total energy    Change
  ------------------------------------------------------------------------------
     1 OT CG       0.15E+00    0.3     0.01260400       -16.1016662018 -1.61E+01
     2 OT LS       0.22E+00    0.3                      -16.1031896703
     3 OT CG       0.22E+00    0.5     0.00173086       -16.1033445645 -1.68E-03
     4 OT LS       0.17E+00    0.3                      -16.1033673119
     5 OT CG       0.17E+00    0.5     0.00040689       -16.1033692511 -2.47E-05
     6 OT LS       0.15E+00    0.3                      -16.1033704769
     7 OT CG       0.15E+00    0.5     0.00004908       -16.1033704901 -1.24E-06

  *** SCF run converged in     7 steps ***


  Electronic density on regular grids:        -13.9999999998        0.0000000002
  Core density on regular grids:               13.9999999987       -0.0000000013
  Total charge density on r-space grids:       -0.0000000011
  Total charge density g-space grids:          -0.0000000011

  Overlap energy of the core charge distribution:               0.00002502460491
  Self energy of the core charge distribution:                -38.70122451907286
  Core Hamiltonian energy:                                     12.68569667678149
  Hartree energy:                                              15.53329516861759
  Exchange-correlation energy:                                 -5.62116284104723

  Total energy:                                               -16.10337049011611

  outer SCF iter =    1 RMS gradient =   0.49E-04 energy =        -16.1033704901
  outer SCF loop converged in   1 iterations or    7 steps


 ENERGY| Total FORCE_EVAL ( QS ) energy [a.u.]:              -16.103370512642197

 STRESS| Analytical stress tensor [GPa]
 STRESS|                        x                   y                   z
 STRESS|      x       -1.12932629816E-01  -7.07039861659E-02  -1.45139439855E-01
 STRESS|      y       -7.07039861659E-02  -4.66483713820E-02  -1.03147153896E-02
 STRESS|      z       -1.45139439855E-01  -1.03147153896E-02   1.50056043847E-01
 STRESS| 1/3 Trace                                            -3.17498578360E-03
 STRESS| Determinant                                           8.23362144079E-04

 STRESS| Eigenvectors and eigenvalues of the analytical stress tensor [GPa]
 STRESS|                        1                   2                   3
 STRESS| Eigenvalues  -2.06984284554E-01  -1.84259738037E-02   2.15885301007E-01
 STRESS|      x           0.846533267257     -0.331710677738     -0.416352559380
 STRESS|      y           0.396173559872      0.914980312420      0.076534556523
 STRESS|      z           0.355567065243     -0.229736923803      0.905976273396

 Number of electrons:                                                         14
 Number of occupied orbitals:                                                  7
 Number of molecular orbitals:                                                 7

 Number of orbital functions:                                                 14
 Number of independent orbital functions:                                     14

 Extrapolation method: ASPC


 SCF WAVEFUNCTION OPTIMIZATION

  ----------------------------------- OT ---------------------------------------
  Minimizer      : CG                  : conjugate gradient
  Preconditioner : FULL_ALL            : diagonalization, state selective
  Precond_solver : DEFAULT
  Line search    : 2PNT                : 2 energies, one gradient
  stepsize       :    0.15000000                  energy_gap     :    0.08000000
  eps_taylor     :   0.10000E-15                  max_taylor     :             4
  ----------------------------------- OT ---------------------------------------

  Step     Update method      Time    Convergence         Total energy    Change
  ------------------------------------------------------------------------------
     1 OT CG       0.15E+00    0.3     0.01227480       -16.1017451494 -1.61E+01
     2 OT LS       0.22E+00    0.3                      -16.1031972683
     3 OT CG       0.22E+00    0.5     0.00136722       -16.1033531662 -1.61E-03
     4 OT LS       0.20E+00    0.3                      -16.1033710206
     5 OT CG       0.20E+00    0.5     0.00012100       -16.1033712204 -1.81E-05
     6 OT LS       0.20E+00    0.3                      -16.1033713651
     7 OT CG       0.20E+00    0.5     0.00001673       -16.1033713652 -1.45E-07

  *** SCF run converged in     7 steps ***


  Electronic density on regular grids:        -13.9999999998        0.0000000002
  Core density on regular grids:               13.9999999987       -0.0000000013
  Total charge density on r-space grids:       -0.0000000011
  Total charge density g-space grids:          -0.0000000011

  Overlap energy of the core charge distribution:               0.00002502460491
  Self energy of the core charge distribution:                -38.70122451907286
  Core Hamiltonian energy:                                     12.68580525732893
  Hartree energy:                                              15.53321216758418
  Exchange-correlation energy:                                 -5.62118929567426

  Total energy:                                               -16.10337136522909

  outer SCF iter =    1 RMS gradient =   0.17E-04 energy =        -16.1033713652
  outer SCF loop converged in   1 iterations or    7 steps


 ENERGY| Total FORCE_EVAL ( QS ) energy [a.u.]:              -16.103371368111940

 STRESS| Analytical stress tensor [GPa]
 STRESS|                        x                   y                   z
 STRESS|      x       -1.12961288183E-01  -7.07044190315E-02  -1.45117695675E-01
 STRESS|      y       -7.07044190315E-02  -4.66607508666E-02  -1.03321784870E-02
 STRESS|      z       -1.45117695675E-01  -1.03321784870E-02   1.50044186160E-01
 STRESS| 1/3 Trace                                            -3.19261762988E-03
 STRESS| Determinant                                           8.23442304196E-04

 STRESS| Eigenvectors and eigenvalues of the analytical stress tensor [GPa]
 STRESS|                        1                   2                   3
 STRESS| Eigenvalues  -2.07000384730E-01  -1.84292000682E-02   2.15851731909E-01
 STRESS|      x           0.846534063506     -0.331777432000     -0.416297747940
 STRESS|      y           0.396203459935      0.914973167055      0.076465167917
 STRESS|      z           0.355531851822     -0.229668977411      0.906007319593

 Number of electrons:                                                         14
 Number of occupied orbitals:                                                  7
 Number of molecular orbitals:                                                 7

 Number of orbital functions:                                                 14
 Number of independent orbital functions:                                     14

 Extrapolation method: ASPC


 SCF WAVEFUNCTION OPTIMIZATION

  ----------------------------------- OT ---------------------------------------
  Minimizer      : CG                  : conjugate gradient
  Preconditioner : FULL_ALL            : diagonalization, state selective
  Precond_solver : DEFAULT
  Line search    : 2PNT                : 2 energies, one gradient
  stepsize       :    0.15000000                  energy_gap     :    0.08000000
  eps_taylor     :   0.10000E-15                  max_taylor     :             4
  ----------------------------------- OT ---------------------------------------

  Step     Update method      Time    Convergence         Total energy    Change
  ------------------------------------------------------------------------------
     1 OT CG       0.15E+00    0.3     0.01215141       -16.1025583986 -1.61E+01
     2 OT LS       0.22E+00    0.3                      -16.1039719818
     3 OT CG       0.22E+00    0.5     0.00201853       -16.1041151397 -1.56E-03
     4 OT LS       0.15E+00    0.3                      -16.1041398503
     5 OT CG       0.15E+00    0.5     0.00040029       -16.1041453055 -3.02E-05
     6 OT LS       0.17E+00    0.3                      -16.1041466448
     7 OT CG       0.17E+00    0.5     0.00004918       -16.1041466680 -1.36E-06

  *** SCF run converged in     7 steps ***


  Electronic density on regular grids:        -13.9999999998        0.0000000002
  Core density on regular grids:               13.9999999987       -0.0000000013
  Total charge density on r-space grids:       -0.0000000011
  Total charge density g-space grids:          -0.0000000011

  Overlap energy of the core charge distribution:               0.00002364840301
  Self energy of the core charge distribution:                -38.70122451907286
  Core Hamiltonian energy:                                     12.70259808628964
  Hartree energy:                                              15.52259884454148
  Exchange-correlation energy:                                 -5.62814272813719

  Total energy:                                               -16.10414666797591

  outer SCF iter =    1 RMS gradient =   0.49E-04 energy =        -16.1041466680
  outer SCF loop converged in   1 iterations or    7 steps


 ENERGY| Total FORCE_EVAL ( QS ) energy [a.u.]:              -16.104146690571376

 STRESS| Analytical stress tensor [GPa]
 STRESS|                        x                   y                   z
 STRESS|      x       -5.88096377476E-02  -6.20352668243E-02  -2.07348475901E-01
 STRESS|      y       -6.20352668243E-02  -6.84937218447E-02  -3.75443031459E-02
 STRESS|      z       -2.07348475901E-01  -3.75443031459E-02   2.44933431437E-01
 STRESS| 1/3 Trace                                             3.92100239484E-02
 STRESS| Determinant                                           2.10583393030E-03

 STRESS| Eigenvectors and eigenvalues of the analytical stress tensor [GPa]
 STRESS|                        1                   2                   3
 STRESS| Eigenvalues  -2.02878542852E-01  -2.96436113289E-02   3.50152226027E-01
 STRESS|      x           0.783220106448      0.428435369522     -0.450565643384
 STRESS|      y           0.473972200839     -0.880439546778     -0.013287486647
 STRESS|      z           0.402388640106      0.203148562911      0.892644410558

 Number of electrons:                                                         14
 Number of occupied orbitals:                                                  7
 Number of molecular orbitals:                                                 7

 Number of orbital functions:                                                 14
 Number of independent orbital functions:                                     14

 Extrapolation method: ASPC


 SCF WAVEFUNCTION OPTIMIZATION

  ----------------------------------- OT ---------------------------------------
  Minimizer      : CG                  : conjugate gradient
  Preconditioner : FULL_ALL            : diagonalization, state selective
  Precond_solver : DEFAULT
  Line search    : 2PNT                : 2 energies, one gradient
  stepsize       :    0.15000000                  energy_gap     :    0.08000000
  eps_taylor     :   0.10000E-15                  max_taylor     :             4
  ----------------------------------- OT ---------------------------------------

  Step     Update method      Time    Convergence         Total energy    Change
  ------------------------------------------------------------------------------
     1 OT CG       0.15E+00    0.3     0.01245914       -16.1025071031 -1.61E+01
     2 OT LS       0.21E+00    0.3                      -16.1039673560
     3 OT CG       0.21E+00    0.5     0.00277217       -16.1040900413 -1.58E-03
     4 OT LS       0.15E+00    0.3                      -16.1041348765
     5 OT CG       0.15E+00    0.5     0.00041230       -16.1041448627 -5.48E-05
     6 OT LS       0.18E+00    0.3                      -16.1041463299
     7 OT CG       0.18E+00    0.5     0.00005112       -16.1041463954 -1.53E-06

  *** SCF run converged in     7 steps ***


  Electronic density on regular grids:        -13.9999999998        0.0000000002
  Core density on regular grids:               13.9999999987       -0.0000000013
  Total charge density on r-space grids:       -0.0000000011
  Total charge density g-space grids:          -0.0000000011

  Overlap energy of the core charge distribution:               0.00002364840301
  Self energy of the core charge distribution:                -38.70122451907286
  Core Hamiltonian energy:                                     12.70249995813341
  Hartree energy:                                              15.52268838784326
  Exchange-correlation energy:                                 -5.62813387067853

  Total energy:                                               -16.10414639537170

  outer SCF iter =    1 RMS gradient =   0.51E-04 energy =        -16.1041463954
  outer SCF loop converged in   1 iterations or    7 steps


 ENERGY| Total FORCE_EVAL ( QS ) energy [a.u.]:              -16.104146420375415

 STRESS| Analytical stress tensor [GPa]
 STRESS|                        x                   y                   z
 STRESS|      x       -5.87746845464E-02  -6.20154833081E-02  -2.07324938426E-01
 STRESS|      y       -6.20154833081E-02  -6.84759031938E-02  -3.75543283979E-02
 STRESS|      z       -2.07324938426E-01  -3.75543283979E-02   2.44983672737E-01
 STRESS| 1/3 Trace                                             3.92443616655E-02
 STRESS| Determinant                                           2.10432148786E-03

 STRESS| Eigenvectors and eigenvalues of the analytical stress tensor [GPa]
 STRESS|                        1                   2                   3
 STRESS| Eigenvalues  -2.02819263872E-01  -2.96285523081E-02   3.50180901177E-01
 STRESS|      x           0.783204905076      0.428506539341     -0.450524386028
 STRESS|      y           0.474019006875     -0.880413588218     -0.013337721062
 STRESS|      z           0.402363091978      0.203110953480      0.892664485006

 Number of electrons:                                                         14
 Number of occupied orbitals:                                                  7
 Number of molecular orbitals:                                                 7

 Number of orbital functions:                                                 14
 Number of independent orbital functions:                                     14

 Extrapolation method: ASPC


 SCF WAVEFUNCTION OPTIMIZATION

  ----------------------------------- OT ---------------------------------------
  Minimizer      : CG                  : conjugate gradient
  Preconditioner : FULL_ALL            : diagonalization, state selective
  Precond_solver : DEFAULT
  Line search    : 2PNT                : 2 energies, one gradient
  stepsize       :    0.15000000                  energy_gap     :    0.08000000
  eps_taylor     :   0.10000E-15                  max_taylor     :             4
  ----------------------------------- OT ---------------------------------------

  Step     Update method      Time    Convergence         Total energy    Change
  ------------------------------------------------------------------------------
     1 OT CG       0.15E+00    0.3     0.01194661       -16.1025525024 -1.61E+01
     2 OT LS       0.21E+00    0.3                      -16.1038864512
     3 OT CG       0.21E+00    0.5     0.00260055       -16.1039939322 -1.44E-03
     4 OT LS       0.15E+00    0.3                      -16.1040374011
     5 OT CG       0.15E+00    0.5     0.00042005       -16.1040440663 -5.01E-05
     6 OT LS       0.18E+00    0.3                      -16.1040455898
     7 OT CG       0.18E+00    0.5     0.00006178       -16.1040456337 -1.57E-06

  *** SCF run converged in     7 steps ***


  Electronic density on regular grids:        -13.9999999998        0.0000000002
  Core density on regular grids:               13.9999999987       -0.0000000013
  Total charge density on r-space grids:       -0.0000000011
  Total charge density g-space grids:          -0.0000000011

  Overlap energy of the core charge distribution:               0.00001633393992
  Self energy of the core charge distribution:                -38.70122451907286
  Core Hamiltonian energy:                                     12.70105376938795
  Hartree energy:                                              15.52433662501007
  Exchange-correlation energy:                                 -5.62822784301491

  Total energy:                                               -16.10404563374983

  outer SCF iter =    1 RMS gradient =   0.62E-04 energy =        -16.1040456337
  outer SCF loop converged in   1 iterations or    7 steps


 ENERGY| Total FORCE_EVAL ( QS ) energy [a.u.]:              -16.104045667138408

 STRESS| Analytical stress tensor [GPa]
 STRESS|                        x                   y                   z
 STRESS|      x       -1.11225009976E-02  -3.61889340408E-02  -2.01711854210E-01
 STRESS|      y       -3.61889340408E-02  -7.84276685179E-02  -5.96314968776E-02
 STRESS|      z       -2.01711854210E-01  -5.96314968776E-02   2.11251314828E-01
 STRESS| 1/3 Trace                                             4.05670484375E-02
 STRESS| Determinant                                           2.26761551824E-03

 STRESS| Eigenvectors and eigenvalues of the analytical stress tensor [GPa]
 STRESS|                        1                   2                   3
 STRESS| Eigenvalues  -1.71737818907E-01  -3.96418455858E-02   3.33080809806E-01
 STRESS|      x           0.694682462595      0.519488569995     -0.497541859351
 STRESS|      y           0.558847169781     -0.825266845860     -0.081390871423
 STRESS|      z           0.452886428357      0.221509048953      0.863613121856

 Number of electrons:                                                         14
 Number of occupied orbitals:                                                  7
 Number of molecular orbitals:                                                 7

 Number of orbital functions:                                                 14
 Number of independent orbital functions:                                     14

 Extrapolation method: ASPC


 SCF WAVEFUNCTION OPTIMIZATION

  ----------------------------------- OT ---------------------------------------
  Minimizer      : CG                  : conjugate gradient
  Preconditioner : FULL_ALL            : diagonalization, state selective
  Precond_solver : DEFAULT
  Line search    : 2PNT                : 2 energies, one gradient
  stepsize       :    0.15000000                  energy_gap     :    0.08000000
  eps_taylor     :   0.10000E-15                  max_taylor     :             4
  ----------------------------------- OT ---------------------------------------

  Step     Update method      Time    Convergence         Total energy    Change
  ------------------------------------------------------------------------------
     1 OT CG       0.15E+00    0.3     0.01150563       -16.1026531880 -1.61E+01
     2 OT LS       0.21E+00    0.3                      -16.1039014410
     3 OT CG       0.21E+00    0.5     0.00213507       -16.1040087073 -1.36E-03
     4 OT LS       0.16E+00    0.3                      -16.1040395079
     5 OT CG       0.16E+00    0.5     0.00041643       -16.1040435017 -3.48E-05
     6 OT LS       0.18E+00    0.3                      -16.1040449811
     7 OT CG       0.18E+00    0.5     0.00006169       -16.1040450006 -1.50E-06

  *** SCF run converged in     7 steps ***


  Electronic density on regular grids:        -13.9999999998        0.0000000002
  Core density on regular grids:               13.9999999987       -0.0000000013
  Total charge density on r-space grids:       -0.0000000011
  Total charge density g-space grids:          -0.0000000011

  Overlap energy of the core charge distribution:               0.00001633393992
  Self energy of the core charge distribution:                -38.70122451907286
  Core Hamiltonian energy:                                     12.70083356219885
  Hartree energy:                                              15.52453320355581
  Exchange-correlation energy:                                 -5.62820358125467

  Total energy:                                               -16.10404500063294

  outer SCF iter =    1 RMS gradient =   0.62E-04 energy =        -16.1040450006
  outer SCF loop converged in   1 iterations or    7 steps


 ENERGY| Total FORCE_EVAL ( QS ) energy [a.u.]:              -16.104045033483743

 STRESS| Analytical stress tensor [GPa]
 STRESS|                        x                   y                   z
 STRESS|      x       -1.10767122499E-02  -3.61612824288E-02  -2.01687720966E-01
 STRESS|      y       -3.61612824288E-02  -7.83711436390E-02  -5.96429255463E-02
 STRESS|      z       -2.01687720966E-01  -5.96429255463E-02   2.11354985634E-01
 STRESS| 1/3 Trace                                             4.06357099152E-02
 STRESS| Determinant                                           2.26449371303E-03

 STRESS| Eigenvectors and eigenvalues of the analytical stress tensor [GPa]
 STRESS|                        1                   2                   3
 STRESS| Eigenvalues  -1.71645935907E-01  -3.95998854476E-02   3.33152951100E-01
 STRESS|      x           0.694678301691      0.519567712752     -0.497465022917
 STRESS|      y           0.558882865407     -0.825236103044     -0.081457455073
 STRESS|      z           0.452848760532      0.221437950897      0.863651106632

 Number of electrons:                                                         14
 Number of occupied orbitals:                                                  7
 Number of molecular orbitals:                                                 7

 Number of orbital functions:                                                 14
 Number of independent orbital functions:                                     14

 Extrapolation method: ASPC


 SCF WAVEFUNCTION OPTIMIZATION

  ----------------------------------- OT ---------------------------------------
  Minimizer      : CG                  : conjugate gradient
  Preconditioner : FULL_ALL            : diagonalization, state selective
  Precond_solver : DEFAULT
  Line search    : 2PNT                : 2 energies, one gradient
  stepsize       :    0.15000000                  energy_gap     :    0.08000000
  eps_taylor     :   0.10000E-15                  max_taylor     :             4
  ----------------------------------- OT ---------------------------------------

  Step     Update method      Time    Convergence         Total energy    Change
  ------------------------------------------------------------------------------
     1 OT CG       0.15E+00    0.3     0.01146666       -16.1020455334 -1.61E+01
     2 OT LS       0.21E+00    0.3                      -16.1032933524
     3 OT CG       0.21E+00    0.5     0.00169125       -16.1034101743 -1.36E-03
     4 OT LS       0.17E+00    0.3                      -16.1034336661
     5 OT CG       0.17E+00    0.5     0.00032095       -16.1034347477 -2.46E-05
     6 OT LS       0.18E+00    0.3                      -16.1034356474
     7 OT CG       0.18E+00    0.5     0.00005198       -16.1034356478 -9.00E-07

  *** SCF run converged in     7 steps ***


  Electronic density on regular grids:        -13.9999999998        0.0000000002
  Core density on regular grids:               13.9999999987       -0.0000000013
  Total charge density on r-space grids:       -0.0000000011
  Total charge density g-space grids:          -0.0000000011

  Overlap energy of the core charge distribution:               0.00000941863744
  Self energy of the core charge distribution:                -38.70122451907286
  Core Hamiltonian energy:                                     12.67737906731787
  Hartree energy:                                              15.54048931026601
  Exchange-correlation energy:                                 -5.62008892490090

  Total energy:                                               -16.10343564775245

  outer SCF iter =    1 RMS gradient =   0.52E-04 energy =        -16.1034356478
  outer SCF loop converged in   1 iterations or    7 steps


 ENERGY| Total FORCE_EVAL ( QS ) energy [a.u.]:              -16.103435667744073

 STRESS| Analytical stress tensor [GPa]
 STRESS|                        x                   y                   z
 STRESS|      x        6.54692771403E-03  -7.33958527255E-03  -1.00871357475E-01
 STRESS|      y       -7.33958527255E-03  -9.02752648977E-02  -8.30505333974E-02
 STRESS|      z       -1.00871357475E-01  -8.30505333974E-02   5.75772675763E-02
 STRESS| 1/3 Trace                                            -8.71702320244E-03
 STRESS| Determinant                                           7.13291998267E-04

 STRESS| Eigenvectors and eigenvalues of the analytical stress tensor [GPa]
 STRESS|                        1                   2                   3
 STRESS| Eigenvalues  -1.46663207287E-01  -3.19082576579E-02   1.52420395337E-01
 STRESS|      x           0.366865179960      0.756965733175     -0.540752086017
 STRESS|      y           0.784387752671     -0.564221363431     -0.257662776722
 STRESS|      z           0.500145771944      0.329631812552      0.800747822327

 Number of electrons:                                                         14
 Number of occupied orbitals:                                                  7
 Number of molecular orbitals:                                                 7

 Number of orbital functions:                                                 14
 Number of independent orbital functions:                                     14

 Extrapolation method: ASPC


 SCF WAVEFUNCTION OPTIMIZATION

  ----------------------------------- OT ---------------------------------------
  Minimizer      : CG                  : conjugate gradient
  Preconditioner : FULL_ALL            : diagonalization, state selective
  Precond_solver : DEFAULT
  Line search    : 2PNT                : 2 energies, one gradient
  stepsize       :    0.15000000                  energy_gap     :    0.08000000
  eps_taylor     :   0.10000E-15                  max_taylor     :             4
  ----------------------------------- OT ---------------------------------------

  Step     Update method      Time    Convergence         Total energy    Change
  ------------------------------------------------------------------------------
     1 OT CG       0.15E+00    0.3     0.01184218       -16.1019564762 -1.61E+01
     2 OT LS       0.21E+00    0.3                      -16.1032907448
     3 OT CG       0.21E+00    0.5     0.00173007       -16.1034162952 -1.46E-03
     4 OT LS       0.17E+00    0.3                      -16.1034400287
     5 OT CG       0.17E+00    0.5     0.00036749       -16.1034414420 -2.51E-05
     6 OT LS       0.17E+00    0.3                      -16.1034425862
     7 OT CG       0.17E+00    0.5     0.00006278       -16.1034425862 -1.14E-06

  *** SCF run converged in     7 steps ***


  Electronic density on regular grids:        -13.9999999997        0.0000000003
  Core density on regular grids:               13.9999999987       -0.0000000013
  Total charge density on r-space grids:       -0.0000000011
  Total charge density g-space grids:          -0.0000000011

  Overlap energy of the core charge distribution:               0.00000941863744
  Self energy of the core charge distribution:                -38.70122451907286
  Core Hamiltonian energy:                                     12.67735577440302
  Hartree energy:                                              15.54052259101080
  Exchange-correlation energy:                                 -5.62010585118463

  Total energy:                                               -16.10344258620623

  outer SCF iter =    1 RMS gradient =   0.63E-04 energy =        -16.1034425862
  outer SCF loop converged in   1 iterations or    7 steps


 ENERGY| Total FORCE_EVAL ( QS ) energy [a.u.]:              -16.103442616932078

 STRESS| Analytical stress tensor [GPa]
 STRESS|                        x                   y                   z
 STRESS|      x        6.53204872404E-03  -7.32819875057E-03  -1.00854599269E-01
 STRESS|      y       -7.32819875057E-03  -9.01592385884E-02  -8.30663420551E-02
 STRESS|      z       -1.00854599269E-01  -8.30663420551E-02   5.76334682005E-02
 STRESS| 1/3 Trace                                            -8.66457388795E-03
 STRESS| Determinant                                           7.12174395823E-04

 STRESS| Eigenvectors and eigenvalues of the analytical stress tensor [GPa]
 STRESS|                        1                   2                   3
 STRESS| Eigenvalues  -1.46579475302E-01  -3.18692298094E-02   1.52454983447E-01
 STRESS|      x           0.367062778532      0.757020410270     -0.540541409192
 STRESS|      y           0.784215274701     -0.564370936643     -0.257860134178
 STRESS|      z           0.500271245967      0.329249972373      0.800826533121

 Number of electrons:                                                         14
 Number of occupied orbitals:                                                  7
 Number of molecular orbitals:                                                 7

 Number of orbital functions:                                                 14
 Number of independent orbital functions:                                     14

 Extrapolation method: ASPC


 SCF WAVEFUNCTION OPTIMIZATION

  ----------------------------------- OT ---------------------------------------
  Minimizer      : CG                  : conjugate gradient
  Preconditioner : FULL_ALL            : diagonalization, state selective
  Precond_solver : DEFAULT
  Line search    : 2PNT                : 2 energies, one gradient
  stepsize       :    0.15000000                  energy_gap     :    0.08000000
  eps_taylor     :   0.10000E-15                  max_taylor     :             4
  ----------------------------------- OT ---------------------------------------

  Step     Update method      Time    Convergence         Total energy    Change
  ------------------------------------------------------------------------------
     1 OT CG       0.15E+00    0.3     0.01091995       -16.1004901674 -1.61E+01
     2 OT LS       0.21E+00    0.3                      -16.1016160935
     3 OT CG       0.21E+00    0.5     0.00198703       -16.1017157022 -1.23E-03
     4 OT LS       0.16E+00    0.3                      -16.1017425610
     5 OT CG       0.16E+00    0.5     0.00039713       -16.1017460350 -3.03E-05
     6 OT LS       0.18E+00    0.3                      -16.1017474041
     7 OT CG       0.18E+00    0.5     0.00006698       -16.1017474280 -1.39E-06

  *** SCF run converged in     7 steps ***


  Electronic density on regular grids:        -13.9999999998        0.0000000002
  Core density on regular grids:               13.9999999987       -0.0000000013
  Total charge density on r-space grids:       -0.0000000011
  Total charge density g-space grids:          -0.0000000011

  Overlap energy of the core charge distribution:               0.00000632153954
  Self energy of the core charge distribution:                -38.70122451907286
  Core Hamiltonian energy:                                     12.64927014417258
  Hartree energy:                                              15.55938233923383
  Exchange-correlation energy:                                 -5.60918171386932

  Total energy:                                               -16.10174742799623

  outer SCF iter =    1 RMS gradient =   0.67E-04 energy =        -16.1017474280
  outer SCF loop converged in   1 iterations or    7 steps


 ENERGY| Total FORCE_EVAL ( QS ) energy [a.u.]:              -16.101747463073707

 STRESS| Analytical stress tensor [GPa]
 STRESS|                        x                   y                   z
 STRESS|      x       -2.92855473822E-02   1.59706809671E-03   3.27234271811E-02
 STRESS|      y        1.59706809671E-03  -9.56272081460E-02  -8.18580658611E-02
 STRESS|      z        3.27234271811E-02  -8.18580658611E-02  -9.90426532548E-02
 STRESS| 1/3 Trace                                            -7.46518029277E-02
 STRESS| Determinant                                           1.29628037603E-05

 STRESS| Eigenvectors and eigenvalues of the analytical stress tensor [GPa]
 STRESS|                        1                   2                   3
 STRESS| Eigenvalues  -1.83182847354E-01  -4.24399590779E-02   1.66739764840E-03
 STRESS|      x          -0.160022434063      0.771003387617      0.616398083124
 STRESS|      y           0.675695021595      0.540775690089     -0.500996896997
 STRESS|      z           0.719603403541     -0.336326373173      0.607499392856

 Number of electrons:                                                         14
 Number of occupied orbitals:                                                  7
 Number of molecular orbitals:                                                 7

 Number of orbital functions:                                                 14
 Number of independent orbital functions:                                     14

 Extrapolation method: ASPC


 SCF WAVEFUNCTION OPTIMIZATION

  ----------------------------------- OT ---------------------------------------
  Minimizer      : CG                  : conjugate gradient
  Preconditioner : FULL_ALL            : diagonalization, state selective
  Precond_solver : DEFAULT
  Line search    : 2PNT                : 2 energies, one gradient
  stepsize       :    0.15000000                  energy_gap     :    0.08000000
  eps_taylor     :   0.10000E-15                  max_taylor     :             4
  ----------------------------------- OT ---------------------------------------

  Step     Update method      Time    Convergence         Total energy    Change
  ------------------------------------------------------------------------------
     1 OT CG       0.15E+00    0.3     0.00980570       -16.1007424885 -1.61E+01
     2 OT LS       0.21E+00    0.3                      -16.1016455314
     3 OT CG       0.21E+00    0.5     0.00212117       -16.1017211012 -9.79E-04
     4 OT LS       0.15E+00    0.3                      -16.1017486757
     5 OT CG       0.15E+00    0.5     0.00036156       -16.1017538643 -3.28E-05
     6 OT LS       0.19E+00    0.3                      -16.1017550225
     7 OT CG       0.19E+00    0.5     0.00005663       -16.1017550797 -1.22E-06

  *** SCF run converged in     7 steps ***


  Electronic density on regular grids:        -13.9999999997        0.0000000003
  Core density on regular grids:               13.9999999987       -0.0000000013
  Total charge density on r-space grids:       -0.0000000010
  Total charge density g-space grids:          -0.0000000010

  Overlap energy of the core charge distribution:               0.00000632153954
  Self energy of the core charge distribution:                -38.70122451907286
  Core Hamiltonian energy:                                     12.64945035645154
  Hartree energy:                                              15.55926182692244
  Exchange-correlation energy:                                 -5.60924906558928

  Total energy:                                               -16.10175507974861

  outer SCF iter =    1 RMS gradient =   0.57E-04 energy =        -16.1017550797
  outer SCF loop converged in   1 iterations or    7 steps


 ENERGY| Total FORCE_EVAL ( QS ) energy [a.u.]:              -16.101755105599860

 STRESS| Analytical stress tensor [GPa]
 STRESS|                        x                   y                   z
 STRESS|      x       -2.93168971923E-02   1.60922290675E-03   3.27495988099E-02
 STRESS|      y        1.60922290675E-03  -9.55195883721E-02  -8.18714710989E-02
 STRESS|      z        3.27495988099E-02  -8.18714710989E-02  -9.89870367045E-02
 STRESS| 1/3 Trace                                            -7.46078407563E-02
 STRESS| Determinant                                           1.33872542071E-05

 STRESS| Eigenvectors and eigenvalues of the analytical stress tensor [GPa]
 STRESS|                        1                   2                   3
 STRESS| Eigenvalues  -1.83127424143E-01  -4.24194466800E-02   1.72334855444E-03
 STRESS|      x          -0.160307761093      0.771727696437      0.615416756585
 STRESS|      y           0.675522239006      0.540375127611     -0.501661664938
 STRESS|      z           0.719702109446     -0.335307446998      0.607945548258

 Number of electrons:                                                         14
 Number of occupied orbitals:                                                  7
 Number of molecular orbitals:                                                 7

 Number of orbital functions:                                                 14
 Number of independent orbital functions:                                     14

 Extrapolation method: ASPC


 SCF WAVEFUNCTION OPTIMIZATION

  ----------------------------------- OT ---------------------------------------
  Minimizer      : CG                  : conjugate gradient
  Preconditioner : FULL_ALL            : diagonalization, state selective
  Precond_solver : DEFAULT
  Line search    : 2PNT                : 2 energies, one gradient
  stepsize       :    0.15000000                  energy_gap     :    0.08000000
  eps_taylor     :   0.10000E-15                  max_taylor     :             4
  ----------------------------------- OT ---------------------------------------

  Step     Update method      Time    Convergence         Total energy    Change
  ------------------------------------------------------------------------------
     1 OT CG       0.15E+00    0.3     0.00858717       -16.0998174435 -1.61E+01
     2 OT LS       0.20E+00    0.3                      -16.1004909032
     3 OT CG       0.20E+00    0.5     0.00235783       -16.1005326707 -7.15E-04
     4 OT LS       0.15E+00    0.3                      -16.1005683030
     5 OT CG       0.15E+00    0.5     0.00029412       -16.1005729115 -4.02E-05
     6 OT LS       0.20E+00    0.3                      -16.1005737024
     7 OT CG       0.20E+00    0.5     0.00004025       -16.1005737602 -8.49E-07

  *** SCF run converged in     7 steps ***


  Electronic density on regular grids:        -13.9999999998        0.0000000002
  Core density on regular grids:               13.9999999987       -0.0000000013
  Total charge density on r-space grids:       -0.0000000011
  Total charge density g-space grids:          -0.0000000011

  Overlap energy of the core charge distribution:               0.00000605044594
  Self energy of the core charge distribution:                -38.70122451907286
  Core Hamiltonian energy:                                     12.62220745632867
  Hartree energy:                                              15.57716273744341
  Exchange-correlation energy:                                 -5.59872548534528

  Total energy:                                               -16.10057376020011

  outer SCF iter =    1 RMS gradient =   0.40E-04 energy =        -16.1005737602
  outer SCF loop converged in   1 iterations or    7 steps


 ENERGY| Total FORCE_EVAL ( QS ) energy [a.u.]:              -16.100573773125582

 STRESS| Analytical stress tensor [GPa]
 STRESS|                        x                   y                   z
 STRESS|      x       -1.35335444803E-01  -3.03827204866E-02   1.56576837465E-01
 STRESS|      y       -3.03827204866E-02  -9.59965889580E-02  -4.03953437492E-02
 STRESS|      z        1.56576837465E-01  -4.03953437492E-02  -1.81589917741E-01
 STRESS| 1/3 Trace                                            -1.37640650501E-01
 STRESS| Determinant                                           7.67118067930E-04

 STRESS| Eigenvectors and eigenvalues of the analytical stress tensor [GPa]
 STRESS|                        1                   2                   3
 STRESS| Eigenvalues  -3.17277087276E-01  -1.16413994503E-01   2.07691302773E-02
 STRESS|      x          -0.646648990704      0.327890835406      0.688718144728
 STRESS|      y           0.050159967862      0.919220762608     -0.390534463542
 STRESS|      z           0.761136689725      0.217992636679      0.610860172141

 Number of electrons:                                                         14
 Number of occupied orbitals:                                                  7
 Number of molecular orbitals:                                                 7

 Number of orbital functions:                                                 14
 Number of independent orbital functions:                                     14

 Extrapolation method: ASPC


 SCF WAVEFUNCTION OPTIMIZATION

  ----------------------------------- OT ---------------------------------------
  Minimizer      : CG                  : conjugate gradient
  Preconditioner : FULL_ALL            : diagonalization, state selective
  Precond_solver : DEFAULT
  Line search    : 2PNT                : 2 energies, one gradient
  stepsize       :    0.15000000                  energy_gap     :    0.08000000
  eps_taylor     :   0.10000E-15                  max_taylor     :             4
  ----------------------------------- OT ---------------------------------------

  Step     Update method      Time    Convergence         Total energy    Change
  ------------------------------------------------------------------------------
     1 OT CG       0.15E+00    0.3     0.00833297       -16.0998945579 -1.61E+01
     2 OT LS       0.19E+00    0.3                      -16.1005051733
     3 OT CG       0.19E+00    0.5     0.00255709       -16.1005300169 -6.35E-04
     4 OT LS       0.16E+00    0.3                      -16.1005779509
     5 OT CG       0.16E+00    0.5     0.00025771       -16.1005799540 -4.99E-05
     6 OT LS       0.21E+00    0.3                      -16.1005805862
     7 OT CG       0.21E+00    0.5     0.00002518       -16.1005806281 -6.74E-07

  *** SCF run converged in     7 steps ***


  Electronic density on regular grids:        -13.9999999997        0.0000000003
  Core density on regular grids:               13.9999999987       -0.0000000013
  Total charge density on r-space grids:       -0.0000000010
  Total charge density g-space grids:          -0.0000000010

  Overlap energy of the core charge distribution:               0.00000605044594
  Self energy of the core charge distribution:                -38.70122451907286
  Core Hamiltonian energy:                                     12.62222703339633
  Hartree energy:                                              15.57716090228703
  Exchange-correlation energy:                                 -5.59875009515226

  Total energy:                                               -16.10058062809582

  outer SCF iter =    1 RMS gradient =   0.25E-04 energy =        -16.1005806281
  outer SCF loop converged in   1 iterations or    7 steps


 ENERGY| Total FORCE_EVAL ( QS ) energy [a.u.]:              -16.100580634200519

 STRESS| Analytical stress tensor [GPa]
 STRESS|                        x                   y                   z
 STRESS|      x       -1.35286622284E-01  -3.03711349227E-02   1.56575218177E-01
 STRESS|      y       -3.03711349227E-02  -9.59460736787E-02  -4.04024600448E-02
 STRESS|      z        1.56575218177E-01  -4.04024600448E-02  -1.81530859329E-01
 STRESS| 1/3 Trace                                            -1.37587851764E-01
 STRESS| Determinant                                           7.68422605715E-04

 STRESS| Eigenvectors and eigenvalues of the analytical stress tensor [GPa]
 STRESS|                        1                   2                   3
 STRESS| Eigenvalues  -3.17222032309E-01  -1.16359354367E-01   2.08178313842E-02
 STRESS|      x          -0.646652261435      0.327910222519      0.688705843411
 STRESS|      y           0.050217681390      0.919225765849     -0.390515269709
 STRESS|      z           0.761130105341      0.217942371666      0.610886311334

 Number of electrons:                                                         14
 Number of occupied orbitals:                                                  7
 Number of molecular orbitals:                                                 7

 Number of orbital functions:                                                 14
 Number of independent orbital functions:                                     14

 Extrapolation method: ASPC


 SCF WAVEFUNCTION OPTIMIZATION

  ----------------------------------- OT ---------------------------------------
  Minimizer      : CG                  : conjugate gradient
  Preconditioner : FULL_ALL            : diagonalization, state selective
  Precond_solver : DEFAULT
  Line search    : 2PNT                : 2 energies, one gradient
  stepsize       :    0.15000000                  energy_gap     :    0.08000000
  eps_taylor     :   0.10000E-15                  max_taylor     :             4
  ----------------------------------- OT ---------------------------------------

  Step     Update method      Time    Convergence         Total energy    Change
  ------------------------------------------------------------------------------
     1 OT CG       0.15E+00    0.3     0.00691856       -16.0993115207 -1.61E+01
     2 OT LS       0.18E+00    0.3                      -16.0997186045
     3 OT CG       0.18E+00    0.5     0.00222587       -16.0997287478 -4.17E-04
     4 OT LS       0.16E+00    0.3                      -16.0997675136
     5 OT CG       0.16E+00    0.5     0.00020932       -16.0997679129 -3.92E-05
     6 OT LS       0.20E+00    0.3                      -16.0997683220
     7 OT CG       0.20E+00    0.5     0.00002740       -16.0997683355 -4.23E-07

  *** SCF run converged in     7 steps ***


  Electronic density on regular grids:        -13.9999999997        0.0000000003
  Core density on regular grids:               13.9999999987       -0.0000000013
  Total charge density on r-space grids:       -0.0000000010
  Total charge density g-space grids:          -0.0000000010

  Overlap energy of the core charge distribution:               0.00000665273796
  Self energy of the core charge distribution:                -38.70122451907286
  Core Hamiltonian energy:                                     12.60785674517653
  Hartree energy:                                              15.58622888709553
  Exchange-correlation energy:                                 -5.59263610146867

  Total energy:                                               -16.09976833553150

  outer SCF iter =    1 RMS gradient =   0.27E-04 energy =        -16.0997683355
  outer SCF loop converged in   1 iterations or    7 steps


 ENERGY| Total FORCE_EVAL ( QS ) energy [a.u.]:              -16.099768342805316

 STRESS| Analytical stress tensor [GPa]
 STRESS|                        x                   y                   z
 STRESS|      x       -2.33286026696E-01  -6.43934939227E-02   2.32929705005E-01
 STRESS|      y       -6.43934939227E-02  -7.99540689653E-02   1.53638841059E-02
 STRESS|      z        2.32929705005E-01   1.53638841059E-02  -2.09156907474E-01
 STRESS| 1/3 Trace                                            -1.74132334378E-01
 STRESS| Determinant                                           8.98228183366E-04

 STRESS| Eigenvectors and eigenvalues of the analytical stress tensor [GPa]
 STRESS|                        1                   2                   3
 STRESS| Eigenvalues  -4.63077890202E-01  -8.27573968314E-02   2.34382838979E-02
 STRESS|      x           0.724215539099      0.120903965617      0.678891805832
 STRESS|      y           0.148724649318      0.933952875488     -0.324981545710
 STRESS|      z          -0.673344511831      0.336324631071      0.658401785327

 Number of electrons:                                                         14
 Number of occupied orbitals:                                                  7
 Number of molecular orbitals:                                                 7

 Number of orbital functions:                                                 14
 Number of independent orbital functions:                                     14

 Extrapolation method: ASPC


 SCF WAVEFUNCTION OPTIMIZATION

  ----------------------------------- OT ---------------------------------------
  Minimizer      : CG                  : conjugate gradient
  Preconditioner : FULL_ALL            : diagonalization, state selective
  Precond_solver : DEFAULT
  Line search    : 2PNT                : 2 energies, one gradient
  stepsize       :    0.15000000                  energy_gap     :    0.08000000
  eps_taylor     :   0.10000E-15                  max_taylor     :             4
  ----------------------------------- OT ---------------------------------------

  Step     Update method      Time    Convergence         Total energy    Change
  ------------------------------------------------------------------------------
     1 OT CG       0.15E+00    0.3     0.00609002       -16.0994197897 -1.61E+01
     2 OT LS       0.18E+00    0.3                      -16.0997323724
     3 OT CG       0.18E+00    0.5     0.00193277       -16.0997393082 -3.20E-04
     4 OT LS       0.16E+00    0.3                      -16.0997692140
     5 OT CG       0.16E+00    0.5     0.00021759       -16.0997693681 -3.01E-05
     6 OT LS       0.19E+00    0.3                      -16.0997697927
     7 OT CG       0.19E+00    0.5     0.00003060       -16.0997697985 -4.30E-07

  *** SCF run converged in     7 steps ***


  Electronic density on regular grids:        -13.9999999997        0.0000000003
  Core density on regular grids:               13.9999999987       -0.0000000013
  Total charge density on r-space grids:       -0.0000000010
  Total charge density g-space grids:          -0.0000000010

  Overlap energy of the core charge distribution:               0.00000665273796
  Self energy of the core charge distribution:                -38.70122451907286
  Core Hamiltonian energy:                                     12.60787472436937
  Hartree energy:                                              15.58621051204942
  Exchange-correlation energy:                                 -5.59263716854397

  Total energy:                                               -16.09976979846008

  outer SCF iter =    1 RMS gradient =   0.31E-04 energy =        -16.0997697985
  outer SCF loop converged in   1 iterations or    7 steps


 ENERGY| Total FORCE_EVAL ( QS ) energy [a.u.]:              -16.099769807040353

 STRESS| Analytical stress tensor [GPa]
 STRESS|                        x                   y                   z
 STRESS|      x       -2.33265684485E-01  -6.43934900225E-02   2.32941662328E-01
 STRESS|      y       -6.43934900225E-02  -7.99741306713E-02   1.53470120083E-02
 STRESS|      z        2.32941662328E-01   1.53470120083E-02  -2.09176802720E-01
 STRESS| 1/3 Trace                                            -1.74138872625E-01
 STRESS| Determinant                                           8.99191646148E-04

 STRESS| Eigenvectors and eigenvalues of the analytical stress tensor [GPa]
 STRESS|                        1                   2                   3
 STRESS| Eigenvalues  -4.63084967923E-01  -8.27864746194E-02   2.34548246665E-02
 STRESS|      x           0.724190216344      0.120942465601      0.678911960836
 STRESS|      y           0.148697106851      0.933954256463     -0.324990180234
 STRESS|      z          -0.673377829280      0.336306953316      0.658376740313

 Number of electrons:                                                         14
 Number of occupied orbitals:                                                  7
 Number of molecular orbitals:                                                 7

 Number of orbital functions:                                                 14
 Number of independent orbital functions:                                     14

 Extrapolation method: ASPC


 SCF WAVEFUNCTION OPTIMIZATION

  ----------------------------------- OT ---------------------------------------
  Minimizer      : CG                  : conjugate gradient
  Preconditioner : FULL_ALL            : diagonalization, state selective
  Precond_solver : DEFAULT
  Line search    : 2PNT                : 2 energies, one gradient
  stepsize       :    0.15000000                  energy_gap     :    0.08000000
  eps_taylor     :   0.10000E-15                  max_taylor     :             4
  ----------------------------------- OT ---------------------------------------

  Step     Update method      Time    Convergence         Total energy    Change
  ------------------------------------------------------------------------------
     1 OT CG       0.15E+00    0.3     0.00543712       -16.0996670681 -1.61E+01
     2 OT LS       0.19E+00    0.3                      -16.0999325083
     3 OT CG       0.19E+00    0.5     0.00154001       -16.0999461588 -2.79E-04
     4 OT LS       0.15E+00    0.3                      -16.0999629590
     5 OT CG       0.15E+00    0.5     0.00026294       -16.0999640710 -1.79E-05
     6 OT LS       0.18E+00    0.3                      -16.0999646646
     7 OT CG       0.18E+00    0.5     0.00003883       -16.0999646758 -6.05E-07

  *** SCF run converged in     7 steps ***


  Electronic density on regular grids:        -13.9999999997        0.0000000003
  Core density on regular grids:               13.9999999987       -0.0000000013
  Total charge density on r-space grids:       -0.0000000010
  Total charge density g-space grids:          -0.0000000010

  Overlap energy of the core charge distribution:               0.00000921957324
  Self energy of the core charge distribution:                -38.70122451907286
  Core Hamiltonian energy:                                     12.61939198221682
  Hartree energy:                                              15.57856850809474
  Exchange-correlation energy:                                 -5.59670986660969

  Total energy:                                               -16.09996467579775

  outer SCF iter =    1 RMS gradient =   0.39E-04 energy =        -16.0999646758
  outer SCF loop converged in   1 iterations or    7 steps


 ENERGY| Total FORCE_EVAL ( QS ) energy [a.u.]:              -16.099964688918792

 STRESS| Analytical stress tensor [GPa]
 STRESS|                        x                   y                   z
 STRESS|      x       -2.39458347155E-01  -5.92168371514E-02   2.68102457933E-01
 STRESS|      y       -5.92168371514E-02  -3.67256910638E-02   6.19554525793E-02
 STRESS|      z        2.68102457933E-01   6.19554525793E-02  -1.69456947205E-01
 STRESS| 1/3 Trace                                            -1.48546995141E-01
 STRESS| Determinant                                           6.95699896843E-04

 STRESS| Eigenvectors and eigenvalues of the analytical stress tensor [GPa]
 STRESS|                        1                   2                   3
 STRESS| Eigenvalues  -4.90888035175E-01  -2.12974396069E-02   6.65444893578E-02
 STRESS|      x           0.736898257809     -0.194010034793      0.647565490153
 STRESS|      y           0.184788018029      0.979258359469      0.083105076876
 STRESS|      z          -0.650257138392      0.058422357104      0.757464508845

 Number of electrons:                                                         14
 Number of occupied orbitals:                                                  7
 Number of molecular orbitals:                                                 7

 Number of orbital functions:                                                 14
 Number of independent orbital functions:                                     14

 Extrapolation method: ASPC


 SCF WAVEFUNCTION OPTIMIZATION

  ----------------------------------- OT ---------------------------------------
  Minimizer      : CG                  : conjugate gradient
  Preconditioner : FULL_ALL            : diagonalization, state selective
  Precond_solver : DEFAULT
  Line search    : 2PNT                : 2 energies, one gradient
  stepsize       :    0.15000000                  energy_gap     :    0.08000000
  eps_taylor     :   0.10000E-15                  max_taylor     :             4
  ----------------------------------- OT ---------------------------------------

  Step     Update method      Time    Convergence         Total energy    Change
  ------------------------------------------------------------------------------
     1 OT CG       0.15E+00    0.3     0.00596478       -16.0995818560 -1.61E+01
     2 OT LS       0.21E+00    0.3                      -16.0999166796
     3 OT CG       0.21E+00    0.5     0.00124354       -16.0999453870 -3.64E-04
     4 OT LS       0.16E+00    0.3                      -16.0999568216
     5 OT CG       0.16E+00    0.5     0.00027291       -16.0999577707 -1.24E-05
     6 OT LS       0.16E+00    0.3                      -16.0999583640
     7 OT CG       0.16E+00    0.5     0.00004756       -16.0999583640 -5.93E-07

  *** SCF run converged in     7 steps ***


  Electronic density on regular grids:        -13.9999999997        0.0000000003
  Core density on regular grids:               13.9999999987       -0.0000000013
  Total charge density on r-space grids:       -0.0000000010
  Total charge density g-space grids:          -0.0000000010

  Overlap energy of the core charge distribution:               0.00000921957324
  Self energy of the core charge distribution:                -38.70122451907286
  Core Hamiltonian energy:                                     12.61954763299634
  Hartree energy:                                              15.57842973525550
  Exchange-correlation energy:                                 -5.59672043279591

  Total energy:                                               -16.09995836404369

  outer SCF iter =    1 RMS gradient =   0.48E-04 energy =        -16.0999583640
  outer SCF loop converged in   1 iterations or    7 steps


 ENERGY| Total FORCE_EVAL ( QS ) energy [a.u.]:              -16.099958382409906

 STRESS| Analytical stress tensor [GPa]
 STRESS|                        x                   y                   z
 STRESS|      x       -2.39532979359E-01  -5.92355244395E-02   2.68112658180E-01
 STRESS|      y       -5.92355244395E-02  -3.68075573270E-02   6.19468275272E-02
 STRESS|      z        2.68112658180E-01   6.19468275272E-02  -1.69558982745E-01
 STRESS| 1/3 Trace                                            -1.48633173144E-01
 STRESS| Determinant                                           6.97440513956E-04

 STRESS| Eigenvectors and eigenvalues of the analytical stress tensor [GPa]
 STRESS|                        1                   2                   3
 STRESS| Eigenvalues  -4.90987293648E-01  -2.13732247951E-02   6.64609990122E-02
 STRESS|      x           0.736883409938     -0.193865264477      0.647625740214
 STRESS|      y           0.184798851473      0.979275765876      0.082875562519
 STRESS|      z          -0.650270885595      0.058610865866      0.757438143844

 Number of electrons:                                                         14
 Number of occupied orbitals:                                                  7
 Number of molecular orbitals:                                                 7

 Number of orbital functions:                                                 14
 Number of independent orbital functions:                                     14

 Extrapolation method: ASPC


 SCF WAVEFUNCTION OPTIMIZATION

  ----------------------------------- OT ---------------------------------------
  Minimizer      : CG                  : conjugate gradient
  Preconditioner : FULL_ALL            : diagonalization, state selective
  Precond_solver : DEFAULT
  Line search    : 2PNT                : 2 energies, one gradient
  stepsize       :    0.15000000                  energy_gap     :    0.08000000
  eps_taylor     :   0.10000E-15                  max_taylor     :             4
  ----------------------------------- OT ---------------------------------------

  Step     Update method      Time    Convergence         Total energy    Change
  ------------------------------------------------------------------------------
     1 OT CG       0.15E+00    0.3     0.00723863       -16.1022101991 -1.61E+01
     2 OT LS       0.21E+00    0.3                      -16.1027067764
     3 OT CG       0.21E+00    0.5     0.00134400       -16.1027519343 -5.42E-04
     4 OT LS       0.17E+00    0.3                      -16.1027660943
     5 OT CG       0.17E+00    0.5     0.00029572       -16.1027669688 -1.50E-05
     6 OT LS       0.16E+00    0.3                      -16.1027676576
     7 OT CG       0.16E+00    0.5     0.00005251       -16.1027676596 -6.91E-07

  *** SCF run converged in     7 steps ***


  Electronic density on regular grids:        -13.9999999997        0.0000000003
  Core density on regular grids:               13.9999999987       -0.0000000013
  Total charge density on r-space grids:       -0.0000000010
  Total charge density g-space grids:          -0.0000000010

  Overlap energy of the core charge distribution:               0.00001393390694
  Self energy of the core charge distribution:                -38.70122451907286
  Core Hamiltonian energy:                                     12.65991859242967
  Hartree energy:                                              15.55110166949397
  Exchange-correlation energy:                                 -5.61257733640435

  Total energy:                                               -16.10276765964662

  outer SCF iter =    1 RMS gradient =   0.53E-04 energy =        -16.1027676596
  outer SCF loop converged in   1 iterations or    7 steps


 ENERGY| Total FORCE_EVAL ( QS ) energy [a.u.]:              -16.102767681784325

 STRESS| Analytical stress tensor [GPa]
 STRESS|                        x                   y                   z
 STRESS|      x       -1.43515817920E-01  -5.53840775179E-03   2.26721343514E-01
 STRESS|      y       -5.53840775179E-03   2.73718576911E-02   8.94566368006E-02
 STRESS|      z        2.26721343514E-01   8.94566368006E-02  -5.08849221357E-02
 STRESS| 1/3 Trace                                            -5.56762941216E-02
 STRESS| Determinant                                          -2.81705051483E-04

 STRESS| Eigenvectors and eigenvalues of the analytical stress tensor [GPa]
 STRESS|                        1                   2                   3
 STRESS| Eigenvalues  -3.38974345540E-01   4.97730373628E-03   1.66968159439E-01
 STRESS|      x           0.748665101933     -0.407529503121      0.522896040560
 STRESS|      y           0.167921878328      0.879593525050      0.445103890646
 STRESS|      z          -0.641328938943     -0.245428064361      0.726954095730

 Number of electrons:                                                         14
 Number of occupied orbitals:                                                  7
 Number of molecular orbitals:                                                 7

 Number of orbital functions:                                                 14
 Number of independent orbital functions:                                     14

 Extrapolation method: ASPC


 SCF WAVEFUNCTION OPTIMIZATION

  ----------------------------------- OT ---------------------------------------
  Minimizer      : CG                  : conjugate gradient
  Preconditioner : FULL_ALL            : diagonalization, state selective
  Precond_solver : DEFAULT
  Line search    : 2PNT                : 2 energies, one gradient
  stepsize       :    0.15000000                  energy_gap     :    0.08000000
  eps_taylor     :   0.10000E-15                  max_taylor     :             4
  ----------------------------------- OT ---------------------------------------

  Step     Update method      Time    Convergence         Total energy    Change
  ------------------------------------------------------------------------------
     1 OT CG       0.15E+00    0.3     0.00884778       -16.1019522636 -1.61E+01
     2 OT LS       0.20E+00    0.3                      -16.1026777358
     3 OT CG       0.20E+00    0.5     0.00204591       -16.1027308628 -7.79E-04
     4 OT LS       0.16E+00    0.3                      -16.1027600417
     5 OT CG       0.16E+00    0.5     0.00042197       -16.1027629138 -3.21E-05
     6 OT LS       0.17E+00    0.3                      -16.1027644187
     7 OT CG       0.17E+00    0.5     0.00006372       -16.1027644352 -1.52E-06

  *** SCF run converged in     7 steps ***


  Electronic density on regular grids:        -13.9999999997        0.0000000003
  Core density on regular grids:               13.9999999987       -0.0000000013
  Total charge density on r-space grids:       -0.0000000011
  Total charge density g-space grids:          -0.0000000011

  Overlap energy of the core charge distribution:               0.00001393390694
  Self energy of the core charge distribution:                -38.70122451907286
  Core Hamiltonian energy:                                     12.65973686681050
  Hartree energy:                                              15.55122882785902
  Exchange-correlation energy:                                 -5.61251954470115

  Total energy:                                               -16.10276443519755

  outer SCF iter =    1 RMS gradient =   0.64E-04 energy =        -16.1027644352
  outer SCF loop converged in   1 iterations or    7 steps


 ENERGY| Total FORCE_EVAL ( QS ) energy [a.u.]:              -16.102764469025409

 STRESS| Analytical stress tensor [GPa]
 STRESS|                        x                   y                   z
 STRESS|      x       -1.43464641286E-01  -5.53718108951E-03   2.26694569494E-01
 STRESS|      y       -5.53718108951E-03   2.73315997136E-02   8.94407053427E-02
 STRESS|      z        2.26694569494E-01   8.94407053427E-02  -5.09202159649E-02
 STRESS| 1/3 Trace                                            -5.56844191789E-02
 STRESS| Determinant                                          -2.80232427612E-04

 STRESS| Eigenvectors and eigenvalues of the analytical stress tensor [GPa]
 STRESS|                        1                   2                   3
 STRESS| Eigenvalues  -3.38931865201E-01   4.95317270311E-03   1.66925434961E-01
 STRESS|      x           0.748610740353     -0.407515247390      0.522984973562
 STRESS|      y           0.167942747439      0.879631342426      0.445021274776
 STRESS|      z          -0.641386929248     -0.245316172654      0.726940700762

 Number of electrons:                                                         14
 Number of occupied orbitals:                                                  7
 Number of molecular orbitals:                                                 7

 Number of orbital functions:                                                 14
 Number of independent orbital functions:                                     14

 Extrapolation method: ASPC


 SCF WAVEFUNCTION OPTIMIZATION

  ----------------------------------- OT ---------------------------------------
  Minimizer      : CG                  : conjugate gradient
  Preconditioner : FULL_ALL            : diagonalization, state selective
  Precond_solver : DEFAULT
  Line search    : 2PNT                : 2 energies, one gradient
  stepsize       :    0.15000000                  energy_gap     :    0.08000000
  eps_taylor     :   0.10000E-15                  max_taylor     :             4
  ----------------------------------- OT ---------------------------------------

  Step     Update method      Time    Convergence         Total energy    Change
  ------------------------------------------------------------------------------
     1 OT CG       0.15E+00    0.3     0.01091405       -16.1044580886 -1.61E+01
     2 OT LS       0.19E+00    0.3                      -16.1055231932
     3 OT CG       0.19E+00    0.5     0.00278741       -16.1055756503 -1.12E-03
     4 OT LS       0.16E+00    0.3                      -16.1056324758
     5 OT CG       0.16E+00    0.5     0.00050270       -16.1056353866 -5.97E-05
     6 OT LS       0.19E+00    0.3                      -16.1056376679
     7 OT CG       0.19E+00    0.5     0.00006367       -16.1056377396 -2.35E-06

  *** SCF run converged in     7 steps ***


  Electronic density on regular grids:        -13.9999999997        0.0000000003
  Core density on regular grids:               13.9999999987       -0.0000000013
  Total charge density on r-space grids:       -0.0000000010
  Total charge density g-space grids:          -0.0000000010

  Overlap energy of the core charge distribution:               0.00001896259869
  Self energy of the core charge distribution:                -38.70122451907286
  Core Hamiltonian energy:                                     12.71792986257351
  Hartree energy:                                              15.51205755314925
  Exchange-correlation energy:                                 -5.63441959883981

  Total energy:                                               -16.10563773959121

  outer SCF iter =    1 RMS gradient =   0.64E-04 energy =        -16.1056377396
  outer SCF loop converged in   1 iterations or    7 steps


 ENERGY| Total FORCE_EVAL ( QS ) energy [a.u.]:              -16.105637774180636

 STRESS| Analytical stress tensor [GPa]
 STRESS|                        x                   y                   z
 STRESS|      x        3.53007851806E-02   7.36389226632E-02   1.23500307947E-01
 STRESS|      y        7.36389226632E-02   8.31894643381E-02   7.93592057966E-02
 STRESS|      z        1.23500307947E-01   7.93592057966E-02   1.01728228450E-01
 STRESS| 1/3 Trace                                             7.34061593229E-02
 STRESS| Determinant                                          -3.00599837530E-04

 STRESS| Eigenvectors and eigenvalues of the analytical stress tensor [GPa]
 STRESS|                        1                   2                   3
 STRESS| Eigenvalues  -6.04233968142E-02   1.90152323959E-02   2.61626642387E-01
 STRESS|      x           0.814908034889      0.226626733596      0.533446546800
 STRESS|      y          -0.102637571501     -0.849412577427      0.517652201990
 STRESS|      z          -0.570430033912      0.476590596769      0.668932716708

 Number of electrons:                                                         14
 Number of occupied orbitals:                                                  7
 Number of molecular orbitals:                                                 7

 Number of orbital functions:                                                 14
 Number of independent orbital functions:                                     14

 Extrapolation method: ASPC


 SCF WAVEFUNCTION OPTIMIZATION

  ----------------------------------- OT ---------------------------------------
  Minimizer      : CG                  : conjugate gradient
  Preconditioner : FULL_ALL            : diagonalization, state selective
  Precond_solver : DEFAULT
  Line search    : 2PNT                : 2 energies, one gradient
  stepsize       :    0.15000000                  energy_gap     :    0.08000000
  eps_taylor     :   0.10000E-15                  max_taylor     :             4
  ----------------------------------- OT ---------------------------------------

  Step     Update method      Time    Convergence         Total energy    Change
  ------------------------------------------------------------------------------
     1 OT CG       0.15E+00    0.3     0.01276464       -16.1040781718 -1.61E+01
     2 OT LS       0.18E+00    0.3                      -16.1054989891
     3 OT CG       0.18E+00    0.5     0.00322953       -16.1055497613 -1.47E-03
     4 OT LS       0.16E+00    0.3                      -16.1056302899
     5 OT CG       0.16E+00    0.5     0.00058824       -16.1056319988 -8.22E-05
     6 OT LS       0.19E+00    0.3                      -16.1056351661
     7 OT CG       0.19E+00    0.5     0.00006672       -16.1056352485 -3.25E-06

  *** SCF run converged in     7 steps ***


  Electronic density on regular grids:        -13.9999999997        0.0000000003
  Core density on regular grids:               13.9999999987       -0.0000000013
  Total charge density on r-space grids:       -0.0000000011
  Total charge density g-space grids:          -0.0000000011

  Overlap energy of the core charge distribution:               0.00001896259869
  Self energy of the core charge distribution:                -38.70122451907286
  Core Hamiltonian energy:                                     12.71787605742932
  Hartree energy:                                              15.51207604886809
  Exchange-correlation energy:                                 -5.63438179833732

  Total energy:                                               -16.10563524851408

  outer SCF iter =    1 RMS gradient =   0.67E-04 energy =        -16.1056352485
  outer SCF loop converged in   1 iterations or    7 steps


 ENERGY| Total FORCE_EVAL ( QS ) energy [a.u.]:              -16.105635286572028

 STRESS| Analytical stress tensor [GPa]
 STRESS|                        x                   y                   z
 STRESS|      x        3.53124067607E-02   7.36482659230E-02   1.23505361087E-01
 STRESS|      y        7.36482659230E-02   8.31652423801E-02   7.93484583037E-02
 STRESS|      z        1.23505361087E-01   7.93484583037E-02   1.01643812242E-01
 STRESS| 1/3 Trace                                             7.33738204608E-02
 STRESS| Determinant                                          -3.00219148707E-04

 STRESS| Eigenvectors and eigenvalues of the analytical stress tensor [GPa]
 STRESS|                        1                   2                   3
 STRESS| Eigenvalues  -6.04509309054E-02   1.89853764318E-02   2.61587015856E-01
 STRESS|      x           0.814793093031      0.226786811789      0.533554081183
 STRESS|      y          -0.102575048578     -0.849402639432      0.517680901266
 STRESS|      z          -0.570605445959      0.476532158542      0.668824735576

 Number of electrons:                                                         14
 Number of occupied orbitals:                                                  7
 Number of molecular orbitals:                                                 7

 Number of orbital functions:                                                 14
 Number of independent orbital functions:                                     14

 Extrapolation method: ASPC


 SCF WAVEFUNCTION OPTIMIZATION

  ----------------------------------- OT ---------------------------------------
  Minimizer      : CG                  : conjugate gradient
  Preconditioner : FULL_ALL            : diagonalization, state selective
  Precond_solver : DEFAULT
  Line search    : 2PNT                : 2 energies, one gradient
  stepsize       :    0.15000000                  energy_gap     :    0.08000000
  eps_taylor     :   0.10000E-15                  max_taylor     :             4
  ----------------------------------- OT ---------------------------------------

  Step     Update method      Time    Convergence         Total energy    Change
  ------------------------------------------------------------------------------
     1 OT CG       0.15E+00    0.3     0.01427518       -16.1022813671 -1.61E+01
     2 OT LS       0.18E+00    0.3                      -16.1040570307
     3 OT CG       0.18E+00    0.5     0.00341229       -16.1041206531 -1.84E-03
     4 OT LS       0.16E+00    0.3                      -16.1042106405
     5 OT CG       0.16E+00    0.5     0.00063735       -16.1042125642 -9.19E-05
     6 OT LS       0.20E+00    0.3                      -16.1042163452
     7 OT CG       0.20E+00    0.5     0.00006981       -16.1042164727 -3.91E-06

  *** SCF run converged in     7 steps ***


  Electronic density on regular grids:        -13.9999999997        0.0000000003
  Core density on regular grids:               13.9999999987       -0.0000000013
  Total charge density on r-space grids:       -0.0000000011
  Total charge density g-space grids:          -0.0000000011

  Overlap energy of the core charge distribution:               0.00002403050677
  Self energy of the core charge distribution:                -38.70122451907286
  Core Hamiltonian energy:                                     12.77175079889275
  Hartree energy:                                              15.47786354751342
  Exchange-correlation energy:                                 -5.65263033056754

  Total energy:                                               -16.10421647272745

  outer SCF iter =    1 RMS gradient =   0.70E-04 energy =        -16.1042164727
  outer SCF loop converged in   1 iterations or    7 steps


 ENERGY| Total FORCE_EVAL ( QS ) energy [a.u.]:              -16.104216515604229

 STRESS| Analytical stress tensor [GPa]
 STRESS|                        x                   y                   z
 STRESS|      x        2.31890262598E-01   1.52662330655E-01  -2.21081490670E-02
 STRESS|      y        1.52662330655E-01   1.22398552406E-01   5.22832669041E-02
 STRESS|      z       -2.21081490670E-02   5.22832669041E-02   2.08123695651E-01
 STRESS| 1/3 Trace                                             1.87470836885E-01
 STRESS| Determinant                                           1.00683867713E-05

 STRESS| Eigenvectors and eigenvalues of the analytical stress tensor [GPa]
 STRESS|                        1                   2                   3
 STRESS| Eigenvalues   1.33328099799E-04   2.21779630971E-01   3.40499551584E-01
 STRESS|      x          -0.548498548874     -0.228707305724      0.804265074582
 STRESS|      y           0.795282526674      0.154342823348      0.586262736022
 STRESS|      z          -0.258215113133      0.961182220596      0.097230109330

 Number of electrons:                                                         14
 Number of occupied orbitals:                                                  7
 Number of molecular orbitals:                                                 7

 Number of orbital functions:                                                 14
 Number of independent orbital functions:                                     14

 Extrapolation method: ASPC


 SCF WAVEFUNCTION OPTIMIZATION

  ----------------------------------- OT ---------------------------------------
  Minimizer      : CG                  : conjugate gradient
  Preconditioner : FULL_ALL            : diagonalization, state selective
  Precond_solver : DEFAULT
  Line search    : 2PNT                : 2 energies, one gradient
  stepsize       :    0.15000000                  energy_gap     :    0.08000000
  eps_taylor     :   0.10000E-15                  max_taylor     :             4
  ----------------------------------- OT ---------------------------------------

  Step     Update method      Time    Convergence         Total energy    Change
  ------------------------------------------------------------------------------
     1 OT CG       0.15E+00    0.3     0.01536543       -16.1019684151 -1.61E+01
     2 OT LS       0.18E+00    0.3                      -16.1040283155
     3 OT CG       0.18E+00    0.5     0.00336074       -16.1041023963 -2.13E-03
     4 OT LS       0.16E+00    0.3                      -16.1041915574
     5 OT CG       0.16E+00    0.5     0.00069336       -16.1041929840 -9.06E-05
     6 OT LS       0.19E+00    0.3                      -16.1041974123
     7 OT CG       0.19E+00    0.5     0.00006783       -16.1041975097 -4.53E-06

  *** SCF run converged in     7 steps ***


  Electronic density on regular grids:        -13.9999999998        0.0000000002
  Core density on regular grids:               13.9999999987       -0.0000000013
  Total charge density on r-space grids:       -0.0000000011
  Total charge density g-space grids:          -0.0000000011

  Overlap energy of the core charge distribution:               0.00002403050677
  Self energy of the core charge distribution:                -38.70122451907286
  Core Hamiltonian energy:                                     12.77171794618115
  Hartree energy:                                              15.47787209262449
  Exchange-correlation energy:                                 -5.65258705993134

  Total energy:                                               -16.10419750969178

  outer SCF iter =    1 RMS gradient =   0.68E-04 energy =        -16.1041975097
  outer SCF loop converged in   1 iterations or    7 steps


 ENERGY| Total FORCE_EVAL ( QS ) energy [a.u.]:              -16.104197550532611

 STRESS| Analytical stress tensor [GPa]
 STRESS|                        x                   y                   z
 STRESS|      x        2.31867955131E-01   1.52676427072E-01  -2.21204174049E-02
 STRESS|      y        1.52676427072E-01   1.22131314548E-01   5.22547505439E-02
 STRESS|      z       -2.21204174049E-02   5.22547505439E-02   2.08093201776E-01
 STRESS| 1/3 Trace                                             1.87364157152E-01
 STRESS| Determinant                                          -3.66385280106E-06

 STRESS| Eigenvectors and eigenvalues of the analytical stress tensor [GPa]
 STRESS|                        1                   2                   3
 STRESS| Eigenvalues  -4.85403866918E-05   2.21739853262E-01   3.40401158579E-01
 STRESS|      x          -0.548300522053     -0.228261215502      0.804526789494
 STRESS|      y           0.795494429736      0.154416045973      0.585955883156
 STRESS|      z          -0.257982847833      0.961276496250      0.096914126836

 Number of electrons:                                                         14
 Number of occupied orbitals:                                                  7
 Number of molecular orbitals:                                                 7

 Number of orbital functions:                                                 14
 Number of independent orbital functions:                                     14

 Extrapolation method: ASPC


 SCF WAVEFUNCTION OPTIMIZATION

  ----------------------------------- OT ---------------------------------------
  Minimizer      : CG                  : conjugate gradient
  Preconditioner : FULL_ALL            : diagonalization, state selective
  Precond_solver : DEFAULT
  Line search    : 2PNT                : 2 energies, one gradient
  stepsize       :    0.15000000                  energy_gap     :    0.08000000
  eps_taylor     :   0.10000E-15                  max_taylor     :             4
  ----------------------------------- OT ---------------------------------------

  Step     Update method      Time    Convergence         Total energy    Change
  ------------------------------------------------------------------------------
     1 OT CG       0.15E+00    0.3     0.01480683       -16.1001919188 -1.61E+01
     2 OT LS       0.19E+00    0.3                      -16.1021167276
     3 OT CG       0.19E+00    0.5     0.00307755       -16.1021924710 -2.00E-03
     4 OT LS       0.16E+00    0.3                      -16.1022658697
     5 OT CG       0.16E+00    0.5     0.00064155       -16.1022675884 -7.51E-05
     6 OT LS       0.20E+00    0.3                      -16.1022714157
     7 OT CG       0.20E+00    0.5     0.00006765       -16.1022715341 -3.95E-06

  *** SCF run converged in     7 steps ***


  Electronic density on regular grids:        -13.9999999997        0.0000000003
  Core density on regular grids:               13.9999999987       -0.0000000013
  Total charge density on r-space grids:       -0.0000000011
  Total charge density g-space grids:          -0.0000000011

  Overlap energy of the core charge distribution:               0.00002467113823
  Self energy of the core charge distribution:                -38.70122451907286
  Core Hamiltonian energy:                                     12.79994783436662
  Hartree energy:                                              15.45966254444657
  Exchange-correlation energy:                                 -5.66068206494968

  Total energy:                                               -16.10227153407112

  outer SCF iter =    1 RMS gradient =   0.68E-04 energy =        -16.1022715341
  outer SCF loop converged in   1 iterations or    7 steps


 ENERGY| Total FORCE_EVAL ( QS ) energy [a.u.]:              -16.102271574955264

 STRESS| Analytical stress tensor [GPa]
 STRESS|                        x                   y                   z
 STRESS|      x        3.47272128322E-01   1.75163239563E-01  -1.04748472727E-01
 STRESS|      y        1.75163239563E-01   1.20226670722E-01   3.25132467126E-02
 STRESS|      z       -1.04748472727E-01   3.25132467126E-02   2.42025518196E-01
 STRESS| 1/3 Trace                                             2.36508105746E-01
 STRESS| Determinant                                          -2.00341265313E-04

 STRESS| Eigenvectors and eigenvalues of the analytical stress tensor [GPa]
 STRESS|                        1                   2                   3
 STRESS| Eigenvalues  -1.76601369851E-03   2.41448674363E-01   4.69841656574E-01
 STRESS|      x          -0.500071433111      0.142440300897      0.854189277893
 STRESS|      y           0.803865253676      0.443200212320      0.396704204329
 STRESS|      z          -0.322070203092      0.885033520540     -0.336134573944

 Number of electrons:                                                         14
 Number of occupied orbitals:                                                  7
 Number of molecular orbitals:                                                 7

 Number of orbital functions:                                                 14
 Number of independent orbital functions:                                     14

 Extrapolation method: ASPC


 SCF WAVEFUNCTION OPTIMIZATION

  ----------------------------------- OT ---------------------------------------
  Minimizer      : CG                  : conjugate gradient
  Preconditioner : FULL_ALL            : diagonalization, state selective
  Precond_solver : DEFAULT
  Line search    : 2PNT                : 2 energies, one gradient
  stepsize       :    0.15000000                  energy_gap     :    0.08000000
  eps_taylor     :   0.10000E-15                  max_taylor     :             4
  ----------------------------------- OT ---------------------------------------

  Step     Update method      Time    Convergence         Total energy    Change
  ------------------------------------------------------------------------------
     1 OT CG       0.15E+00    0.3     0.01406691       -16.1004061956 -1.61E+01
     2 OT LS       0.19E+00    0.3                      -16.1021502325
     3 OT CG       0.19E+00    0.5     0.00262054       -16.1022220028 -1.82E-03
     4 OT LS       0.17E+00    0.3                      -16.1022770611
     5 OT CG       0.17E+00    0.5     0.00059530       -16.1022779446 -5.59E-05
     6 OT LS       0.19E+00    0.3                      -16.1022811774
     7 OT CG       0.19E+00    0.5     0.00005849       -16.1022812238 -3.28E-06

  *** SCF run converged in     7 steps ***


  Electronic density on regular grids:        -13.9999999997        0.0000000003
  Core density on regular grids:               13.9999999987       -0.0000000013
  Total charge density on r-space grids:       -0.0000000010
  Total charge density g-space grids:          -0.0000000010

  Overlap energy of the core charge distribution:               0.00002467113823
  Self energy of the core charge distribution:                -38.70122451907286
  Core Hamiltonian energy:                                     12.79988720995705
  Hartree energy:                                              15.45970491161211
  Exchange-correlation energy:                                 -5.66067349740872

  Total energy:                                               -16.10228122377418

  outer SCF iter =    1 RMS gradient =   0.58E-04 energy =        -16.1022812238
  outer SCF loop converged in   1 iterations or    7 steps


 ENERGY| Total FORCE_EVAL ( QS ) energy [a.u.]:              -16.102281254793162

 STRESS| Analytical stress tensor [GPa]
 STRESS|                        x                   y                   z
 STRESS|      x        3.47300671586E-01   1.75191663829E-01  -1.04782733265E-01
 STRESS|      y        1.75191663829E-01   1.20354595932E-01   3.24954927935E-02
 STRESS|      z       -1.04782733265E-01   3.24954927935E-02   2.42042960823E-01
 STRESS| 1/3 Trace                                             2.36566076114E-01
 STRESS| Determinant                                          -1.92803408394E-04

 STRESS| Eigenvectors and eigenvalues of the analytical stress tensor [GPa]
 STRESS|                        1                   2                   3
 STRESS| Eigenvalues  -1.69911049757E-03   2.41469074009E-01   4.69928264829E-01
 STRESS|      x          -0.500195916229      0.142333761939      0.854134149651
 STRESS|      y           0.803742040984      0.443330378575      0.396808400853
 STRESS|      z          -0.322184383457      0.884985466347     -0.336151673225

 Number of electrons:                                                         14
 Number of occupied orbitals:                                                  7
 Number of molecular orbitals:                                                 7

 Number of orbital functions:                                                 14
 Number of independent orbital functions:                                     14

 Extrapolation method: ASPC


 SCF WAVEFUNCTION OPTIMIZATION

  ----------------------------------- OT ---------------------------------------
  Minimizer      : CG                  : conjugate gradient
  Preconditioner : FULL_ALL            : diagonalization, state selective
  Precond_solver : DEFAULT
  Line search    : 2PNT                : 2 energies, one gradient
  stepsize       :    0.15000000                  energy_gap     :    0.08000000
  eps_taylor     :   0.10000E-15                  max_taylor     :             4
  ----------------------------------- OT ---------------------------------------

  Step     Update method      Time    Convergence         Total energy    Change
  ------------------------------------------------------------------------------
     1 OT CG       0.15E+00    0.3     0.01294803       -16.1044904241 -1.61E+01
     2 OT LS       0.19E+00    0.3                      -16.1060039932
     3 OT CG       0.19E+00    0.5     0.00197496       -16.1060864474 -1.60E-03
     4 OT LS       0.17E+00    0.3                      -16.1061193934
     5 OT CG       0.17E+00    0.5     0.00052238       -16.1061198111 -3.34E-05
     6 OT LS       0.18E+00    0.3                      -16.1061221556
     7 OT CG       0.18E+00    0.5     0.00005461       -16.1061221557 -2.34E-06

  *** SCF run converged in     7 steps ***


  Electronic density on regular grids:        -13.9999999997        0.0000000003
  Core density on regular grids:               13.9999999987       -0.0000000013
  Total charge density on r-space grids:       -0.0000000010
  Total charge density g-space grids:          -0.0000000010

  Overlap energy of the core charge distribution:               0.00001892929070
  Self energy of the core charge distribution:                -38.70122451907286
  Core Hamiltonian energy:                                     12.77860678369822
  Hartree energy:                                              15.46733221925592
  Exchange-correlation energy:                                 -5.65085556883355

  Total energy:                                               -16.10612215566157

  outer SCF iter =    1 RMS gradient =   0.55E-04 energy =        -16.1061221557
  outer SCF loop converged in   1 iterations or    7 steps


 ENERGY| Total FORCE_EVAL ( QS ) energy [a.u.]:              -16.106122182071939

 STRESS| Analytical stress tensor [GPa]
 STRESS|                        x                   y                   z
 STRESS|      x        2.24062324660E-01   8.93894952626E-02  -6.43591514334E-02
 STRESS|      y        8.93894952626E-02   6.10356290429E-02   4.45545817289E-02
 STRESS|      z       -6.43591514334E-02   4.45545817289E-02   1.88461066082E-01
 STRESS| 1/3 Trace                                             1.57853006595E-01
 STRESS| Determinant                                          -1.38793829243E-04

 STRESS| Eigenvectors and eigenvalues of the analytical stress tensor [GPa]
 STRESS|                        1                   2                   3
 STRESS| Eigenvalues  -2.54665551522E-03   1.91483318263E-01   2.84622357037E-01
 STRESS|      x          -0.427007035983      0.296699194386      0.854186501457
 STRESS|      y           0.838142976665      0.484408146343      0.250729133575
 STRESS|      z          -0.339383767862      0.822993521121     -0.455522032733

 Number of electrons:                                                         14
 Number of occupied orbitals:                                                  7
 Number of molecular orbitals:                                                 7

 Number of orbital functions:                                                 14
 Number of independent orbital functions:                                     14

 Extrapolation method: ASPC


 SCF WAVEFUNCTION OPTIMIZATION

  ----------------------------------- OT ---------------------------------------
  Minimizer      : CG                  : conjugate gradient
  Preconditioner : FULL_ALL            : diagonalization, state selective
  Precond_solver : DEFAULT
  Line search    : 2PNT                : 2 energies, one gradient
  stepsize       :    0.15000000                  energy_gap     :    0.08000000
  eps_taylor     :   0.10000E-15                  max_taylor     :             4
  ----------------------------------- OT ---------------------------------------

  Step     Update method      Time    Convergence         Total energy    Change
  ------------------------------------------------------------------------------
     1 OT CG       0.15E+00    0.3     0.01285426       -16.1044886443 -1.61E+01
     2 OT LS       0.20E+00    0.3                      -16.1060010041
     3 OT CG       0.20E+00    0.5     0.00160367       -16.1060990704 -1.61E-03
     4 OT LS       0.22E+00    0.3                      -16.1061262509
     5 OT CG       0.22E+00    0.5     0.00021407       -16.1061264405 -2.74E-05
     6 OT LS       0.17E+00    0.3                      -16.1061267946
     7 OT CG       0.17E+00    0.5     0.00002961       -16.1061268230 -3.83E-07

  *** SCF run converged in     7 steps ***


  Electronic density on regular grids:        -13.9999999997        0.0000000003
  Core density on regular grids:               13.9999999987       -0.0000000013
  Total charge density on r-space grids:       -0.0000000010
  Total charge density g-space grids:          -0.0000000010

  Overlap energy of the core charge distribution:               0.00001892929070
  Self energy of the core charge distribution:                -38.70122451907286
  Core Hamiltonian energy:                                     12.77841707753450
  Hartree energy:                                              15.46748631706035
  Exchange-correlation energy:                                 -5.65082462780583

  Total energy:                                               -16.10612682299313

  outer SCF iter =    1 RMS gradient =   0.30E-04 energy =        -16.1061268230
  outer SCF loop converged in   1 iterations or    7 steps


 ENERGY| Total FORCE_EVAL ( QS ) energy [a.u.]:              -16.106126829997045

 STRESS| Analytical stress tensor [GPa]
 STRESS|                        x                   y                   z
 STRESS|      x        2.24089426754E-01   8.94026548873E-02  -6.43877240646E-02
 STRESS|      y        8.94026548873E-02   6.11335611282E-02   4.45416566093E-02
 STRESS|      z       -6.43877240646E-02   4.45416566093E-02   1.88514444383E-01
 STRESS| 1/3 Trace                                             1.57912477422E-01
 STRESS| Determinant                                          -1.35065578061E-04

 STRESS| Eigenvectors and eigenvalues of the analytical stress tensor [GPa]
 STRESS|                        1                   2                   3
 STRESS| Eigenvalues  -2.47712626124E-03   1.91524364163E-01   2.84690194364E-01
 STRESS|      x          -0.427156252184      0.296736894438      0.854098795046
 STRESS|      y           0.838041615874      0.484558761291      0.250776906670
 STRESS|      z          -0.339446293666      0.822891257904     -0.455660170941

 Number of electrons:                                                         14
 Number of occupied orbitals:                                                  7
 Number of molecular orbitals:                                                 7

 Number of orbital functions:                                                 14
 Number of independent orbital functions:                                     14

 Extrapolation method: ASPC


 SCF WAVEFUNCTION OPTIMIZATION

  ----------------------------------- OT ---------------------------------------
  Minimizer      : CG                  : conjugate gradient
  Preconditioner : FULL_ALL            : diagonalization, state selective
  Precond_solver : DEFAULT
  Line search    : 2PNT                : 2 energies, one gradient
  stepsize       :    0.15000000                  energy_gap     :    0.08000000
  eps_taylor     :   0.10000E-15                  max_taylor     :             4
  ----------------------------------- OT ---------------------------------------

  Step     Update method      Time    Convergence         Total energy    Change
  ------------------------------------------------------------------------------
     1 OT CG       0.15E+00    0.3     0.01314595       -16.1052717282 -1.61E+01
     2 OT LS       0.20E+00    0.3                      -16.1068458199
     3 OT CG       0.20E+00    0.5     0.00207423       -16.1069389198 -1.67E-03
     4 OT LS       0.18E+00    0.3                      -16.1069768037
     5 OT CG       0.18E+00    0.5     0.00054727       -16.1069770710 -3.82E-05
     6 OT LS       0.16E+00    0.3                      -16.1069794363
     7 OT CG       0.16E+00    0.5     0.00005463       -16.1069794676 -2.40E-06

  *** SCF run converged in     7 steps ***


  Electronic density on regular grids:        -13.9999999997        0.0000000003
  Core density on regular grids:               13.9999999987       -0.0000000013
  Total charge density on r-space grids:       -0.0000000011
  Total charge density g-space grids:          -0.0000000011

  Overlap energy of the core charge distribution:               0.00001191387155
  Self energy of the core charge distribution:                -38.70122451907286
  Core Hamiltonian energy:                                     12.72368400912884
  Hartree energy:                                              15.49779961398931
  Exchange-correlation energy:                                 -5.62725048551153

  Total energy:                                               -16.10697946759469

  outer SCF iter =    1 RMS gradient =   0.55E-04 energy =        -16.1069794676
  outer SCF loop converged in   1 iterations or    7 steps


 ENERGY| Total FORCE_EVAL ( QS ) energy [a.u.]:              -16.106979493496812

 STRESS| Analytical stress tensor [GPa]
 STRESS|                        x                   y                   z
 STRESS|      x        1.00348571123E-02  -1.05136484307E-02   3.39447627214E-02
 STRESS|      y       -1.05136484307E-02  -1.10978847440E-02   2.67474930709E-02
 STRESS|      z        3.39447627214E-02   2.67474930709E-02  -3.28409153330E-03
 STRESS| 1/3 Trace                                            -1.44903972168E-03
 STRESS| Determinant                                          -1.27544373169E-05

 STRESS| Eigenvectors and eigenvalues of the analytical stress tensor [GPa]
 STRESS|                        1                   2                   3
 STRESS| Eigenvalues  -5.05779493210E-02   6.31813725533E-03   3.99126929007E-02
 STRESS|      x          -0.472969864786     -0.535540336049      0.699639947022
 STRESS|      y          -0.577043836587      0.788353174057      0.213353424185
 STRESS|      z           0.665822737417      0.302813179070      0.681897544298

 Number of electrons:                                                         14
 Number of occupied orbitals:                                                  7
 Number of molecular orbitals:                                                 7

 Number of orbital functions:                                                 14
 Number of independent orbital functions:                                     14

 Extrapolation method: ASPC


 SCF WAVEFUNCTION OPTIMIZATION

  ----------------------------------- OT ---------------------------------------
  Minimizer      : CG                  : conjugate gradient
  Preconditioner : FULL_ALL            : diagonalization, state selective
  Precond_solver : DEFAULT
  Line search    : 2PNT                : 2 energies, one gradient
  stepsize       :    0.15000000                  energy_gap     :    0.08000000
  eps_taylor     :   0.10000E-15                  max_taylor     :             4
  ----------------------------------- OT ---------------------------------------

  Step     Update method      Time    Convergence         Total energy    Change
  ------------------------------------------------------------------------------
     1 OT CG       0.15E+00    0.3     0.01378149       -16.1051283605 -1.61E+01
     2 OT LS       0.19E+00    0.3                      -16.1068259516
     3 OT CG       0.19E+00    0.5     0.00274971       -16.1069112377 -1.78E-03
     4 OT LS       0.16E+00    0.3                      -16.1069709653
     5 OT CG       0.16E+00    0.5     0.00067123       -16.1069725453 -6.13E-05
     6 OT LS       0.18E+00    0.3                      -16.1069765333
     7 OT CG       0.18E+00    0.5     0.00005299       -16.1069765702 -4.02E-06

  *** SCF run converged in     7 steps ***


  Electronic density on regular grids:        -13.9999999998        0.0000000002
  Core density on regular grids:               13.9999999987       -0.0000000013
  Total charge density on r-space grids:       -0.0000000011
  Total charge density g-space grids:          -0.0000000011

  Overlap energy of the core charge distribution:               0.00001191387155
  Self energy of the core charge distribution:                -38.70122451907286
  Core Hamiltonian energy:                                     12.72377188836454
  Hartree energy:                                              15.49774562629737
  Exchange-correlation energy:                                 -5.62728147970932

  Total energy:                                               -16.10697657024873

  outer SCF iter =    1 RMS gradient =   0.53E-04 energy =        -16.1069765702
  outer SCF loop converged in   1 iterations or    7 steps


 ENERGY| Total FORCE_EVAL ( QS ) energy [a.u.]:              -16.106976594350606

 STRESS| Analytical stress tensor [GPa]
 STRESS|                        x                   y                   z
 STRESS|      x        9.99979849892E-03  -1.05082083271E-02   3.39073719620E-02
 STRESS|      y       -1.05082083271E-02  -1.10859615049E-02   2.67612113378E-02
 STRESS|      z        3.39073719620E-02   2.67612113378E-02  -3.27638743193E-03
 STRESS| 1/3 Trace                                            -1.45418347929E-03
 STRESS| Determinant                                          -1.27611879820E-05

 STRESS| Eigenvectors and eigenvalues of the analytical stress tensor [GPa]
 STRESS|                        1                   2                   3
 STRESS| Eigenvalues  -5.05624304527E-02   6.33025168447E-03   3.98696283304E-02
 STRESS|      x          -0.472888059366     -0.536317038617      0.699100076812
 STRESS|      y          -0.577192722139      0.788036789634      0.214118144240
 STRESS|      z           0.665751789197      0.302261562678      0.682211479608

 Number of electrons:                                                         14
 Number of occupied orbitals:                                                  7
 Number of molecular orbitals:                                                 7

 Number of orbital functions:                                                 14
 Number of independent orbital functions:                                     14

 Extrapolation method: ASPC


 SCF WAVEFUNCTION OPTIMIZATION

  ----------------------------------- OT ---------------------------------------
  Minimizer      : CG                  : conjugate gradient
  Preconditioner : FULL_ALL            : diagonalization, state selective
  Precond_solver : DEFAULT
  Line search    : 2PNT                : 2 energies, one gradient
  stepsize       :    0.15000000                  energy_gap     :    0.08000000
  eps_taylor     :   0.10000E-15                  max_taylor     :             4
  ----------------------------------- OT ---------------------------------------

  Step     Update method      Time    Convergence         Total energy    Change
  ------------------------------------------------------------------------------
     1 OT CG       0.15E+00    0.3     0.01440341       -16.1005699519 -1.61E+01
     2 OT LS       0.19E+00    0.3                      -16.1023947667
     3 OT CG       0.19E+00    0.5     0.00312076       -16.1024654161 -1.90E-03
     4 OT LS       0.16E+00    0.3                      -16.1025403015
     5 OT CG       0.16E+00    0.5     0.00073377       -16.1025421361 -7.67E-05
     6 OT LS       0.18E+00    0.3                      -16.1025468923
     7 OT CG       0.18E+00    0.5     0.00006576       -16.1025469555 -4.82E-06

  *** SCF run converged in     7 steps ***


  Electronic density on regular grids:        -13.9999999998        0.0000000002
  Core density on regular grids:               13.9999999987       -0.0000000013
  Total charge density on r-space grids:       -0.0000000011
  Total charge density g-space grids:          -0.0000000011

  Overlap energy of the core charge distribution:               0.00000801733923
  Self energy of the core charge distribution:                -38.70122451907286
  Core Hamiltonian energy:                                     12.67097989444891
  Hartree energy:                                              15.53071553189219
  Exchange-correlation energy:                                 -5.60302588015339

  Total energy:                                               -16.10254695554592

  outer SCF iter =    1 RMS gradient =   0.66E-04 energy =        -16.1025469555
  outer SCF loop converged in   1 iterations or    7 steps


 ENERGY| Total FORCE_EVAL ( QS ) energy [a.u.]:              -16.102546993593684

 STRESS| Analytical stress tensor [GPa]
 STRESS|                        x                   y                   z
 STRESS|      x       -1.38509115147E-01  -6.63602922881E-02   1.16303093030E-01
 STRESS|      y       -6.63602922881E-02  -6.25582431197E-02  -2.20226678305E-02
 STRESS|      z        1.16303093030E-01  -2.20226678305E-02  -2.58871856814E-01
 STRESS| 1/3 Trace                                            -1.53313071694E-01
 STRESS| Determinant                                           1.50198486083E-04

 STRESS| Eigenvectors and eigenvalues of the analytical stress tensor [GPa]
 STRESS|                        1                   2                   3
 STRESS| Eigenvalues  -3.30623771030E-01  -1.32737889788E-01   3.42244573664E-03
 STRESS|      x          -0.532575130922      0.588669839730     -0.608137771986
 STRESS|      y          -0.062496356998      0.689201444231      0.721869499724
 STRESS|      z           0.844072233453      0.422456138626     -0.330261828935

 Number of electrons:                                                         14
 Number of occupied orbitals:                                                  7
 Number of molecular orbitals:                                                 7

 Number of orbital functions:                                                 14
 Number of independent orbital functions:                                     14

 Extrapolation method: ASPC


 SCF WAVEFUNCTION OPTIMIZATION

  ----------------------------------- OT ---------------------------------------
  Minimizer      : CG                  : conjugate gradient
  Preconditioner : FULL_ALL            : diagonalization, state selective
  Precond_solver : DEFAULT
  Line search    : 2PNT                : 2 energies, one gradient
  stepsize       :    0.15000000                  energy_gap     :    0.08000000
  eps_taylor     :   0.10000E-15                  max_taylor     :             4
  ----------------------------------- OT ---------------------------------------

  Step     Update method      Time    Convergence         Total energy    Change
  ------------------------------------------------------------------------------
     1 OT CG       0.15E+00    0.3     0.01486569       -16.1004638465 -1.61E+01
     2 OT LS       0.18E+00    0.3                      -16.1023897910
     3 OT CG       0.18E+00    0.5     0.00324255       -16.1024610463 -2.00E-03
     4 OT LS       0.16E+00    0.3                      -16.1025419583
     5 OT CG       0.16E+00    0.5     0.00077090       -16.1025438474 -8.28E-05
     6 OT LS       0.19E+00    0.3                      -16.1025491737
     7 OT CG       0.19E+00    0.5     0.00006281       -16.1025492848 -5.44E-06

  *** SCF run converged in     7 steps ***


  Electronic density on regular grids:        -13.9999999997        0.0000000003
  Core density on regular grids:               13.9999999987       -0.0000000013
  Total charge density on r-space grids:       -0.0000000011
  Total charge density g-space grids:          -0.0000000011

  Overlap energy of the core charge distribution:               0.00000801733923
  Self energy of the core charge distribution:                -38.70122451907286
  Core Hamiltonian energy:                                     12.67100882631834
  Hartree energy:                                              15.53071433763978
  Exchange-correlation energy:                                 -5.60305594705331

  Total energy:                                               -16.10254928482883

  outer SCF iter =    1 RMS gradient =   0.63E-04 energy =        -16.1025492848
  outer SCF loop converged in   1 iterations or    7 steps


 ENERGY| Total FORCE_EVAL ( QS ) energy [a.u.]:              -16.102549318085060

 STRESS| Analytical stress tensor [GPa]
 STRESS|                        x                   y                   z
 STRESS|      x       -1.38441405788E-01  -6.63340938949E-02   1.16250547403E-01
 STRESS|      y       -6.63340938949E-02  -6.25221051671E-02  -2.20049696955E-02
 STRESS|      z        1.16250547403E-01  -2.20049696955E-02  -2.58837633058E-01
 STRESS| 1/3 Trace                                            -1.53267048004E-01
 STRESS| Determinant                                           1.49881632082E-04

 STRESS| Eigenvectors and eigenvalues of the analytical stress tensor [GPa]
 STRESS|                        1                   2                   3
 STRESS| Eigenvalues  -3.30532929541E-01  -1.32685722068E-01   3.41750759593E-03
 STRESS|      x          -0.532443237243      0.588802237959     -0.608125088850
 STRESS|      y          -0.062473174837      0.689134228935      0.721935673683
 STRESS|      z           0.844157154527      0.422381272176     -0.330140514592

 Number of electrons:                                                         14
 Number of occupied orbitals:                                                  7
 Number of molecular orbitals:                                                 7

 Number of orbital functions:                                                 14
 Number of independent orbital functions:                                     14

 Extrapolation method: ASPC


 SCF WAVEFUNCTION OPTIMIZATION

  ----------------------------------- OT ---------------------------------------
  Minimizer      : CG                  : conjugate gradient
  Preconditioner : FULL_ALL            : diagonalization, state selective
  Precond_solver : DEFAULT
  Line search    : 2PNT                : 2 energies, one gradient
  stepsize       :    0.15000000                  energy_gap     :    0.08000000
  eps_taylor     :   0.10000E-15                  max_taylor     :             4
  ----------------------------------- OT ---------------------------------------

  Step     Update method      Time    Convergence         Total energy    Change
  ------------------------------------------------------------------------------
     1 OT CG       0.15E+00    0.3     0.01384169       -16.0971069335 -1.61E+01
     2 OT LS       0.19E+00    0.3                      -16.0987852814
     3 OT CG       0.19E+00    0.5     0.00262881       -16.0988468808 -1.74E-03
     4 OT LS       0.16E+00    0.3                      -16.0989007614
     5 OT CG       0.16E+00    0.5     0.00066791       -16.0989017996 -5.49E-05
     6 OT LS       0.18E+00    0.3                      -16.0989056418
     7 OT CG       0.18E+00    0.5     0.00006125       -16.0989056648 -3.87E-06

  *** SCF run converged in     7 steps ***


  Electronic density on regular grids:        -13.9999999997        0.0000000003
  Core density on regular grids:               13.9999999987       -0.0000000013
  Total charge density on r-space grids:       -0.0000000011
  Total charge density g-space grids:          -0.0000000011

  Overlap energy of the core charge distribution:               0.00000635215701
  Self energy of the core charge distribution:                -38.70122451907286
  Core Hamiltonian energy:                                     12.64038125769147
  Hartree energy:                                              15.55021927683554
  Exchange-correlation energy:                                 -5.58828803239449

  Total energy:                                               -16.09890566478332

  outer SCF iter =    1 RMS gradient =   0.61E-04 energy =        -16.0989056648
  outer SCF loop converged in   1 iterations or    7 steps


 ENERGY| Total FORCE_EVAL ( QS ) energy [a.u.]:              -16.098905696666435

 STRESS| Analytical stress tensor [GPa]
 STRESS|                        x                   y                   z
 STRESS|      x       -1.98214184419E-01  -8.01097081985E-02   1.24952718745E-01
 STRESS|      y       -8.01097081985E-02  -8.81783371255E-02  -7.45514347639E-02
 STRESS|      z        1.24952718745E-01  -7.45514347639E-02  -4.48163767108E-01
 STRESS| 1/3 Trace                                            -2.44852096218E-01
 STRESS| Determinant                                          -9.86063470628E-04

 STRESS| Eigenvectors and eigenvalues of the analytical stress tensor [GPa]
 STRESS|                        1                   2                   3
 STRESS| Eigenvalues  -5.03698800948E-01  -2.22040890650E-01  -8.81659705424E-03
 STRESS|      x          -0.354511800443      0.772374156980     -0.527028979256
 STRESS|      y           0.098483404804      0.591343875248      0.800383308287
 STRESS|      z           0.929850741961      0.231841719358     -0.285704418657

 Number of electrons:                                                         14
 Number of occupied orbitals:                                                  7
 Number of molecular orbitals:                                                 7

 Number of orbital functions:                                                 14
 Number of independent orbital functions:                                     14

 Extrapolation method: ASPC


 SCF WAVEFUNCTION OPTIMIZATION

  ----------------------------------- OT ---------------------------------------
  Minimizer      : CG                  : conjugate gradient
  Preconditioner : FULL_ALL            : diagonalization, state selective
  Precond_solver : DEFAULT
  Line search    : 2PNT                : 2 energies, one gradient
  stepsize       :    0.15000000                  energy_gap     :    0.08000000
  eps_taylor     :   0.10000E-15                  max_taylor     :             4
  ----------------------------------- OT ---------------------------------------

  Step     Update method      Time    Convergence         Total energy    Change
  ------------------------------------------------------------------------------
     1 OT CG       0.15E+00    0.3     0.01313276       -16.0972905868 -1.61E+01
     2 OT LS       0.19E+00    0.3                      -16.0988041184
     3 OT CG       0.19E+00    0.5     0.00219978       -16.0988649584 -1.57E-03
     4 OT LS       0.17E+00    0.3                      -16.0989038407
     5 OT CG       0.17E+00    0.5     0.00060580       -16.0989044263 -3.95E-05
     6 OT LS       0.17E+00    0.3                      -16.0989075183
     7 OT CG       0.17E+00    0.5     0.00004962       -16.0989075224 -3.10E-06

  *** SCF run converged in     7 steps ***


  Electronic density on regular grids:        -13.9999999997        0.0000000003
  Core density on regular grids:               13.9999999987       -0.0000000013
  Total charge density on r-space grids:       -0.0000000011
  Total charge density g-space grids:          -0.0000000011

  Overlap energy of the core charge distribution:               0.00000635215701
  Self energy of the core charge distribution:                -38.70122451907286
  Core Hamiltonian energy:                                     12.64042079178650
  Hartree energy:                                              15.55020616137620
  Exchange-correlation energy:                                 -5.58831630869386

  Total energy:                                               -16.09890752244701

  outer SCF iter =    1 RMS gradient =   0.50E-04 energy =        -16.0989075224
  outer SCF loop converged in   1 iterations or    7 steps


 ENERGY| Total FORCE_EVAL ( QS ) energy [a.u.]:              -16.098907543161427

 STRESS| Analytical stress tensor [GPa]
 STRESS|                        x                   y                   z
 STRESS|      x       -1.98169260297E-01  -8.00808446483E-02   1.24919999004E-01
 STRESS|      y       -8.00808446483E-02  -8.81332776229E-02  -7.45453118444E-02
 STRESS|      z        1.24919999004E-01  -7.45453118444E-02  -4.48130316682E-01
 STRESS| 1/3 Trace                                            -2.44810951534E-01
 STRESS| Determinant                                          -9.84894373356E-04

 STRESS| Eigenvectors and eigenvalues of the analytical stress tensor [GPa]
 STRESS|                        1                   2                   3
 STRESS| Eigenvalues  -5.03643120506E-01  -2.21980209060E-01  -8.80952503705E-03
 STRESS|      x          -0.354435856277      0.772455782860     -0.526960422908
 STRESS|      y           0.098516056339      0.591256795785      0.800443619552
 STRESS|      z           0.929876233930      0.231791856986     -0.285661906117

 Number of electrons:                                                         14
 Number of occupied orbitals:                                                  7
 Number of molecular orbitals:                                                 7

 Number of orbital functions:                                                 14
 Number of independent orbital functions:                                     14

 Extrapolation method: ASPC


 SCF WAVEFUNCTION OPTIMIZATION

  ----------------------------------- OT ---------------------------------------
  Minimizer      : CG                  : conjugate gradient
  Preconditioner : FULL_ALL            : diagonalization, state selective
  Precond_solver : DEFAULT
  Line search    : 2PNT                : 2 energies, one gradient
  stepsize       :    0.15000000                  energy_gap     :    0.08000000
  eps_taylor     :   0.10000E-15                  max_taylor     :             4
  ----------------------------------- OT ---------------------------------------

  Step     Update method      Time    Convergence         Total energy    Change
  ------------------------------------------------------------------------------
     1 OT CG       0.15E+00    0.3     0.01293211       -16.0983508995 -1.61E+01
     2 OT LS       0.19E+00    0.3                      -16.0998362919
     3 OT CG       0.19E+00    0.5     0.00161970       -16.0999023335 -1.55E-03
     4 OT LS       0.20E+00    0.3                      -16.0999280196
     5 OT CG       0.20E+00    0.5     0.00035130       -16.0999281068 -2.58E-05
     6 OT LS       0.15E+00    0.3                      -16.0999288822
     7 OT CG       0.15E+00    0.5     0.00003738       -16.0999289997 -8.93E-07

  *** SCF run converged in     7 steps ***


  Electronic density on regular grids:        -13.9999999997        0.0000000003
  Core density on regular grids:               13.9999999987       -0.0000000013
  Total charge density on r-space grids:       -0.0000000011
  Total charge density g-space grids:          -0.0000000011

  Overlap energy of the core charge distribution:               0.00000565295373
  Self energy of the core charge distribution:                -38.70122451907286
  Core Hamiltonian energy:                                     12.63763561343000
  Hartree energy:                                              15.55034864372363
  Exchange-correlation energy:                                 -5.58669439074757

  Total energy:                                               -16.09992899971308

  outer SCF iter =    1 RMS gradient =   0.37E-04 energy =        -16.0999289997
  outer SCF loop converged in   1 iterations or    7 steps


 ENERGY| Total FORCE_EVAL ( QS ) energy [a.u.]:              -16.099929010659441

 STRESS| Analytical stress tensor [GPa]
 STRESS|                        x                   y                   z
 STRESS|      x       -1.59679211246E-01  -6.27238397496E-02   6.60691726609E-02
 STRESS|      y       -6.27238397496E-02  -9.47990223803E-02  -1.19140435810E-01
 STRESS|      z        6.60691726609E-02  -1.19140435810E-01  -5.27055385377E-01
 STRESS| 1/3 Trace                                            -2.60511206334E-01
 STRESS| Determinant                                          -2.23685136166E-03

 STRESS| Eigenvectors and eigenvalues of the analytical stress tensor [GPa]
 STRESS|                        1                   2                   3
 STRESS| Eigenvalues  -5.63680936530E-01  -1.97789462817E-01  -2.00632196562E-02
 STRESS|      x          -0.122372616681      0.860094717420     -0.495239356022
 STRESS|      y           0.229009534337      0.509994352972      0.829132313397
 STRESS|      z           0.965701597736     -0.011951443542     -0.259379234188

 Number of electrons:                                                         14
 Number of occupied orbitals:                                                  7
 Number of molecular orbitals:                                                 7

 Number of orbital functions:                                                 14
 Number of independent orbital functions:                                     14

 Extrapolation method: ASPC


 SCF WAVEFUNCTION OPTIMIZATION

  ----------------------------------- OT ---------------------------------------
  Minimizer      : CG                  : conjugate gradient
  Preconditioner : FULL_ALL            : diagonalization, state selective
  Precond_solver : DEFAULT
  Line search    : 2PNT                : 2 energies, one gradient
  stepsize       :    0.15000000                  energy_gap     :    0.08000000
  eps_taylor     :   0.10000E-15                  max_taylor     :             4
  ----------------------------------- OT ---------------------------------------

  Step     Update method      Time    Convergence         Total energy    Change
  ------------------------------------------------------------------------------
     1 OT CG       0.15E+00    0.3     0.01353281       -16.0981834096 -1.61E+01
     2 OT LS       0.19E+00    0.3                      -16.0998162264
     3 OT CG       0.19E+00    0.5     0.00163545       -16.0998942542 -1.71E-03
     4 OT LS       0.22E+00    0.3                      -16.0999223160
     5 OT CG       0.22E+00    0.5     0.00016072       -16.0999227455 -2.85E-05
     6 OT LS       0.15E+00    0.3                      -16.0999229080
     7 OT CG       0.15E+00    0.5     0.00002126       -16.0999229407 -1.95E-07

  *** SCF run converged in     7 steps ***


  Electronic density on regular grids:        -13.9999999998        0.0000000002
  Core density on regular grids:               13.9999999987       -0.0000000013
  Total charge density on r-space grids:       -0.0000000011
  Total charge density g-space grids:          -0.0000000011

  Overlap energy of the core charge distribution:               0.00000565295373
  Self energy of the core charge distribution:                -38.70122451907286
  Core Hamiltonian energy:                                     12.63771208824411
  Hartree energy:                                              15.55028841437315
  Exchange-correlation energy:                                 -5.58670457716591

  Total energy:                                               -16.09992294066778

  outer SCF iter =    1 RMS gradient =   0.21E-04 energy =        -16.0999229407
  outer SCF loop converged in   1 iterations or    7 steps


 ENERGY| Total FORCE_EVAL ( QS ) energy [a.u.]:              -16.099922945136619

 STRESS| Analytical stress tensor [GPa]
 STRESS|                        x                   y                   z
 STRESS|      x       -1.59737509831E-01  -6.27296090383E-02   6.60780858725E-02
 STRESS|      y       -6.27296090383E-02  -9.48810092510E-02  -1.19152078813E-01
 STRESS|      z        6.60780858725E-02  -1.19152078813E-01  -5.27036856613E-01
 STRESS| 1/3 Trace                                            -2.60551791898E-01
 STRESS| Determinant                                          -2.24401643164E-03

 STRESS| Eigenvectors and eigenvalues of the analytical stress tensor [GPa]
 STRESS|                        1                   2                   3
 STRESS| Eigenvalues  -5.63675765223E-01  -1.97859015138E-01  -2.01205953334E-02
 STRESS|      x          -0.122398221304      0.860060194742     -0.495292980812
 STRESS|      y           0.229066881967      0.510051966657      0.829081030356
 STRESS|      z           0.965684751359     -0.011977175342     -0.259440760605

 Number of electrons:                                                         14
 Number of occupied orbitals:                                                  7
 Number of molecular orbitals:                                                 7

 Number of orbital functions:                                                 14
 Number of independent orbital functions:                                     14

 Extrapolation method: ASPC


 SCF WAVEFUNCTION OPTIMIZATION

  ----------------------------------- OT ---------------------------------------
  Minimizer      : CG                  : conjugate gradient
  Preconditioner : FULL_ALL            : diagonalization, state selective
  Precond_solver : DEFAULT
  Line search    : 2PNT                : 2 energies, one gradient
  stepsize       :    0.15000000                  energy_gap     :    0.08000000
  eps_taylor     :   0.10000E-15                  max_taylor     :             4
  ----------------------------------- OT ---------------------------------------

  Step     Update method      Time    Convergence         Total energy    Change
  ------------------------------------------------------------------------------
     1 OT CG       0.15E+00    0.3     0.01455354       -16.1012186949 -1.61E+01
     2 OT LS       0.19E+00    0.3                      -16.1031197576
     3 OT CG       0.19E+00    0.5     0.00201060       -16.1032178151 -2.00E-03
     4 OT LS       0.19E+00    0.3                      -16.1032563378
     5 OT CG       0.19E+00    0.5     0.00051508       -16.1032563409 -3.85E-05
     6 OT LS       0.15E+00    0.3                      -16.1032580992
     7 OT CG       0.15E+00    0.5     0.00004004       -16.1032582782 -1.94E-06

  *** SCF run converged in     7 steps ***


  Electronic density on regular grids:        -13.9999999998        0.0000000002
  Core density on regular grids:               13.9999999987       -0.0000000013
  Total charge density on r-space grids:       -0.0000000011
  Total charge density g-space grids:          -0.0000000011

  Overlap energy of the core charge distribution:               0.00000582394034
  Self energy of the core charge distribution:                -38.70122451907286
  Core Hamiltonian energy:                                     12.66736218029809
  Hartree energy:                                              15.52989959664135
  Exchange-correlation energy:                                 -5.59930135997467

  Total energy:                                               -16.10325827816774

  outer SCF iter =    1 RMS gradient =   0.40E-04 energy =        -16.1032582782
  outer SCF loop converged in   1 iterations or    7 steps


 ENERGY| Total FORCE_EVAL ( QS ) energy [a.u.]:              -16.103258292866656

 STRESS| Analytical stress tensor [GPa]
 STRESS|                        x                   y                   z
 STRESS|      x       -2.72350033160E-02  -2.41315710532E-02  -1.67028393312E-02
 STRESS|      y       -2.41315710532E-02  -8.40064179544E-02  -1.27570656426E-01
 STRESS|      z       -1.67028393312E-02  -1.27570656426E-01  -4.52470550289E-01
 STRESS| 1/3 Trace                                            -1.87903990520E-01
 STRESS| Determinant                                          -4.07898130686E-04

 STRESS| Eigenvectors and eigenvalues of the analytical stress tensor [GPa]
 STRESS|                        1                   2                   3
 STRESS| Eigenvalues  -4.93477307489E-01  -5.52828397796E-02  -1.49518242908E-02
 STRESS|      x           0.049645018666      0.524706055127      0.849834647349
 STRESS|      y           0.299747536761      0.803832556255     -0.513813814246
 STRESS|      z           0.952725976515     -0.280244138597      0.117373065288

 Number of electrons:                                                         14
 Number of occupied orbitals:                                                  7
 Number of molecular orbitals:                                                 7

 Number of orbital functions:                                                 14
 Number of independent orbital functions:                                     14

 Extrapolation method: ASPC


 SCF WAVEFUNCTION OPTIMIZATION

  ----------------------------------- OT ---------------------------------------
  Minimizer      : CG                  : conjugate gradient
  Preconditioner : FULL_ALL            : diagonalization, state selective
  Precond_solver : DEFAULT
  Line search    : 2PNT                : 2 energies, one gradient
  stepsize       :    0.15000000                  energy_gap     :    0.08000000
  eps_taylor     :   0.10000E-15                  max_taylor     :             4
  ----------------------------------- OT ---------------------------------------

  Step     Update method      Time    Convergence         Total energy    Change
  ------------------------------------------------------------------------------
     1 OT CG       0.15E+00    0.3     0.01541996       -16.1009379975 -1.61E+01
     2 OT LS       0.19E+00    0.3                      -16.1030770672
     3 OT CG       0.19E+00    0.5     0.00240430       -16.1031883087 -2.25E-03
     4 OT LS       0.18E+00    0.3                      -16.1032401369
     5 OT CG       0.18E+00    0.5     0.00062127       -16.1032402699 -5.20E-05
     6 OT LS       0.16E+00    0.3                      -16.1032431098
     7 OT CG       0.16E+00    0.5     0.00004134       -16.1032432092 -2.94E-06

  *** SCF run converged in     7 steps ***


  Electronic density on regular grids:        -13.9999999998        0.0000000002
  Core density on regular grids:               13.9999999987       -0.0000000013
  Total charge density on r-space grids:       -0.0000000011
  Total charge density g-space grids:          -0.0000000011

  Overlap energy of the core charge distribution:               0.00000582394034
  Self energy of the core charge distribution:                -38.70122451907286
  Core Hamiltonian energy:                                     12.66729964330068
  Hartree energy:                                              15.52995114495168
  Exchange-correlation energy:                                 -5.59927530232067

  Total energy:                                               -16.10324320920083

  outer SCF iter =    1 RMS gradient =   0.41E-04 energy =        -16.1032432092
  outer SCF loop converged in   1 iterations or    7 steps


 ENERGY| Total FORCE_EVAL ( QS ) energy [a.u.]:              -16.103243226213653

 STRESS| Analytical stress tensor [GPa]
 STRESS|                        x                   y                   z
 STRESS|      x       -2.72962171561E-02  -2.41193539076E-02  -1.66988662221E-02
 STRESS|      y       -2.41193539076E-02  -8.41871353691E-02  -1.27587423741E-01
 STRESS|      z       -1.66988662221E-02  -1.27587423741E-01  -4.52426902906E-01
 STRESS| 1/3 Trace                                            -1.87970085144E-01
 STRESS| Determinant                                          -4.11433459105E-04

 STRESS| Eigenvectors and eigenvalues of the analytical stress tensor [GPa]
 STRESS|                        1                   2                   3
 STRESS| Eigenvalues  -4.93462928017E-01  -5.53963870634E-02  -1.50509403515E-02
 STRESS|      x           0.049643742923      0.523724124740      0.850440203632
 STRESS|      y           0.299911802014      0.804377359278     -0.512864480048
 STRESS|      z           0.952674346144     -0.280517566378      0.117138743172

 Number of electrons:                                                         14
 Number of occupied orbitals:                                                  7
 Number of molecular orbitals:                                                 7

 Number of orbital functions:                                                 14
 Number of independent orbital functions:                                     14

 Extrapolation method: ASPC


 SCF WAVEFUNCTION OPTIMIZATION

  ----------------------------------- OT ---------------------------------------
  Minimizer      : CG                  : conjugate gradient
  Preconditioner : FULL_ALL            : diagonalization, state selective
  Precond_solver : DEFAULT
  Line search    : 2PNT                : 2 energies, one gradient
  stepsize       :    0.15000000                  energy_gap     :    0.08000000
  eps_taylor     :   0.10000E-15                  max_taylor     :             4
  ----------------------------------- OT ---------------------------------------

  Step     Update method      Time    Convergence         Total energy    Change
  ------------------------------------------------------------------------------
     1 OT CG       0.15E+00    0.3     0.01497013       -16.1031678718 -1.61E+01
     2 OT LS       0.19E+00    0.3                      -16.1051821190
     3 OT CG       0.19E+00    0.5     0.00241712       -16.1052889104 -2.12E-03
     4 OT LS       0.18E+00    0.3                      -16.1053390952
     5 OT CG       0.18E+00    0.5     0.00065034       -16.1053395413 -5.06E-05
     6 OT LS       0.17E+00    0.3                      -16.1053429976
     7 OT CG       0.17E+00    0.5     0.00004198       -16.1053430079 -3.47E-06

  *** SCF run converged in     7 steps ***


  Electronic density on regular grids:        -13.9999999998        0.0000000002
  Core density on regular grids:               13.9999999987       -0.0000000013
  Total charge density on r-space grids:       -0.0000000011
  Total charge density g-space grids:          -0.0000000011

  Overlap energy of the core charge distribution:               0.00000683716209
  Self energy of the core charge distribution:                -38.70122451907286
  Core Hamiltonian energy:                                     12.70321867168976
  Hartree energy:                                              15.50721081207639
  Exchange-correlation energy:                                 -5.61455480980389

  Total energy:                                               -16.10534300794851

  outer SCF iter =    1 RMS gradient =   0.42E-04 energy =        -16.1053430079
  outer SCF loop converged in   1 iterations or    7 steps


 ENERGY| Total FORCE_EVAL ( QS ) energy [a.u.]:              -16.105343025797261

 STRESS| Analytical stress tensor [GPa]
 STRESS|                        x                   y                   z
 STRESS|      x        7.21318727947E-02  -3.75820744320E-03  -9.64482510346E-02
 STRESS|      y       -3.75820744320E-03  -6.89003662852E-02  -1.07081542493E-01
 STRESS|      z       -9.64482510346E-02  -1.07081542493E-01  -2.80576090864E-01
 STRESS| 1/3 Trace                                            -9.24481947848E-02
 STRESS| Determinant                                           1.13460573933E-03

 STRESS| Eigenvectors and eigenvalues of the analytical stress tensor [GPa]
 STRESS|                        1                   2                   3
 STRESS| Eigenvalues  -3.45073440840E-01  -3.27299548714E-02   1.00458811357E-01
 STRESS|      x           0.213546947358     -0.245229549831      0.945653302836
 STRESS|      y           0.355696126854      0.921058624639      0.158528468480
 STRESS|      z           0.909877995456     -0.302511946652     -0.283916458694

 Number of electrons:                                                         14
 Number of occupied orbitals:                                                  7
 Number of molecular orbitals:                                                 7

 Number of orbital functions:                                                 14
 Number of independent orbital functions:                                     14

 Extrapolation method: ASPC


 SCF WAVEFUNCTION OPTIMIZATION

  ----------------------------------- OT ---------------------------------------
  Minimizer      : CG                  : conjugate gradient
  Preconditioner : FULL_ALL            : diagonalization, state selective
  Precond_solver : DEFAULT
  Line search    : 2PNT                : 2 energies, one gradient
  stepsize       :    0.15000000                  energy_gap     :    0.08000000
  eps_taylor     :   0.10000E-15                  max_taylor     :             4
  ----------------------------------- OT ---------------------------------------

  Step     Update method      Time    Convergence         Total energy    Change
  ------------------------------------------------------------------------------
     1 OT CG       0.15E+00    0.3     0.01425156       -16.1033769002 -1.61E+01
     2 OT LS       0.19E+00    0.3                      -16.1052060914
     3 OT CG       0.19E+00    0.5     0.00231845       -16.1053019359 -1.93E-03
     4 OT LS       0.18E+00    0.3                      -16.1053481179
     5 OT CG       0.18E+00    0.5     0.00059910       -16.1053485039 -4.66E-05
     6 OT LS       0.17E+00    0.3                      -16.1053514103
     7 OT CG       0.17E+00    0.5     0.00004162       -16.1053514242 -2.92E-06

  *** SCF run converged in     7 steps ***


  Electronic density on regular grids:        -13.9999999998        0.0000000002
  Core density on regular grids:               13.9999999987       -0.0000000013
  Total charge density on r-space grids:       -0.0000000011
  Total charge density g-space grids:          -0.0000000011

  Overlap energy of the core charge distribution:               0.00000683716209
  Self energy of the core charge distribution:                -38.70122451907286
  Core Hamiltonian energy:                                     12.70319419087691
  Hartree energy:                                              15.50722366226170
  Exchange-correlation energy:                                 -5.61455159541072

  Total energy:                                               -16.10535142418288

  outer SCF iter =    1 RMS gradient =   0.42E-04 energy =        -16.1053514242
  outer SCF loop converged in   1 iterations or    7 steps


 ENERGY| Total FORCE_EVAL ( QS ) energy [a.u.]:              -16.105351440931095

 STRESS| Analytical stress tensor [GPa]
 STRESS|                        x                   y                   z
 STRESS|      x        7.21033917430E-02  -3.74274558277E-03  -9.64488278402E-02
 STRESS|      y       -3.74274558277E-03  -6.87916850727E-02  -1.07127116593E-01
 STRESS|      z       -9.64488278402E-02  -1.07127116593E-01  -2.80556389594E-01
 STRESS| 1/3 Trace                                            -9.24148943079E-02
 STRESS| Determinant                                           1.13063129725E-03

 STRESS| Eigenvectors and eigenvalues of the analytical stress tensor [GPa]
 STRESS|                        1                   2                   3
 STRESS| Eigenvalues  -3.45072053542E-01  -3.26193584792E-02   1.00446729098E-01
 STRESS|      x           0.213550154666     -0.245593653950      0.945558083135
 STRESS|      y           0.355695914294      0.920997764986      0.158882136963
 STRESS|      z           0.909877325795     -0.302401841977     -0.284035874446

 Number of electrons:                                                         14
 Number of occupied orbitals:                                                  7
 Number of molecular orbitals:                                                 7

 Number of orbital functions:                                                 14
 Number of independent orbital functions:                                     14

 Extrapolation method: ASPC


 SCF WAVEFUNCTION OPTIMIZATION

  ----------------------------------- OT ---------------------------------------
  Minimizer      : CG                  : conjugate gradient
  Preconditioner : FULL_ALL            : diagonalization, state selective
  Precond_solver : DEFAULT
  Line search    : 2PNT                : 2 energies, one gradient
  stepsize       :    0.15000000                  energy_gap     :    0.08000000
  eps_taylor     :   0.10000E-15                  max_taylor     :             4
  ----------------------------------- OT ---------------------------------------

  Step     Update method      Time    Convergence         Total energy    Change
  ------------------------------------------------------------------------------
     1 OT CG       0.15E+00    0.3     0.01310827       -16.1045613638 -1.61E+01
     2 OT LS       0.20E+00    0.3                      -16.1061223180
     3 OT CG       0.20E+00    0.5     0.00209882       -16.1062154656 -1.65E-03
     4 OT LS       0.18E+00    0.3                      -16.1062531212
     5 OT CG       0.18E+00    0.5     0.00053723       -16.1062536097 -3.81E-05
     6 OT LS       0.17E+00    0.3                      -16.1062559619
     7 OT CG       0.17E+00    0.5     0.00003954       -16.1062559695 -2.36E-06

  *** SCF run converged in     7 steps ***


  Electronic density on regular grids:        -13.9999999998        0.0000000002
  Core density on regular grids:               13.9999999987       -0.0000000013
  Total charge density on r-space grids:       -0.0000000011
  Total charge density g-space grids:          -0.0000000011

  Overlap energy of the core charge distribution:               0.00001025840717
  Self energy of the core charge distribution:                -38.70122451907286
  Core Hamiltonian energy:                                     12.73638565493948
  Hartree energy:                                              15.48726443853948
  Exchange-correlation energy:                                 -5.62869180230345

  Total energy:                                               -16.10625596949018

  outer SCF iter =    1 RMS gradient =   0.40E-04 energy =        -16.1062559695
  outer SCF loop converged in   1 iterations or    7 steps


 ENERGY| Total FORCE_EVAL ( QS ) energy [a.u.]:              -16.106255984765909

 STRESS| Analytical stress tensor [GPa]
 STRESS|                        x                   y                   z
 STRESS|      x        7.66601053316E-02  -1.26749925189E-02  -1.16115763704E-01
 STRESS|      y       -1.26749925189E-02  -4.97928811754E-02  -4.75000640996E-02
 STRESS|      z       -1.16115763704E-01  -4.75000640996E-02  -2.75100508797E-02
 STRESS| 1/3 Trace                                            -2.14275574490E-04
 STRESS| Determinant                                           4.67997154494E-04

 STRESS| Eigenvectors and eigenvalues of the analytical stress tensor [GPa]
 STRESS|                        1                   2                   3
 STRESS| Eigenvalues  -1.30170859982E-01  -2.34948678723E-02   1.53022901131E-01
 STRESS|      x           0.445486286328     -0.337954939668      0.829052728991
 STRESS|      y           0.506514005030      0.858708092789      0.077871522956
 STRESS|      z           0.738231353576     -0.385236122570     -0.553721589307

 Number of electrons:                                                         14
 Number of occupied orbitals:                                                  7
 Number of molecular orbitals:                                                 7

 Number of orbital functions:                                                 14
 Number of independent orbital functions:                                     14

 Extrapolation method: ASPC


 SCF WAVEFUNCTION OPTIMIZATION

  ----------------------------------- OT ---------------------------------------
  Minimizer      : CG                  : conjugate gradient
  Preconditioner : FULL_ALL            : diagonalization, state selective
  Precond_solver : DEFAULT
  Line search    : 2PNT                : 2 energies, one gradient
  stepsize       :    0.15000000                  energy_gap     :    0.08000000
  eps_taylor     :   0.10000E-15                  max_taylor     :             4
  ----------------------------------- OT ---------------------------------------

  Step     Update method      Time    Convergence         Total energy    Change
  ------------------------------------------------------------------------------
     1 OT CG       0.15E+00    0.3     0.01236731       -16.1047323166 -1.61E+01
     2 OT LS       0.20E+00    0.3                      -16.1061377435
     3 OT CG       0.20E+00    0.5     0.00197218       -16.1062307828 -1.50E-03
     4 OT LS       0.18E+00    0.3                      -16.1062645948
     5 OT CG       0.18E+00    0.5     0.00045321       -16.1062650223 -3.42E-05
     6 OT LS       0.16E+00    0.3                      -16.1062666260
     7 OT CG       0.16E+00    0.5     0.00004452       -16.1062666473 -1.63E-06

  *** SCF run converged in     7 steps ***


  Electronic density on regular grids:        -13.9999999998        0.0000000002
  Core density on regular grids:               13.9999999987       -0.0000000013
  Total charge density on r-space grids:       -0.0000000011
  Total charge density g-space grids:          -0.0000000011

  Overlap energy of the core charge distribution:               0.00001025840717
  Self energy of the core charge distribution:                -38.70122451907286
  Core Hamiltonian energy:                                     12.73632181216128
  Hartree energy:                                              15.48730290288140
  Exchange-correlation energy:                                 -5.62867710172272

  Total energy:                                               -16.10626664734573

  outer SCF iter =    1 RMS gradient =   0.45E-04 energy =        -16.1062666473
  outer SCF loop converged in   1 iterations or    7 steps


 ENERGY| Total FORCE_EVAL ( QS ) energy [a.u.]:              -16.106266664796756

 STRESS| Analytical stress tensor [GPa]
 STRESS|                        x                   y                   z
 STRESS|      x        7.66299402702E-02  -1.26573730006E-02  -1.16101126869E-01
 STRESS|      y       -1.26573730006E-02  -4.96621619759E-02  -4.75447190564E-02
 STRESS|      z       -1.16101126869E-01  -4.75447190564E-02  -2.74833304396E-02
 STRESS| 1/3 Trace                                            -1.71850715107E-04
 STRESS| Determinant                                           4.65454293705E-04

 STRESS| Eigenvectors and eigenvalues of the analytical stress tensor [GPa]
 STRESS|                        1                   2                   3
 STRESS| Eigenvalues  -1.30144573334E-01  -2.33748371698E-02   1.53003858358E-01
 STRESS|      x           0.445568092876     -0.338083777777      0.828956231543
 STRESS|      y           0.506256766540      0.858834139696      0.078153738394
 STRESS|      z           0.738358423087     -0.384841889217     -0.553826289878

 Number of electrons:                                                         14
 Number of occupied orbitals:                                                  7
 Number of molecular orbitals:                                                 7

 Number of orbital functions:                                                 14
 Number of independent orbital functions:                                     14

 Extrapolation method: ASPC


 SCF WAVEFUNCTION OPTIMIZATION

  ----------------------------------- OT ---------------------------------------
  Minimizer      : CG                  : conjugate gradient
  Preconditioner : FULL_ALL            : diagonalization, state selective
  Precond_solver : DEFAULT
  Line search    : 2PNT                : 2 energies, one gradient
  stepsize       :    0.15000000                  energy_gap     :    0.08000000
  eps_taylor     :   0.10000E-15                  max_taylor     :             4
  ----------------------------------- OT ---------------------------------------

  Step     Update method      Time    Convergence         Total energy    Change
  ------------------------------------------------------------------------------
     1 OT CG       0.15E+00    0.3     0.01146351       -16.1042144780 -1.61E+01
     2 OT LS       0.20E+00    0.3                      -16.1054321163
     3 OT CG       0.20E+00    0.5     0.00170739       -16.1055210629 -1.31E-03
     4 OT LS       0.18E+00    0.3                      -16.1055464015
     5 OT CG       0.18E+00    0.5     0.00038671       -16.1055468105 -2.57E-05
     6 OT LS       0.16E+00    0.3                      -16.1055479606
     7 OT CG       0.16E+00    0.5     0.00003737       -16.1055479800 -1.17E-06

  *** SCF run converged in     7 steps ***


  Electronic density on regular grids:        -13.9999999998        0.0000000002
  Core density on regular grids:               13.9999999987       -0.0000000013
  Total charge density on r-space grids:       -0.0000000011
  Total charge density g-space grids:          -0.0000000011

  Overlap energy of the core charge distribution:               0.00001600007082
  Self energy of the core charge distribution:                -38.70122451907286
  Core Hamiltonian energy:                                     12.76300341920618
  Hartree energy:                                              15.47237812020401
  Exchange-correlation energy:                                 -5.63972100039873

  Total energy:                                               -16.10554797999059

  outer SCF iter =    1 RMS gradient =   0.37E-04 energy =        -16.1055479800
  outer SCF loop converged in   1 iterations or    7 steps


 ENERGY| Total FORCE_EVAL ( QS ) energy [a.u.]:              -16.105547992782160

 STRESS| Analytical stress tensor [GPa]
 STRESS|                        x                   y                   z
 STRESS|      x        8.98698289514E-03  -2.43441820460E-02  -5.40620753286E-02
 STRESS|      y       -2.43441820460E-02  -1.94678022294E-02   2.94358819920E-02
 STRESS|      z       -5.40620753286E-02   2.94358819920E-02   2.37352448018E-01
 STRESS| 1/3 Trace                                             7.56238762278E-02
 STRESS| Determinant                                          -5.55980990223E-05

 STRESS| Eigenvectors and eigenvalues of the analytical stress tensor [GPa]
 STRESS|                        1                   2                   3
 STRESS| Eigenvalues  -3.34464779942E-02   6.55048321370E-03   2.53767623464E-01
 STRESS|      x           0.504076149669      0.833631914137     -0.225754439751
 STRESS|      y           0.863632784917     -0.488580635953      0.124206984455
 STRESS|      z           0.006756341543      0.257578713995      0.966233697376

 Number of electrons:                                                         14
 Number of occupied orbitals:                                                  7
 Number of molecular orbitals:                                                 7

 Number of orbital functions:                                                 14
 Number of independent orbital functions:                                     14

 Extrapolation method: ASPC


 SCF WAVEFUNCTION OPTIMIZATION

  ----------------------------------- OT ---------------------------------------
  Minimizer      : CG                  : conjugate gradient
  Preconditioner : FULL_ALL            : diagonalization, state selective
  Precond_solver : DEFAULT
  Line search    : 2PNT                : 2 energies, one gradient
  stepsize       :    0.15000000                  energy_gap     :    0.08000000
  eps_taylor     :   0.10000E-15                  max_taylor     :             4
  ----------------------------------- OT ---------------------------------------

  Step     Update method      Time    Convergence         Total energy    Change
  ------------------------------------------------------------------------------
     1 OT CG       0.15E+00    0.3     0.01101604       -16.1043128347 -1.61E+01
     2 OT LS       0.20E+00    0.3                      -16.1054391115
     3 OT CG       0.20E+00    0.5     0.00166192       -16.1055224557 -1.21E-03
     4 OT LS       0.18E+00    0.3                      -16.1055466519
     5 OT CG       0.18E+00    0.5     0.00033436       -16.1055470120 -2.46E-05
     6 OT LS       0.16E+00    0.3                      -16.1055478729
     7 OT CG       0.16E+00    0.5     0.00003951       -16.1055478887 -8.77E-07

  *** SCF run converged in     7 steps ***


  Electronic density on regular grids:        -13.9999999998        0.0000000002
  Core density on regular grids:               13.9999999987       -0.0000000013
  Total charge density on r-space grids:       -0.0000000011
  Total charge density g-space grids:          -0.0000000011

  Overlap energy of the core charge distribution:               0.00001600007082
  Self energy of the core charge distribution:                -38.70122451907286
  Core Hamiltonian energy:                                     12.76288924897038
  Hartree energy:                                              15.47245902746061
  Exchange-correlation energy:                                 -5.63968764609908

  Total energy:                                               -16.10554788867012

  outer SCF iter =    1 RMS gradient =   0.40E-04 energy =        -16.1055478887
  outer SCF loop converged in   1 iterations or    7 steps


 ENERGY| Total FORCE_EVAL ( QS ) energy [a.u.]:              -16.105547902006293

 STRESS| Analytical stress tensor [GPa]
 STRESS|                        x                   y                   z
 STRESS|      x        8.96418125776E-03  -2.43307963118E-02  -5.40410499808E-02
 STRESS|      y       -2.43307963118E-02  -1.94837172218E-02   2.94027909323E-02
 STRESS|      z       -5.40410499808E-02   2.94027909323E-02   2.37393318026E-01
 STRESS| 1/3 Trace                                             7.56245940207E-02
 STRESS| Determinant                                          -5.55235857176E-05

 STRESS| Eigenvectors and eigenvalues of the analytical stress tensor [GPa]
 STRESS|                        1                   2                   3
 STRESS| Eigenvalues  -3.34527297514E-02   6.53999471546E-03   2.53786517098E-01
 STRESS|      x           0.504079789549      0.833665470565     -0.225622359166
 STRESS|      y           0.863630139805     -0.488623482408      0.124056737260
 STRESS|      z           0.006822564601      0.257388763600      0.966283849076

 Number of electrons:                                                         14
 Number of occupied orbitals:                                                  7
 Number of molecular orbitals:                                                 7

 Number of orbital functions:                                                 14
 Number of independent orbital functions:                                     14

 Extrapolation method: ASPC


 SCF WAVEFUNCTION OPTIMIZATION

  ----------------------------------- OT ---------------------------------------
  Minimizer      : CG                  : conjugate gradient
  Preconditioner : FULL_ALL            : diagonalization, state selective
  Precond_solver : DEFAULT
  Line search    : 2PNT                : 2 energies, one gradient
  stepsize       :    0.15000000                  energy_gap     :    0.08000000
  eps_taylor     :   0.10000E-15                  max_taylor     :             4
  ----------------------------------- OT ---------------------------------------

  Step     Update method      Time    Convergence         Total energy    Change
  ------------------------------------------------------------------------------
     1 OT CG       0.15E+00    0.3     0.01090091       -16.1033504197 -1.61E+01
     2 OT LS       0.21E+00    0.3                      -16.1044691886
     3 OT CG       0.21E+00    0.5     0.00140594       -16.1045647559 -1.21E-03
     4 OT LS       0.20E+00    0.3                      -16.1045839877
     5 OT CG       0.20E+00    0.5     0.00014223       -16.1045840309 -1.93E-05
     6 OT LS       0.17E+00    0.3                      -16.1045841946
     7 OT CG       0.17E+00    0.5     0.00002094       -16.1045841995 -1.69E-07

  *** SCF run converged in     7 steps ***


  Electronic density on regular grids:        -13.9999999998        0.0000000002
  Core density on regular grids:               13.9999999987       -0.0000000013
  Total charge density on r-space grids:       -0.0000000011
  Total charge density g-space grids:          -0.0000000011

  Overlap energy of the core charge distribution:               0.00001836599096
  Self energy of the core charge distribution:                -38.70122451907286
  Core Hamiltonian energy:                                     12.76199255903145
  Hartree energy:                                              15.47449776649998
  Exchange-correlation energy:                                 -5.63986837194380

  Total energy:                                               -16.10458419949427

  outer SCF iter =    1 RMS gradient =   0.21E-04 energy =        -16.1045841995
  outer SCF loop converged in   1 iterations or    7 steps


 ENERGY| Total FORCE_EVAL ( QS ) energy [a.u.]:              -16.104584203890319

 STRESS| Analytical stress tensor [GPa]
 STRESS|                        x                   y                   z
 STRESS|      x       -7.79588823266E-02  -3.27221717837E-02   3.89354074651E-02
 STRESS|      y       -3.27221717837E-02   2.62208227373E-03   8.41119879291E-02
 STRESS|      z        3.89354074651E-02   8.41119879291E-02   3.22365513009E-01
 STRESS| 1/3 Trace                                             8.23429043187E-02
 STRESS| Determinant                                          -7.78213974282E-05

 STRESS| Eigenvectors and eigenvalues of the analytical stress tensor [GPa]
 STRESS|                        1                   2                   3
 STRESS| Eigenvalues  -1.00499210954E-01   2.24263345103E-03   3.45285290459E-01
 STRESS|      x           0.893095237088     -0.444170282178      0.071369867036
 STRESS|      y           0.418340909870      0.878333214278      0.231347461248
 STRESS|      z          -0.165444191860     -0.176758380640      0.970249810231

 Number of electrons:                                                         14
 Number of occupied orbitals:                                                  7
 Number of molecular orbitals:                                                 7

 Number of orbital functions:                                                 14
 Number of independent orbital functions:                                     14

 Extrapolation method: ASPC


 SCF WAVEFUNCTION OPTIMIZATION

  ----------------------------------- OT ---------------------------------------
  Minimizer      : CG                  : conjugate gradient
  Preconditioner : FULL_ALL            : diagonalization, state selective
  Precond_solver : DEFAULT
  Line search    : 2PNT                : 2 energies, one gradient
  stepsize       :    0.15000000                  energy_gap     :    0.08000000
  eps_taylor     :   0.10000E-15                  max_taylor     :             4
  ----------------------------------- OT ---------------------------------------

  Step     Update method      Time    Convergence         Total energy    Change
  ------------------------------------------------------------------------------
     1 OT CG       0.15E+00    0.3     0.01128171       -16.1032466375 -1.61E+01
     2 OT LS       0.21E+00    0.3                      -16.1044472667
     3 OT CG       0.21E+00    0.5     0.00165420       -16.1045525681 -1.31E-03
     4 OT LS       0.18E+00    0.3                      -16.1045761988
     5 OT CG       0.18E+00    0.5     0.00031302       -16.1045768135 -2.42E-05
     6 OT LS       0.15E+00    0.3                      -16.1045775348
     7 OT CG       0.15E+00    0.5     0.00003998       -16.1045775558 -7.42E-07

  *** SCF run converged in     7 steps ***


  Electronic density on regular grids:        -13.9999999998        0.0000000002
  Core density on regular grids:               13.9999999987       -0.0000000013
  Total charge density on r-space grids:       -0.0000000011
  Total charge density g-space grids:          -0.0000000011

  Overlap energy of the core charge distribution:               0.00001836599096
  Self energy of the core charge distribution:                -38.70122451907286
  Core Hamiltonian energy:                                     12.76206915964497
  Hartree energy:                                              15.47443638710800
  Exchange-correlation energy:                                 -5.63987694943201

  Total energy:                                               -16.10457755576094

  outer SCF iter =    1 RMS gradient =   0.40E-04 energy =        -16.1045775558
  outer SCF loop converged in   1 iterations or    7 steps


 ENERGY| Total FORCE_EVAL ( QS ) energy [a.u.]:              -16.104577569920743

 STRESS| Analytical stress tensor [GPa]
 STRESS|                        x                   y                   z
 STRESS|      x       -7.79939938054E-02  -3.27188696167E-02   3.89540914598E-02
 STRESS|      y       -3.27188696167E-02   2.51442429444E-03   8.40991467396E-02
 STRESS|      z        3.89540914598E-02   8.40991467396E-02   3.22352761784E-01
 STRESS| 1/3 Trace                                             8.22910640910E-02
 STRESS| Determinant                                          -7.48674558617E-05

 STRESS| Eigenvectors and eigenvalues of the analytical stress tensor [GPa]
 STRESS|                        1                   2                   3
 STRESS| Eigenvalues  -1.00547688119E-01   2.15659867388E-03   3.45264281718E-01
 STRESS|      x           0.892996441805     -0.444360635411      0.071421149671
 STRESS|      y           0.418535041931      0.878265598551      0.231253015283
 STRESS|      z          -0.165486475577     -0.176615865933      0.970268551640

 Number of electrons:                                                         14
 Number of occupied orbitals:                                                  7
 Number of molecular orbitals:                                                 7

 Number of orbital functions:                                                 14
 Number of independent orbital functions:                                     14

 Extrapolation method: ASPC


 SCF WAVEFUNCTION OPTIMIZATION

  ----------------------------------- OT ---------------------------------------
  Minimizer      : CG                  : conjugate gradient
  Preconditioner : FULL_ALL            : diagonalization, state selective
  Precond_solver : DEFAULT
  Line search    : 2PNT                : 2 energies, one gradient
  stepsize       :    0.15000000                  energy_gap     :    0.08000000
  eps_taylor     :   0.10000E-15                  max_taylor     :             4
  ----------------------------------- OT ---------------------------------------

  Step     Update method      Time    Convergence         Total energy    Change
  ------------------------------------------------------------------------------
     1 OT CG       0.15E+00    0.3     0.01245531       -16.1032558175 -1.61E+01
     2 OT LS       0.21E+00    0.3                      -16.1047153297
     3 OT CG       0.21E+00    0.5     0.00218717       -16.1048384870 -1.58E-03
     4 OT LS       0.16E+00    0.3                      -16.1048722570
     5 OT CG       0.16E+00    0.5     0.00044987       -16.1048757692 -3.73E-05
     6 OT LS       0.17E+00    0.3                      -16.1048774274
     7 OT CG       0.17E+00    0.5     0.00003576       -16.1048774313 -1.66E-06

  *** SCF run converged in     7 steps ***


  Electronic density on regular grids:        -13.9999999998        0.0000000002
  Core density on regular grids:               13.9999999987       -0.0000000013
  Total charge density on r-space grids:       -0.0000000011
  Total charge density g-space grids:          -0.0000000011

  Overlap energy of the core charge distribution:               0.00001813175878
  Self energy of the core charge distribution:                -38.70122451907286
  Core Hamiltonian energy:                                     12.74934243000680
  Hartree energy:                                              15.48339660531600
  Exchange-correlation energy:                                 -5.63641007934617

  Total energy:                                               -16.10487743133744

  outer SCF iter =    1 RMS gradient =   0.36E-04 energy =        -16.1048774313
  outer SCF loop converged in   1 iterations or    7 steps


 ENERGY| Total FORCE_EVAL ( QS ) energy [a.u.]:              -16.104877443961339

 STRESS| Analytical stress tensor [GPa]
 STRESS|                        x                   y                   z
 STRESS|      x       -7.20133198428E-02  -3.69819459402E-03   9.32678197270E-02
 STRESS|      y       -3.69819459402E-03   3.11883240901E-02   1.09595231334E-01
 STRESS|      z        9.32678197270E-02   1.09595231334E-01   2.34331656543E-01
 STRESS| 1/3 Trace                                             6.45022202634E-02
 STRESS| Determinant                                          -1.14550237950E-05

 STRESS| Eigenvectors and eigenvalues of the analytical stress tensor [GPa]
 STRESS|                        1                   2                   3
 STRESS| Eigenvalues  -1.08193792567E-01   3.51336870521E-04   3.01349116486E-01
 STRESS|      x           0.896533534814     -0.383130504061      0.222348010584
 STRESS|      y           0.288260107708      0.885715396718      0.363887821068
 STRESS|      z          -0.336353580712     -0.262143573018      0.904514795826

 Number of electrons:                                                         14
 Number of occupied orbitals:                                                  7
 Number of molecular orbitals:                                                 7

 Number of orbital functions:                                                 14
 Number of independent orbital functions:                                     14

 Extrapolation method: ASPC


 SCF WAVEFUNCTION OPTIMIZATION

  ----------------------------------- OT ---------------------------------------
  Minimizer      : CG                  : conjugate gradient
  Preconditioner : FULL_ALL            : diagonalization, state selective
  Precond_solver : DEFAULT
  Line search    : 2PNT                : 2 energies, one gradient
  stepsize       :    0.15000000                  energy_gap     :    0.08000000
  eps_taylor     :   0.10000E-15                  max_taylor     :             4
  ----------------------------------- OT ---------------------------------------

  Step     Update method      Time    Convergence         Total energy    Change
  ------------------------------------------------------------------------------
     1 OT CG       0.15E+00    0.3     0.01358176       -16.1029568309 -1.61E+01
     2 OT LS       0.21E+00    0.3                      -16.1046764089
     3 OT CG       0.21E+00    0.5     0.00269626       -16.1048109975 -1.85E-03
     4 OT LS       0.15E+00    0.3                      -16.1048604596
     5 OT CG       0.15E+00    0.5     0.00050989       -16.1048662683 -5.53E-05
     6 OT LS       0.18E+00    0.3                      -16.1048684859
     7 OT CG       0.18E+00    0.5     0.00004671       -16.1048685208 -2.25E-06

  *** SCF run converged in     7 steps ***


  Electronic density on regular grids:        -13.9999999997        0.0000000003
  Core density on regular grids:               13.9999999987       -0.0000000013
  Total charge density on r-space grids:       -0.0000000011
  Total charge density g-space grids:          -0.0000000011

  Overlap energy of the core charge distribution:               0.00001813175878
  Self energy of the core charge distribution:                -38.70122451907286
  Core Hamiltonian energy:                                     12.74942661346388
  Hartree energy:                                              15.48332633794920
  Exchange-correlation energy:                                 -5.63641508488130

  Total energy:                                               -16.10486852078230

  outer SCF iter =    1 RMS gradient =   0.47E-04 energy =        -16.1048685208
  outer SCF loop converged in   1 iterations or    7 steps


 ENERGY| Total FORCE_EVAL ( QS ) energy [a.u.]:              -16.104868541427489

 STRESS| Analytical stress tensor [GPa]
 STRESS|                        x                   y                   z
 STRESS|      x       -7.20698199644E-02  -3.70256292788E-03   9.32902392248E-02
 STRESS|      y       -3.70256292788E-03   3.10169615737E-02   1.09576443292E-01
 STRESS|      z        9.32902392248E-02   1.09576443292E-01   2.34339880356E-01
 STRESS| 1/3 Trace                                             6.44290073217E-02
 STRESS| Determinant                                          -7.35173648192E-06

 STRESS| Eigenvectors and eigenvalues of the analytical stress tensor [GPa]
 STRESS|                        1                   2                   3
 STRESS| Eigenvalues  -1.08264655857E-01   2.25354460898E-04   3.01326323361E-01
 STRESS|      x           0.896466536584     -0.383256720735      0.222400617798
 STRESS|      y           0.288456856634      0.885747546336      0.363653579688
 STRESS|      z          -0.336363479953     -0.261850281976      0.904596064099

 Number of electrons:                                                         14
 Number of occupied orbitals:                                                  7
 Number of molecular orbitals:                                                 7

 Number of orbital functions:                                                 14
 Number of independent orbital functions:                                     14

 Extrapolation method: ASPC


 SCF WAVEFUNCTION OPTIMIZATION

  ----------------------------------- OT ---------------------------------------
  Minimizer      : CG                  : conjugate gradient
  Preconditioner : FULL_ALL            : diagonalization, state selective
  Precond_solver : DEFAULT
  Line search    : 2PNT                : 2 energies, one gradient
  stepsize       :    0.15000000                  energy_gap     :    0.08000000
  eps_taylor     :   0.10000E-15                  max_taylor     :             4
  ----------------------------------- OT ---------------------------------------

  Step     Update method      Time    Convergence         Total energy    Change
  ------------------------------------------------------------------------------
     1 OT CG       0.15E+00    0.3     0.01452651       -16.1048014308 -1.61E+01
     2 OT LS       0.20E+00    0.3                      -16.1067640398
     3 OT CG       0.20E+00    0.5     0.00305917       -16.1069110039 -2.11E-03
     4 OT LS       0.15E+00    0.3                      -16.1069712043
     5 OT CG       0.15E+00    0.5     0.00053929       -16.1069799007 -6.89E-05
     6 OT LS       0.18E+00    0.3                      -16.1069823851
     7 OT CG       0.18E+00    0.5     0.00003748       -16.1069824480 -2.55E-06

  *** SCF run converged in     7 steps ***


  Electronic density on regular grids:        -13.9999999998        0.0000000002
  Core density on regular grids:               13.9999999987       -0.0000000013
  Total charge density on r-space grids:       -0.0000000011
  Total charge density g-space grids:          -0.0000000011

  Overlap energy of the core charge distribution:               0.00001873635204
  Self energy of the core charge distribution:                -38.70122451907286
  Core Hamiltonian energy:                                     12.72827477317223
  Hartree energy:                                              15.49636623838746
  Exchange-correlation energy:                                 -5.63041767683194

  Total energy:                                               -16.10698244799306

  outer SCF iter =    1 RMS gradient =   0.37E-04 energy =        -16.1069824480
  outer SCF loop converged in   1 iterations or    7 steps


 ENERGY| Total FORCE_EVAL ( QS ) energy [a.u.]:              -16.106982462768336

 STRESS| Analytical stress tensor [GPa]
 STRESS|                        x                   y                   z
 STRESS|      x       -6.78793680086E-03   3.11686192160E-02   5.41417260586E-02
 STRESS|      y        3.11686192160E-02   4.54699710837E-02   7.69152343653E-02
 STRESS|      z        5.41417260586E-02   7.69152343653E-02   4.25434340418E-02
 STRESS| 1/3 Trace                                             2.70751561082E-02
 STRESS| Determinant                                           1.12001084646E-04

 STRESS| Eigenvectors and eigenvalues of the analytical stress tensor [GPa]
 STRESS|                        1                   2                   3
 STRESS| Eigenvalues  -4.75739015961E-02  -1.62326546472E-02   1.45032024568E-01
 STRESS|      x          -0.639528498062      0.673015310213      0.371555772914
 STRESS|      y          -0.351116065157     -0.685668185559      0.637633631564
 STRESS|      z           0.683901168997      0.277325677735      0.674810832391

 Number of electrons:                                                         14
 Number of occupied orbitals:                                                  7
 Number of molecular orbitals:                                                 7

 Number of orbital functions:                                                 14
 Number of independent orbital functions:                                     14

 Extrapolation method: ASPC


 SCF WAVEFUNCTION OPTIMIZATION

  ----------------------------------- OT ---------------------------------------
  Minimizer      : CG                  : conjugate gradient
  Preconditioner : FULL_ALL            : diagonalization, state selective
  Precond_solver : DEFAULT
  Line search    : 2PNT                : 2 energies, one gradient
  stepsize       :    0.15000000                  energy_gap     :    0.08000000
  eps_taylor     :   0.10000E-15                  max_taylor     :             4
  ----------------------------------- OT ---------------------------------------

  Step     Update method      Time    Convergence         Total energy    Change
  ------------------------------------------------------------------------------
     1 OT CG       0.15E+00    0.3     0.01527583       -16.1045816190 -1.61E+01
     2 OT LS       0.20E+00    0.3                      -16.1067429269
     3 OT CG       0.20E+00    0.5     0.00335617       -16.1069017083 -2.32E-03
     4 OT LS       0.15E+00    0.3                      -16.1069748181
     5 OT CG       0.15E+00    0.5     0.00057078       -16.1069849198 -8.32E-05
     6 OT LS       0.18E+00    0.3                      -16.1069877270
     7 OT CG       0.18E+00    0.5     0.00005161       -16.1069878100 -2.89E-06

  *** SCF run converged in     7 steps ***


  Electronic density on regular grids:        -13.9999999997        0.0000000003
  Core density on regular grids:               13.9999999987       -0.0000000013
  Total charge density on r-space grids:       -0.0000000011
  Total charge density g-space grids:          -0.0000000011

  Overlap energy of the core charge distribution:               0.00001873635204
  Self energy of the core charge distribution:                -38.70122451907286
  Core Hamiltonian energy:                                     12.72833091022943
  Hartree energy:                                              15.49632333579662
  Exchange-correlation energy:                                 -5.63043627333599

  Total energy:                                               -16.10698781003077

  outer SCF iter =    1 RMS gradient =   0.52E-04 energy =        -16.1069878100
  outer SCF loop converged in   1 iterations or    7 steps


 ENERGY| Total FORCE_EVAL ( QS ) energy [a.u.]:              -16.106987835615193

 STRESS| Analytical stress tensor [GPa]
 STRESS|                        x                   y                   z
 STRESS|      x       -6.83516731380E-03   3.11778070291E-02   5.41643180443E-02
 STRESS|      y        3.11778070291E-02   4.55011599065E-02   7.68900387476E-02
 STRESS|      z        5.41643180443E-02   7.68900387476E-02   4.25830937419E-02
 STRESS| 1/3 Trace                                             2.70830287782E-02
 STRESS| Determinant                                           1.11975339379E-04

 STRESS| Eigenvectors and eigenvalues of the analytical stress tensor [GPa]
 STRESS|                        1                   2                   3
 STRESS| Eigenvalues  -4.75744669589E-02  -1.62266918642E-02   1.45050245158E-01
 STRESS|      x          -0.640786509153      0.671825613258      0.371541377316
 STRESS|      y          -0.349877878931     -0.686328657751      0.637603672656
 STRESS|      z           0.683357973190      0.278573722594      0.674847065310

 Number of electrons:                                                         14
 Number of occupied orbitals:                                                  7
 Number of molecular orbitals:                                                 7

 Number of orbital functions:                                                 14
 Number of independent orbital functions:                                     14

 Extrapolation method: ASPC


 SCF WAVEFUNCTION OPTIMIZATION

  ----------------------------------- OT ---------------------------------------
  Minimizer      : CG                  : conjugate gradient
  Preconditioner : FULL_ALL            : diagonalization, state selective
  Precond_solver : DEFAULT
  Line search    : 2PNT                : 2 energies, one gradient
  stepsize       :    0.15000000                  energy_gap     :    0.08000000
  eps_taylor     :   0.10000E-15                  max_taylor     :             4
  ----------------------------------- OT ---------------------------------------

  Step     Update method      Time    Convergence         Total energy    Change
  ------------------------------------------------------------------------------
     1 OT CG       0.15E+00    0.3     0.01528161       -16.1047505077 -1.61E+01
     2 OT LS       0.20E+00    0.3                      -16.1069104891
     3 OT CG       0.20E+00    0.5     0.00331872       -16.1070630657 -2.31E-03
     4 OT LS       0.15E+00    0.3                      -16.1071337901
     5 OT CG       0.15E+00    0.5     0.00059713       -16.1071436788 -8.06E-05
     6 OT LS       0.18E+00    0.3                      -16.1071467480
     7 OT CG       0.18E+00    0.5     0.00003964       -16.1071468423 -3.16E-06

  *** SCF run converged in     7 steps ***


  Electronic density on regular grids:        -13.9999999997        0.0000000003
  Core density on regular grids:               13.9999999987       -0.0000000013
  Total charge density on r-space grids:       -0.0000000011
  Total charge density g-space grids:          -0.0000000011

  Overlap energy of the core charge distribution:               0.00002029946443
  Self energy of the core charge distribution:                -38.70122451907286
  Core Hamiltonian energy:                                     12.70611905956318
  Hartree energy:                                              15.51147343389759
  Exchange-correlation energy:                                 -5.62353511617935

  Total energy:                                               -16.10714684232702

  outer SCF iter =    1 RMS gradient =   0.40E-04 energy =        -16.1071468423
  outer SCF loop converged in   1 iterations or    7 steps


 ENERGY| Total FORCE_EVAL ( QS ) energy [a.u.]:              -16.107146859367884

 STRESS| Analytical stress tensor [GPa]
 STRESS|                        x                   y                   z
 STRESS|      x        8.07011490342E-02   5.21997898983E-02  -2.13175470337E-02
 STRESS|      y        5.21997898983E-02   3.22653175592E-02   8.50253781426E-03
 STRESS|      z       -2.13175470337E-02   8.50253781426E-03  -1.48449366230E-01
 STRESS| 1/3 Trace                                            -1.18276332123E-02
 STRESS| Determinant                                          -2.14615839167E-05

 STRESS| Eigenvectors and eigenvalues of the analytical stress tensor [GPa]
 STRESS|                        1                   2                   3
 STRESS| Eigenvalues  -1.51435060756E-01   1.23540247563E-03   1.14716758644E-01
 STRESS|      x           0.108253855663     -0.521786829889      0.846179417670
 STRESS|      y          -0.076636998539      0.844268363889      0.530412763978
 STRESS|      z           0.991164907162      0.122267877589     -0.051407129085

 Number of electrons:                                                         14
 Number of occupied orbitals:                                                  7
 Number of molecular orbitals:                                                 7

 Number of orbital functions:                                                 14
 Number of independent orbital functions:                                     14

 Extrapolation method: ASPC


 SCF WAVEFUNCTION OPTIMIZATION

  ----------------------------------- OT ---------------------------------------
  Minimizer      : CG                  : conjugate gradient
  Preconditioner : FULL_ALL            : diagonalization, state selective
  Precond_solver : DEFAULT
  Line search    : 2PNT                : 2 energies, one gradient
  stepsize       :    0.15000000                  energy_gap     :    0.08000000
  eps_taylor     :   0.10000E-15                  max_taylor     :             4
  ----------------------------------- OT ---------------------------------------

  Step     Update method      Time    Convergence         Total energy    Change
  ------------------------------------------------------------------------------
     1 OT CG       0.15E+00    0.3     0.01524974       -16.1047756783 -1.61E+01
     2 OT LS       0.20E+00    0.3                      -16.1069180734
     3 OT CG       0.20E+00    0.5     0.00327603       -16.1070667931 -2.29E-03
     4 OT LS       0.15E+00    0.3                      -16.1071374632
     5 OT CG       0.15E+00    0.5     0.00062960       -16.1071462654 -7.95E-05
     6 OT LS       0.18E+00    0.3                      -16.1071497019
     7 OT CG       0.18E+00    0.5     0.00004864       -16.1071498088 -3.54E-06

  *** SCF run converged in     7 steps ***


  Electronic density on regular grids:        -13.9999999997        0.0000000003
  Core density on regular grids:               13.9999999987       -0.0000000013
  Total charge density on r-space grids:       -0.0000000011
  Total charge density g-space grids:          -0.0000000011

  Overlap energy of the core charge distribution:               0.00002029946443
  Self energy of the core charge distribution:                -38.70122451907286
  Core Hamiltonian energy:                                     12.70613989360990
  Hartree energy:                                              15.51146534907742
  Exchange-correlation energy:                                 -5.62355083184340

  Total energy:                                               -16.10714980876451

  outer SCF iter =    1 RMS gradient =   0.49E-04 energy =        -16.1071498088
  outer SCF loop converged in   1 iterations or    7 steps


 ENERGY| Total FORCE_EVAL ( QS ) energy [a.u.]:              -16.107149833133736

 STRESS| Analytical stress tensor [GPa]
 STRESS|                        x                   y                   z
 STRESS|      x        8.06923118799E-02   5.22084882687E-02  -2.13054212195E-02
 STRESS|      y        5.22084882687E-02   3.22961808932E-02   8.48399298689E-03
 STRESS|      z       -2.13054212195E-02   8.48399298689E-03  -1.48444280646E-01
 STRESS| 1/3 Trace                                            -1.18185959575E-02
 STRESS| Determinant                                          -2.15771566425E-05

 STRESS| Eigenvectors and eigenvalues of the analytical stress tensor [GPa]
 STRESS|                        1                   2                   3
 STRESS| Eigenvalues  -1.51424714755E-01   1.24203033897E-03   1.14726896543E-01
 STRESS|      x           0.108188109646     -0.521970950647      0.846074263651
 STRESS|      y          -0.076515598292      0.844172975384      0.530582086816
 STRESS|      z           0.991181464793      0.122140551467     -0.051390558841

 Number of electrons:                                                         14
 Number of occupied orbitals:                                                  7
 Number of molecular orbitals:                                                 7

 Number of orbital functions:                                                 14
 Number of independent orbital functions:                                     14

 Extrapolation method: ASPC


 SCF WAVEFUNCTION OPTIMIZATION

  ----------------------------------- OT ---------------------------------------
  Minimizer      : CG                  : conjugate gradient
  Preconditioner : FULL_ALL            : diagonalization, state selective
  Precond_solver : DEFAULT
  Line search    : 2PNT                : 2 energies, one gradient
  stepsize       :    0.15000000                  energy_gap     :    0.08000000
  eps_taylor     :   0.10000E-15                  max_taylor     :             4
  ----------------------------------- OT ---------------------------------------

  Step     Update method      Time    Convergence         Total energy    Change
  ------------------------------------------------------------------------------
     1 OT CG       0.15E+00    0.3     0.01465164       -16.1023134531 -1.61E+01
     2 OT LS       0.21E+00    0.3                      -16.1043183364
     3 OT CG       0.21E+00    0.5     0.00261825       -16.1044757421 -2.16E-03
     4 OT LS       0.16E+00    0.3                      -16.1045223623
     5 OT CG       0.16E+00    0.5     0.00058655       -16.1045278315 -5.21E-05
     6 OT LS       0.17E+00    0.3                      -16.1045307166
     7 OT CG       0.17E+00    0.5     0.00003998       -16.1045307468 -2.92E-06

  *** SCF run converged in     7 steps ***


  Electronic density on regular grids:        -13.9999999997        0.0000000003
  Core density on regular grids:               13.9999999987       -0.0000000013
  Total charge density on r-space grids:       -0.0000000011
  Total charge density g-space grids:          -0.0000000011

  Overlap energy of the core charge distribution:               0.00001993812392
  Self energy of the core charge distribution:                -38.70122451907286
  Core Hamiltonian energy:                                     12.69993800801121
  Hartree energy:                                              15.51843423891938
  Exchange-correlation energy:                                 -5.62169841273286

  Total energy:                                               -16.10453074675121

  outer SCF iter =    1 RMS gradient =   0.40E-04 energy =        -16.1045307468
  outer SCF loop converged in   1 iterations or    7 steps


 ENERGY| Total FORCE_EVAL ( QS ) energy [a.u.]:              -16.104530763347277

 STRESS| Analytical stress tensor [GPa]
 STRESS|                        x                   y                   z
 STRESS|      x        2.10143376188E-01   6.57348173240E-02  -1.04749848184E-01
 STRESS|      y        6.57348173240E-02  -6.72946242642E-04  -6.41296464889E-02
 STRESS|      z       -1.04749848184E-01  -6.41296464889E-02  -2.52288196374E-01
 STRESS| 1/3 Trace                                            -1.42725888096E-02
 STRESS| Determinant                                           1.15213380026E-03

 STRESS| Eigenvectors and eigenvalues of the analytical stress tensor [GPa]
 STRESS|                        1                   2                   3
 STRESS| Eigenvalues  -2.83690498736E-01  -1.58213064906E-02   2.56694038798E-01
 STRESS|      x           0.181620284406     -0.324667563432      0.928226828716
 STRESS|      y           0.177000838675      0.939302060744      0.293908730376
 STRESS|      z           0.967308004413     -0.110917139963     -0.228062738433

 Number of electrons:                                                         14
 Number of occupied orbitals:                                                  7
 Number of molecular orbitals:                                                 7

 Number of orbital functions:                                                 14
 Number of independent orbital functions:                                     14

 Extrapolation method: ASPC


 SCF WAVEFUNCTION OPTIMIZATION

  ----------------------------------- OT ---------------------------------------
  Minimizer      : CG                  : conjugate gradient
  Preconditioner : FULL_ALL            : diagonalization, state selective
  Precond_solver : DEFAULT
  Line search    : 2PNT                : 2 energies, one gradient
  stepsize       :    0.15000000                  energy_gap     :    0.08000000
  eps_taylor     :   0.10000E-15                  max_taylor     :             4
  ----------------------------------- OT ---------------------------------------

  Step     Update method      Time    Convergence         Total energy    Change
  ------------------------------------------------------------------------------
     1 OT CG       0.15E+00    0.3     0.01420437       -16.1024208287 -1.61E+01
     2 OT LS       0.21E+00    0.3                      -16.1043256950
     3 OT CG       0.21E+00    0.5     0.00209546       -16.1044933027 -2.07E-03
     4 OT LS       0.17E+00    0.3                      -16.1045263986
     5 OT CG       0.17E+00    0.5     0.00051568       -16.1045289272 -3.56E-05
     6 OT LS       0.16E+00    0.3                      -16.1045310064
     7 OT CG       0.16E+00    0.5     0.00004229       -16.1045310091 -2.08E-06

  *** SCF run converged in     7 steps ***


  Electronic density on regular grids:        -13.9999999998        0.0000000002
  Core density on regular grids:               13.9999999987       -0.0000000013
  Total charge density on r-space grids:       -0.0000000011
  Total charge density g-space grids:          -0.0000000011

  Overlap energy of the core charge distribution:               0.00001993812392
  Self energy of the core charge distribution:                -38.70122451907286
  Core Hamiltonian energy:                                     12.69996978822949
  Hartree energy:                                              15.51841998268889
  Exchange-correlation energy:                                 -5.62171619910248

  Total energy:                                               -16.10453100913304

  outer SCF iter =    1 RMS gradient =   0.42E-04 energy =        -16.1045310091
  outer SCF loop converged in   1 iterations or    7 steps


 ENERGY| Total FORCE_EVAL ( QS ) energy [a.u.]:              -16.104531027096542

 STRESS| Analytical stress tensor [GPa]
 STRESS|                        x                   y                   z
 STRESS|      x        2.10127704721E-01   6.57392995414E-02  -1.04746002484E-01
 STRESS|      y        6.57392995414E-02  -6.64807770017E-04  -6.41556677669E-02
 STRESS|      z       -1.04746002484E-01  -6.41556677669E-02  -2.52273709163E-01
 STRESS| 1/3 Trace                                            -1.42702707372E-02
 STRESS| Determinant                                           1.15144306961E-03

 STRESS| Eigenvectors and eigenvalues of the analytical stress tensor [GPa]
 STRESS|                        1                   2                   3
 STRESS| Eigenvalues  -2.83684478354E-01  -1.58126335517E-02   2.56686299694E-01
 STRESS|      x           0.181605048465     -0.324741627742      0.928203900866
 STRESS|      y           0.177086218574      0.939268260182      0.293965315311
 STRESS|      z           0.967295238055     -0.110986533536     -0.228083124783

 Number of electrons:                                                         14
 Number of occupied orbitals:                                                  7
 Number of molecular orbitals:                                                 7

 Number of orbital functions:                                                 14
 Number of independent orbital functions:                                     14

 Extrapolation method: ASPC


 SCF WAVEFUNCTION OPTIMIZATION

  ----------------------------------- OT ---------------------------------------
  Minimizer      : CG                  : conjugate gradient
  Preconditioner : FULL_ALL            : diagonalization, state selective
  Precond_solver : DEFAULT
  Line search    : 2PNT                : 2 energies, one gradient
  stepsize       :    0.15000000                  energy_gap     :    0.08000000
  eps_taylor     :   0.10000E-15                  max_taylor     :             4
  ----------------------------------- OT ---------------------------------------

  Step     Update method      Time    Convergence         Total energy    Change
  ------------------------------------------------------------------------------
     1 OT CG       0.15E+00    0.3     0.01417882       -16.0997201869 -1.61E+01
     2 OT LS       0.21E+00    0.3                      -16.1016317220
     3 OT CG       0.21E+00    0.5     0.00167815       -16.1018136728 -2.09E-03
     4 OT LS       0.19E+00    0.3                      -16.1018401573
     5 OT CG       0.19E+00    0.5     0.00030483       -16.1018404131 -2.67E-05
     6 OT LS       0.14E+00    0.3                      -16.1018409877
     7 OT CG       0.14E+00    0.5     0.00004458       -16.1018410667 -6.54E-07

  *** SCF run converged in     7 steps ***


  Electronic density on regular grids:        -13.9999999998        0.0000000002
  Core density on regular grids:               13.9999999987       -0.0000000013
  Total charge density on r-space grids:       -0.0000000011
  Total charge density g-space grids:          -0.0000000011

  Overlap energy of the core charge distribution:               0.00001566283437
  Self energy of the core charge distribution:                -38.70122451907286
  Core Hamiltonian energy:                                     12.69936193184348
  Hartree energy:                                              15.52195981559906
  Exchange-correlation energy:                                 -5.62195395788198

  Total energy:                                               -16.10184106667793

  outer SCF iter =    1 RMS gradient =   0.45E-04 energy =        -16.1018410667
  outer SCF loop converged in   1 iterations or    7 steps


 ENERGY| Total FORCE_EVAL ( QS ) energy [a.u.]:              -16.101841084087440

 STRESS| Analytical stress tensor [GPa]
 STRESS|                        x                   y                   z
 STRESS|      x        2.86805039953E-01   4.68058142689E-02  -1.65365487872E-01
 STRESS|      y        4.68058142689E-02  -4.63359096187E-02  -1.17999408512E-01
 STRESS|      z       -1.65365487872E-01  -1.17999408512E-01  -2.50889643356E-01
 STRESS| 1/3 Trace                                            -3.47350434060E-03
 STRESS| Determinant                                           2.98411408484E-03

 STRESS| Eigenvectors and eigenvalues of the analytical stress tensor [GPa]
 STRESS|                        1                   2                   3
 STRESS| Eigenvalues  -3.34112455696E-01  -2.55722363632E-02   3.49264179037E-01
 STRESS|      x           0.218057827531     -0.282739894716      0.934081867819
 STRESS|      y           0.339683141476      0.919256450667      0.198954621219
 STRESS|      z           0.914913191100     -0.273908250776     -0.296493040234

 Number of electrons:                                                         14
 Number of occupied orbitals:                                                  7
 Number of molecular orbitals:                                                 7

 Number of orbital functions:                                                 14
 Number of independent orbital functions:                                     14

 Extrapolation method: ASPC


 SCF WAVEFUNCTION OPTIMIZATION

  ----------------------------------- OT ---------------------------------------
  Minimizer      : CG                  : conjugate gradient
  Preconditioner : FULL_ALL            : diagonalization, state selective
  Precond_solver : DEFAULT
  Line search    : 2PNT                : 2 energies, one gradient
  stepsize       :    0.15000000                  energy_gap     :    0.08000000
  eps_taylor     :   0.10000E-15                  max_taylor     :             4
  ----------------------------------- OT ---------------------------------------

  Step     Update method      Time    Convergence         Total energy    Change
  ------------------------------------------------------------------------------
     1 OT CG       0.15E+00    0.3     0.01428273       -16.0996641762 -1.61E+01
     2 OT LS       0.22E+00    0.3                      -16.1016170667
     3 OT CG       0.22E+00    0.5     0.00154852       -16.1018110849 -2.15E-03
     4 OT LS       0.20E+00    0.3                      -16.1018349582
     5 OT CG       0.20E+00    0.5     0.00011684       -16.1018350213 -2.39E-05
     6 OT LS       0.20E+00    0.3                      -16.1018351555
     7 OT CG       0.20E+00    0.5     0.00002722       -16.1018351556 -1.34E-07

  *** SCF run converged in     7 steps ***


  Electronic density on regular grids:        -13.9999999998        0.0000000002
  Core density on regular grids:               13.9999999987       -0.0000000013
  Total charge density on r-space grids:       -0.0000000011
  Total charge density g-space grids:          -0.0000000011

  Overlap energy of the core charge distribution:               0.00001566283437
  Self energy of the core charge distribution:                -38.70122451907286
  Core Hamiltonian energy:                                     12.69953959019868
  Hartree energy:                                              15.52182782594296
  Exchange-correlation energy:                                 -5.62199371546461

  Total energy:                                               -16.10183515556146

  outer SCF iter =    1 RMS gradient =   0.27E-04 energy =        -16.1018351556
  outer SCF loop converged in   1 iterations or    7 steps


 ENERGY| Total FORCE_EVAL ( QS ) energy [a.u.]:              -16.101835161112625

 STRESS| Analytical stress tensor [GPa]
 STRESS|                        x                   y                   z
 STRESS|      x        2.86733921577E-01   4.67917697696E-02  -1.65363371977E-01
 STRESS|      y        4.67917697696E-02  -4.63624238660E-02  -1.17999111133E-01
 STRESS|      z       -1.65363371977E-01  -1.17999111133E-01  -2.50942391680E-01
 STRESS| 1/3 Trace                                            -3.52363132298E-03
 STRESS| Determinant                                           2.98680852918E-03

 STRESS| Eigenvectors and eigenvalues of the analytical stress tensor [GPa]
 STRESS|                        1                   2                   3
 STRESS| Eigenvalues  -3.34164102180E-01  -2.55968058118E-02   3.49190014023E-01
 STRESS|      x           0.218071911495     -0.282729473389      0.934081734269
 STRESS|      y           0.339662630414      0.919265708743      0.198946862830
 STRESS|      z           0.914917449236     -0.273887936220     -0.296498666904

 Number of electrons:                                                         14
 Number of occupied orbitals:                                                  7
 Number of molecular orbitals:                                                 7

 Number of orbital functions:                                                 14
 Number of independent orbital functions:                                     14

 Extrapolation method: ASPC


 SCF WAVEFUNCTION OPTIMIZATION

  ----------------------------------- OT ---------------------------------------
  Minimizer      : CG                  : conjugate gradient
  Preconditioner : FULL_ALL            : diagonalization, state selective
  Precond_solver : DEFAULT
  Line search    : 2PNT                : 2 energies, one gradient
  stepsize       :    0.15000000                  energy_gap     :    0.08000000
  eps_taylor     :   0.10000E-15                  max_taylor     :             4
  ----------------------------------- OT ---------------------------------------

  Step     Update method      Time    Convergence         Total energy    Change
  ------------------------------------------------------------------------------
     1 OT CG       0.15E+00    0.3     0.01434139       -16.1002079444 -1.61E+01
     2 OT LS       0.22E+00    0.3                      -16.1021789275
     3 OT CG       0.22E+00    0.5     0.00164390       -16.1023826034 -2.17E-03
     4 OT LS       0.19E+00    0.3                      -16.1024070235
     5 OT CG       0.19E+00    0.5     0.00032616       -16.1024075608 -2.50E-05
     6 OT LS       0.15E+00    0.3                      -16.1024083120
     7 OT CG       0.15E+00    0.5     0.00005050       -16.1024083551 -7.94E-07

  *** SCF run converged in     7 steps ***


  Electronic density on regular grids:        -13.9999999998        0.0000000002
  Core density on regular grids:               13.9999999987       -0.0000000013
  Total charge density on r-space grids:       -0.0000000011
  Total charge density g-space grids:          -0.0000000011

  Overlap energy of the core charge distribution:               0.00001072719838
  Self energy of the core charge distribution:                -38.70122451907286
  Core Hamiltonian energy:                                     12.69709666600481
  Hartree energy:                                              15.52425216745855
  Exchange-correlation energy:                                 -5.62254339673088

  Total energy:                                               -16.10240835514200

  outer SCF iter =    1 RMS gradient =   0.51E-04 energy =        -16.1024083551
  outer SCF loop converged in   1 iterations or    7 steps


 ENERGY| Total FORCE_EVAL ( QS ) energy [a.u.]:              -16.102408376844540

 STRESS| Analytical stress tensor [GPa]
 STRESS|                        x                   y                   z
 STRESS|      x        2.38028897106E-01   4.02782978726E-03  -1.48101216569E-01
 STRESS|      y        4.02782978726E-03  -7.43015335630E-02  -1.14505718051E-01
 STRESS|      z       -1.48101216569E-01  -1.14505718051E-01  -1.58683104639E-01
 STRESS| 1/3 Trace                                             1.68141963480E-03
 STRESS| Determinant                                           1.45443880336E-03

 STRESS| Eigenvectors and eigenvalues of the analytical stress tensor [GPa]
 STRESS|                        1                   2                   3
 STRESS| Eigenvalues  -2.68240973064E-01  -1.85776778985E-02   2.91862909866E-01
 STRESS|      x           0.241209654518     -0.261606951170      0.934547861624
 STRESS|      y           0.489685556463      0.864211343730      0.115528391146
 STRESS|      z           0.837869893455     -0.429768026345     -0.336561265110

 Number of electrons:                                                         14
 Number of occupied orbitals:                                                  7
 Number of molecular orbitals:                                                 7

 Number of orbital functions:                                                 14
 Number of independent orbital functions:                                     14

 Extrapolation method: ASPC


 SCF WAVEFUNCTION OPTIMIZATION

  ----------------------------------- OT ---------------------------------------
  Minimizer      : CG                  : conjugate gradient
  Preconditioner : FULL_ALL            : diagonalization, state selective
  Precond_solver : DEFAULT
  Line search    : 2PNT                : 2 energies, one gradient
  stepsize       :    0.15000000                  energy_gap     :    0.08000000
  eps_taylor     :   0.10000E-15                  max_taylor     :             4
  ----------------------------------- OT ---------------------------------------

  Step     Update method      Time    Convergence         Total energy    Change
  ------------------------------------------------------------------------------
     1 OT CG       0.15E+00    0.3     0.01424313       -16.1002158752 -1.61E+01
     2 OT LS       0.22E+00    0.3                      -16.1021763942
     3 OT CG       0.22E+00    0.5     0.00153258       -16.1023885111 -2.17E-03
     4 OT LS       0.18E+00    0.3                      -16.1024086109
     5 OT CG       0.18E+00    0.5     0.00034910       -16.1024094262 -2.09E-05
     6 OT LS       0.15E+00    0.3                      -16.1024102648
     7 OT CG       0.15E+00    0.5     0.00004357       -16.1024103125 -8.86E-07

  *** SCF run converged in     7 steps ***


  Electronic density on regular grids:        -13.9999999998        0.0000000002
  Core density on regular grids:               13.9999999987       -0.0000000013
  Total charge density on r-space grids:       -0.0000000011
  Total charge density g-space grids:          -0.0000000011

  Overlap energy of the core charge distribution:               0.00001072719838
  Self energy of the core charge distribution:                -38.70122451907286
  Core Hamiltonian energy:                                     12.69684864329155
  Hartree energy:                                              15.52446905529238
  Exchange-correlation energy:                                 -5.62251421918179

  Total energy:                                               -16.10241031247234

  outer SCF iter =    1 RMS gradient =   0.44E-04 energy =        -16.1024103125
  outer SCF loop converged in   1 iterations or    7 steps


 ENERGY| Total FORCE_EVAL ( QS ) energy [a.u.]:              -16.102410330693726

 STRESS| Analytical stress tensor [GPa]
 STRESS|                        x                   y                   z
 STRESS|      x        2.38120990718E-01   4.08199282827E-03  -1.48144195568E-01
 STRESS|      y        4.08199282827E-03  -7.42574820908E-02  -1.14525123220E-01
 STRESS|      z       -1.48144195568E-01  -1.14525123220E-01  -1.58557521130E-01
 STRESS| 1/3 Trace                                             1.76866249893E-03
 STRESS| Determinant                                           1.45132125689E-03

 STRESS| Eigenvectors and eigenvalues of the analytical stress tensor [GPa]
 STRESS|                        1                   2                   3
 STRESS| Eigenvalues  -2.68157392284E-01  -1.85350301206E-02   2.91998409901E-01
 STRESS|      x           0.241208899497     -0.261817575431      0.934489071097
 STRESS|      y           0.489772119786      0.864140836753      0.115688741618
 STRESS|      z           0.837819513669     -0.429781539217     -0.336669409160

 Number of electrons:                                                         14
 Number of occupied orbitals:                                                  7
 Number of molecular orbitals:                                                 7

 Number of orbital functions:                                                 14
 Number of independent orbital functions:                                     14

 Extrapolation method: ASPC


 SCF WAVEFUNCTION OPTIMIZATION

  ----------------------------------- OT ---------------------------------------
  Minimizer      : CG                  : conjugate gradient
  Preconditioner : FULL_ALL            : diagonalization, state selective
  Precond_solver : DEFAULT
  Line search    : 2PNT                : 2 energies, one gradient
  stepsize       :    0.15000000                  energy_gap     :    0.08000000
  eps_taylor     :   0.10000E-15                  max_taylor     :             4
  ----------------------------------- OT ---------------------------------------

  Step     Update method      Time    Convergence         Total energy    Change
  ------------------------------------------------------------------------------
     1 OT CG       0.15E+00    0.3     0.01327659       -16.1041578804 -1.61E+01
     2 OT LS       0.22E+00    0.3                      -16.1058556580
     3 OT CG       0.22E+00    0.5     0.00155291       -16.1060397317 -1.88E-03
     4 OT LS       0.18E+00    0.3                      -16.1060594209
     5 OT CG       0.18E+00    0.5     0.00031624       -16.1060605870 -2.09E-05
     6 OT LS       0.17E+00    0.3                      -16.1060613932
     7 OT CG       0.17E+00    0.5     0.00004721       -16.1060613966 -8.10E-07

  *** SCF run converged in     7 steps ***


  Electronic density on regular grids:        -13.9999999998        0.0000000002
  Core density on regular grids:               13.9999999987       -0.0000000013
  Total charge density on r-space grids:       -0.0000000011
  Total charge density g-space grids:          -0.0000000011

  Overlap energy of the core charge distribution:               0.00000775259302
  Self energy of the core charge distribution:                -38.70122451907286
  Core Hamiltonian energy:                                     12.68001244604448
  Hartree energy:                                              15.53311976042567
  Exchange-correlation energy:                                 -5.61797683657242

  Total energy:                                               -16.10606139658210

  outer SCF iter =    1 RMS gradient =   0.47E-04 energy =        -16.1060613966
  outer SCF loop converged in   1 iterations or    7 steps


 ENERGY| Total FORCE_EVAL ( QS ) energy [a.u.]:              -16.106061414628357

 STRESS| Analytical stress tensor [GPa]
 STRESS|                        x                   y                   z
 STRESS|      x        1.09201007852E-02  -1.98186097616E-02   1.39132338253E-02
 STRESS|      y       -1.98186097616E-02  -6.47747947360E-02  -4.27053313565E-02
 STRESS|      z        1.39132338253E-02  -4.27053313565E-02  -4.59824392722E-02
 STRESS| 1/3 Trace                                            -3.32790444077E-02
 STRESS| Determinant                                           6.67611264370E-05

 STRESS| Eigenvectors and eigenvalues of the analytical stress tensor [GPa]
 STRESS|                        1                   2                   3
 STRESS| Eigenvalues  -9.95395455381E-02  -2.60470885719E-02   2.57495008869E-02
 STRESS|      x           0.064371380603     -0.525621259807      0.848279798532
 STRESS|      y           0.788330211724     -0.494417325764     -0.366178897901
 STRESS|      z           0.611875643119      0.692296034383      0.382536793177

 Number of electrons:                                                         14
 Number of occupied orbitals:                                                  7
 Number of molecular orbitals:                                                 7

 Number of orbital functions:                                                 14
 Number of independent orbital functions:                                     14

 Extrapolation method: ASPC


 SCF WAVEFUNCTION OPTIMIZATION

  ----------------------------------- OT ---------------------------------------
  Minimizer      : CG                  : conjugate gradient
  Preconditioner : FULL_ALL            : diagonalization, state selective
  Precond_solver : DEFAULT
  Line search    : 2PNT                : 2 energies, one gradient
  stepsize       :    0.15000000                  energy_gap     :    0.08000000
  eps_taylor     :   0.10000E-15                  max_taylor     :             4
  ----------------------------------- OT ---------------------------------------

  Step     Update method      Time    Convergence         Total energy    Change
  ------------------------------------------------------------------------------
     1 OT CG       0.15E+00    0.3     0.01264561       -16.1043139699 -1.61E+01
     2 OT LS       0.22E+00    0.3                      -16.1058678697
     3 OT CG       0.22E+00    0.5     0.00125910       -16.1060455945 -1.73E-03
     4 OT LS       0.19E+00    0.3                      -16.1060603295
     5 OT CG       0.19E+00    0.5     0.00018188       -16.1060606201 -1.50E-05
     6 OT LS       0.17E+00    0.3                      -16.1060608940
     7 OT CG       0.17E+00    0.5     0.00003258       -16.1060608987 -2.79E-07

  *** SCF run converged in     7 steps ***


  Electronic density on regular grids:        -13.9999999998        0.0000000002
  Core density on regular grids:               13.9999999987       -0.0000000013
  Total charge density on r-space grids:       -0.0000000011
  Total charge density g-space grids:          -0.0000000011

  Overlap energy of the core charge distribution:               0.00000775259302
  Self energy of the core charge distribution:                -38.70122451907286
  Core Hamiltonian energy:                                     12.67974523839112
  Hartree energy:                                              15.53334823562628
  Exchange-correlation energy:                                 -5.61793760625231

  Total energy:                                               -16.10606089871474

  outer SCF iter =    1 RMS gradient =   0.33E-04 energy =        -16.1060608987
  outer SCF loop converged in   1 iterations or    7 steps


 ENERGY| Total FORCE_EVAL ( QS ) energy [a.u.]:              -16.106060909163716

 STRESS| Analytical stress tensor [GPa]
 STRESS|                        x                   y                   z
 STRESS|      x        1.09948100879E-02  -1.97751313327E-02   1.39005785403E-02
 STRESS|      y       -1.97751313327E-02  -6.47588646834E-02  -4.26998104068E-02
 STRESS|      z        1.39005785403E-02  -4.26998104068E-02  -4.58728983739E-02
 STRESS| 1/3 Trace                                            -3.32123176565E-02
 STRESS| Determinant                                           6.65425840541E-05

 STRESS| Eigenvectors and eigenvalues of the analytical stress tensor [GPa]
 STRESS|                        1                   2                   3
 STRESS| Eigenvalues  -9.94796075228E-02  -2.59420246041E-02   2.57846791574E-02
 STRESS|      x           0.064220220084     -0.525295918838      0.848492758357
 STRESS|      y           0.788622155550     -0.494300978057     -0.365707039674
 STRESS|      z           0.611515215761      0.692625974638      0.382515882217

 Number of electrons:                                                         14
 Number of occupied orbitals:                                                  7
 Number of molecular orbitals:                                                 7

 Number of orbital functions:                                                 14
 Number of independent orbital functions:                                     14

 Extrapolation method: ASPC


 SCF WAVEFUNCTION OPTIMIZATION

  ----------------------------------- OT ---------------------------------------
  Minimizer      : CG                  : conjugate gradient
  Preconditioner : FULL_ALL            : diagonalization, state selective
  Precond_solver : DEFAULT
  Line search    : 2PNT                : 2 energies, one gradient
  stepsize       :    0.15000000                  energy_gap     :    0.08000000
  eps_taylor     :   0.10000E-15                  max_taylor     :             4
  ----------------------------------- OT ---------------------------------------

  Step     Update method      Time    Convergence         Total energy    Change
  ------------------------------------------------------------------------------
     1 OT CG       0.15E+00    0.3     0.01225557       -16.1008100128 -1.61E+01
     2 OT LS       0.22E+00    0.3                      -16.1022667136
     3 OT CG       0.22E+00    0.5     0.00152403       -16.1024336899 -1.62E-03
     4 OT LS       0.18E+00    0.3                      -16.1024531901
     5 OT CG       0.18E+00    0.5     0.00027842       -16.1024542222 -2.05E-05
     6 OT LS       0.17E+00    0.3                      -16.1024548733
     7 OT CG       0.17E+00    0.5     0.00004131       -16.1024548748 -6.53E-07

  *** SCF run converged in     7 steps ***


  Electronic density on regular grids:        -13.9999999998        0.0000000002
  Core density on regular grids:               13.9999999987       -0.0000000013
  Total charge density on r-space grids:       -0.0000000011
  Total charge density g-space grids:          -0.0000000011

  Overlap energy of the core charge distribution:               0.00000732786350
  Self energy of the core charge distribution:                -38.70122451907286
  Core Hamiltonian energy:                                     12.67496530885106
  Hartree energy:                                              15.53994418988456
  Exchange-correlation energy:                                 -5.61614718231257

  Total energy:                                               -16.10245487478631

  outer SCF iter =    1 RMS gradient =   0.41E-04 energy =        -16.1024548748
  outer SCF loop converged in   1 iterations or    7 steps


 ENERGY| Total FORCE_EVAL ( QS ) energy [a.u.]:              -16.102454889795155

 STRESS| Analytical stress tensor [GPa]
 STRESS|                        x                   y                   z
 STRESS|      x       -1.94975009175E-01   3.97062789204E-04   2.08069470122E-01
 STRESS|      y        3.97062789204E-04   1.22901379515E-04   8.25014335350E-02
 STRESS|      z        2.08069470122E-01   8.25014335350E-02   8.87643400862E-02
 STRESS| 1/3 Trace                                            -3.53625892364E-02
 STRESS| Determinant                                           1.33326497263E-03

 STRESS| Eigenvectors and eigenvalues of the analytical stress tensor [GPa]
 STRESS|                        1                   2                   3
 STRESS| Eigenvalues  -3.09811506857E-01  -1.92963406993E-02   2.23020079847E-01
 STRESS|      x           0.868368773053     -0.258609088934      0.423151288675
 STRESS|      y           0.126527347279      0.940562218628      0.315172243830
 STRESS|      z          -0.479506521725     -0.220145524621      0.849475981775

 Number of electrons:                                                         14
 Number of occupied orbitals:                                                  7
 Number of molecular orbitals:                                                 7

 Number of orbital functions:                                                 14
 Number of independent orbital functions:                                     14

 Extrapolation method: ASPC


 SCF WAVEFUNCTION OPTIMIZATION

  ----------------------------------- OT ---------------------------------------
  Minimizer      : CG                  : conjugate gradient
  Preconditioner : FULL_ALL            : diagonalization, state selective
  Precond_solver : DEFAULT
  Line search    : 2PNT                : 2 energies, one gradient
  stepsize       :    0.15000000                  energy_gap     :    0.08000000
  eps_taylor     :   0.10000E-15                  max_taylor     :             4
  ----------------------------------- OT ---------------------------------------

  Step     Update method      Time    Convergence         Total energy    Change
  ------------------------------------------------------------------------------
     1 OT CG       0.15E+00    0.3     0.01222183       -16.1008057445 -1.61E+01
     2 OT LS       0.22E+00    0.3                      -16.1022625839
     3 OT CG       0.22E+00    0.5     0.00150099       -16.1024364259 -1.63E-03
     4 OT LS       0.19E+00    0.3                      -16.1024562757
     5 OT CG       0.19E+00    0.5     0.00028349       -16.1024570399 -2.06E-05
     6 OT LS       0.16E+00    0.3                      -16.1024576322
     7 OT CG       0.16E+00    0.5     0.00005083       -16.1024576556 -6.16E-07

  *** SCF run converged in     7 steps ***


  Electronic density on regular grids:        -13.9999999997        0.0000000003
  Core density on regular grids:               13.9999999987       -0.0000000013
  Total charge density on r-space grids:       -0.0000000011
  Total charge density g-space grids:          -0.0000000011

  Overlap energy of the core charge distribution:               0.00000732786350
  Self energy of the core charge distribution:                -38.70122451907286
  Core Hamiltonian energy:                                     12.67524474874337
  Hartree energy:                                              15.53972416654110
  Exchange-correlation energy:                                 -5.61620937971458

  Total energy:                                               -16.10245765563947

  outer SCF iter =    1 RMS gradient =   0.51E-04 energy =        -16.1024576556
  outer SCF loop converged in   1 iterations or    7 steps


 ENERGY| Total FORCE_EVAL ( QS ) energy [a.u.]:              -16.102457678979178

 STRESS| Analytical stress tensor [GPa]
 STRESS|                        x                   y                   z
 STRESS|      x       -1.95065914475E-01   3.94301171568E-04   2.08085734115E-01
 STRESS|      y        3.94301171568E-04   1.60413766790E-04   8.25149050753E-02
 STRESS|      z        2.08085734115E-01   8.25149050753E-02   8.87444608933E-02
 STRESS| 1/3 Trace                                            -3.53870132716E-02
 STRESS| Determinant                                           1.33195100972E-03

 STRESS| Eigenvectors and eigenvalues of the analytical stress tensor [GPa]
 STRESS|                        1                   2                   3
 STRESS| Eigenvalues  -3.09899812403E-01  -1.92725844615E-02   2.23011357049E-01
 STRESS|      x           0.868393589638     -0.258620064376      0.423093648945
 STRESS|      y           0.126494860989      0.940530631675      0.315279528395
 STRESS|      z          -0.479470148830     -0.220267549094      0.849464880497

 Number of electrons:                                                         14
 Number of occupied orbitals:                                                  7
 Number of molecular orbitals:                                                 7

 Number of orbital functions:                                                 14
 Number of independent orbital functions:                                     14

 Extrapolation method: ASPC


 SCF WAVEFUNCTION OPTIMIZATION

  ----------------------------------- OT ---------------------------------------
  Minimizer      : CG                  : conjugate gradient
  Preconditioner : FULL_ALL            : diagonalization, state selective
  Precond_solver : DEFAULT
  Line search    : 2PNT                : 2 energies, one gradient
  stepsize       :    0.15000000                  energy_gap     :    0.08000000
  eps_taylor     :   0.10000E-15                  max_taylor     :             4
  ----------------------------------- OT ---------------------------------------

  Step     Update method      Time    Convergence         Total energy    Change
  ------------------------------------------------------------------------------
     1 OT CG       0.15E+00    0.3     0.01268112       -16.0934713642 -1.61E+01
     2 OT LS       0.22E+00    0.3                      -16.0950365089
     3 OT CG       0.22E+00    0.5     0.00196111       -16.0952204711 -1.75E-03
     4 OT LS       0.16E+00    0.3                      -16.0952464697
     5 OT CG       0.16E+00    0.5     0.00043829       -16.0952508167 -3.03E-05
     6 OT LS       0.17E+00    0.3                      -16.0952523896
     7 OT CG       0.17E+00    0.5     0.00005833       -16.0952523919 -1.58E-06

  *** SCF run converged in     7 steps ***


  Electronic density on regular grids:        -13.9999999998        0.0000000002
  Core density on regular grids:               13.9999999987       -0.0000000013
  Total charge density on r-space grids:       -0.0000000011
  Total charge density g-space grids:          -0.0000000011

  Overlap energy of the core charge distribution:               0.00000743773285
  Self energy of the core charge distribution:                -38.70122451907286
  Core Hamiltonian energy:                                     12.66467740161919
  Hartree energy:                                              15.55292454169152
  Exchange-correlation energy:                                 -5.61163725387290

  Total energy:                                               -16.09525239190220

  outer SCF iter =    1 RMS gradient =   0.58E-04 energy =        -16.0952523919
  outer SCF loop converged in   1 iterations or    7 steps


 ENERGY| Total FORCE_EVAL ( QS ) energy [a.u.]:              -16.095252422397973

 STRESS| Analytical stress tensor [GPa]
 STRESS|                        x                   y                   z
 STRESS|      x       -3.12495818646E-01   1.87809212467E-02   2.95426498344E-01
 STRESS|      y        1.87809212467E-02   5.14444838504E-02   1.60999753451E-01
 STRESS|      z        2.95426498344E-01   1.60999753451E-01   1.23669920385E-01
 STRESS| 1/3 Trace                                            -4.57938048035E-02
 STRESS| Determinant                                           3.36508288248E-03

 STRESS| Eigenvectors and eigenvalues of the analytical stress tensor [GPa]
 STRESS|                        1                   2                   3
 STRESS| Eigenvalues  -4.67988505898E-01  -2.04807024437E-02   3.51087793931E-01
 STRESS|      x           0.876201875487     -0.305833732750      0.372472819553
 STRESS|      y           0.113498121399      0.882061120658      0.457259615386
 STRESS|      z          -0.468389207639     -0.358376767294      0.807575162342

 Number of electrons:                                                         14
 Number of occupied orbitals:                                                  7
 Number of molecular orbitals:                                                 7

 Number of orbital functions:                                                 14
 Number of independent orbital functions:                                     14

 Extrapolation method: ASPC


 SCF WAVEFUNCTION OPTIMIZATION

  ----------------------------------- OT ---------------------------------------
  Minimizer      : CG                  : conjugate gradient
  Preconditioner : FULL_ALL            : diagonalization, state selective
  Precond_solver : DEFAULT
  Line search    : 2PNT                : 2 energies, one gradient
  stepsize       :    0.15000000                  energy_gap     :    0.08000000
  eps_taylor     :   0.10000E-15                  max_taylor     :             4
  ----------------------------------- OT ---------------------------------------

  Step     Update method      Time    Convergence         Total energy    Change
  ------------------------------------------------------------------------------
     1 OT CG       0.15E+00    0.3     0.01321829       -16.0933367532 -1.61E+01
     2 OT LS       0.22E+00    0.3                      -16.0950316623
     3 OT CG       0.22E+00    0.5     0.00237646       -16.0952249740 -1.89E-03
     4 OT LS       0.15E+00    0.3                      -16.0952578399
     5 OT CG       0.15E+00    0.5     0.00048891       -16.0952667456 -4.18E-05
     6 OT LS       0.18E+00    0.3                      -16.0952687946
     7 OT CG       0.18E+00    0.5     0.00005689       -16.0952688480 -2.10E-06

  *** SCF run converged in     7 steps ***


  Electronic density on regular grids:        -13.9999999997        0.0000000003
  Core density on regular grids:               13.9999999987       -0.0000000013
  Total charge density on r-space grids:       -0.0000000010
  Total charge density g-space grids:          -0.0000000010

  Overlap energy of the core charge distribution:               0.00000743773285
  Self energy of the core charge distribution:                -38.70122451907286
  Core Hamiltonian energy:                                     12.66480620669066
  Hartree energy:                                              15.55283271078949
  Exchange-correlation energy:                                 -5.61169068418334

  Total energy:                                               -16.09526884804319

  outer SCF iter =    1 RMS gradient =   0.57E-04 energy =        -16.0952688480
  outer SCF loop converged in   1 iterations or    7 steps


 ENERGY| Total FORCE_EVAL ( QS ) energy [a.u.]:              -16.095268879226246

 STRESS| Analytical stress tensor [GPa]
 STRESS|                        x                   y                   z
 STRESS|      x       -3.12543555955E-01   1.87884204139E-02   2.95415083624E-01
 STRESS|      y        1.87884204139E-02   5.16456597371E-02   1.60997889785E-01
 STRESS|      z        2.95415083624E-01   1.60997889785E-01   1.23716391847E-01
 STRESS| 1/3 Trace                                            -4.57271681235E-02
 STRESS| Determinant                                           3.34066569653E-03

 STRESS| Eigenvectors and eigenvalues of the analytical stress tensor [GPa]
 STRESS|                        1                   2                   3
 STRESS| Eigenvalues  -4.68001315616E-01  -2.03280586629E-02   3.51147869908E-01
 STRESS|      x           0.876246876456     -0.305815755698      0.372381706141
 STRESS|      y           0.113415545998      0.881977694004      0.457440992048
 STRESS|      z          -0.468325021142     -0.358597365923      0.807514460382

 Number of electrons:                                                         14
 Number of occupied orbitals:                                                  7
 Number of molecular orbitals:                                                 7

 Number of orbital functions:                                                 14
 Number of independent orbital functions:                                     14

 Extrapolation method: ASPC


 SCF WAVEFUNCTION OPTIMIZATION

  ----------------------------------- OT ---------------------------------------
  Minimizer      : CG                  : conjugate gradient
  Preconditioner : FULL_ALL            : diagonalization, state selective
  Precond_solver : DEFAULT
  Line search    : 2PNT                : 2 energies, one gradient
  stepsize       :    0.15000000                  energy_gap     :    0.08000000
  eps_taylor     :   0.10000E-15                  max_taylor     :             4
  ----------------------------------- OT ---------------------------------------

  Step     Update method      Time    Convergence         Total energy    Change
  ------------------------------------------------------------------------------
     1 OT CG       0.15E+00    0.3     0.01369174       -16.0939005298 -1.61E+01
     2 OT LS       0.21E+00    0.3                      -16.0956721785
     3 OT CG       0.21E+00    0.5     0.00335448       -16.0958289382 -1.93E-03
     4 OT LS       0.15E+00    0.3                      -16.0958927687
     5 OT CG       0.15E+00    0.5     0.00053475       -16.0959087990 -7.99E-05
     6 OT LS       0.19E+00    0.3                      -16.0959113257
     7 OT CG       0.19E+00    0.5     0.00005872       -16.0959114847 -2.69E-06

  *** SCF run converged in     7 steps ***


  Electronic density on regular grids:        -13.9999999997        0.0000000003
  Core density on regular grids:               13.9999999987       -0.0000000013
  Total charge density on r-space grids:       -0.0000000010
  Total charge density g-space grids:          -0.0000000010

  Overlap energy of the core charge distribution:               0.00000769748406
  Self energy of the core charge distribution:                -38.70122451907286
  Core Hamiltonian energy:                                     12.63553782335311
  Hartree energy:                                              15.57241557836975
  Exchange-correlation energy:                                 -5.60264806483221

  Total energy:                                               -16.09591148469815

  outer SCF iter =    1 RMS gradient =   0.59E-04 energy =        -16.0959114847
  outer SCF loop converged in   1 iterations or    7 steps


 ENERGY| Total FORCE_EVAL ( QS ) energy [a.u.]:              -16.095911517094791

 STRESS| Analytical stress tensor [GPa]
 STRESS|                        x                   y                   z
 STRESS|      x       -3.34746996332E-01  -1.06643855943E-02   2.26248658665E-01
 STRESS|      y       -1.06643855943E-02   3.04620369229E-02   1.34935826148E-01
 STRESS|      z        2.26248658665E-01   1.34935826148E-01   5.82289437830E-03
 STRESS| 1/3 Trace                                            -9.94873550103E-02
 STRESS| Determinant                                           3.82447478213E-03

 STRESS| Eigenvectors and eigenvalues of the analytical stress tensor [GPa]
 STRESS|                        1                   2                   3
 STRESS| Eigenvalues  -4.58100099392E-01  -4.15054753313E-02   2.01143509693E-01
 STRESS|      x           0.871201438168     -0.382655405849      0.307543321351
 STRESS|      y           0.148273191305      0.802296044144      0.578218054276
 STRESS|      z          -0.467999054351     -0.458143970739      0.755699005691

 Number of electrons:                                                         14
 Number of occupied orbitals:                                                  7
 Number of molecular orbitals:                                                 7

 Number of orbital functions:                                                 14
 Number of independent orbital functions:                                     14

 Extrapolation method: ASPC


 SCF WAVEFUNCTION OPTIMIZATION

  ----------------------------------- OT ---------------------------------------
  Minimizer      : CG                  : conjugate gradient
  Preconditioner : FULL_ALL            : diagonalization, state selective
  Precond_solver : DEFAULT
  Line search    : 2PNT                : 2 energies, one gradient
  stepsize       :    0.15000000                  energy_gap     :    0.08000000
  eps_taylor     :   0.10000E-15                  max_taylor     :             4
  ----------------------------------- OT ---------------------------------------

  Step     Update method      Time    Convergence         Total energy    Change
  ------------------------------------------------------------------------------
     1 OT CG       0.15E+00    0.3     0.01446871       -16.0937348719 -1.61E+01
     2 OT LS       0.20E+00    0.3                      -16.0956525860
     3 OT CG       0.20E+00    0.5     0.00413228       -16.0957776100 -2.04E-03
     4 OT LS       0.15E+00    0.3                      -16.0958888884
     5 OT CG       0.15E+00    0.5     0.00057688       -16.0959027773 -1.25E-04
     6 OT LS       0.20E+00    0.3                      -16.0959057935
     7 OT CG       0.20E+00    0.5     0.00006265       -16.0959059760 -3.20E-06

  *** SCF run converged in     7 steps ***


  Electronic density on regular grids:        -13.9999999997        0.0000000003
  Core density on regular grids:               13.9999999987       -0.0000000013
  Total charge density on r-space grids:       -0.0000000011
  Total charge density g-space grids:          -0.0000000011

  Overlap energy of the core charge distribution:               0.00000769748406
  Self energy of the core charge distribution:                -38.70122451907286
  Core Hamiltonian energy:                                     12.63556308740825
  Hartree energy:                                              15.57240554204406
  Exchange-correlation energy:                                 -5.60265778381799

  Total energy:                                               -16.09590597595448

  outer SCF iter =    1 RMS gradient =   0.63E-04 energy =        -16.0959059760
  outer SCF loop converged in   1 iterations or    7 steps


 ENERGY| Total FORCE_EVAL ( QS ) energy [a.u.]:              -16.095906013235567

 STRESS| Analytical stress tensor [GPa]
 STRESS|                        x                   y                   z
 STRESS|      x       -3.34763210389E-01  -1.06882105545E-02   2.26223241812E-01
 STRESS|      y       -1.06882105545E-02   3.04232528464E-02   1.34902691953E-01
 STRESS|      z        2.26223241812E-01   1.34902691953E-01   5.73119251739E-03
 STRESS| 1/3 Trace                                            -9.95362550085E-02
 STRESS| Determinant                                           3.82390512398E-03

 STRESS| Eigenvectors and eigenvalues of the analytical stress tensor [GPa]
 STRESS|                        1                   2                   3
 STRESS| Eigenvalues  -4.58114174458E-01  -4.15219872175E-02   2.01027396650E-01
 STRESS|      x           0.871186884650     -0.382703055594      0.307525256286
 STRESS|      y           0.148296554457      0.802256110340      0.578267468702
 STRESS|      z          -0.468018743162     -0.458174098637      0.755668545983

 Number of electrons:                                                         14
 Number of occupied orbitals:                                                  7
 Number of molecular orbitals:                                                 7

 Number of orbital functions:                                                 14
 Number of independent orbital functions:                                     14

 Extrapolation method: ASPC


 SCF WAVEFUNCTION OPTIMIZATION

  ----------------------------------- OT ---------------------------------------
  Minimizer      : CG                  : conjugate gradient
  Preconditioner : FULL_ALL            : diagonalization, state selective
  Precond_solver : DEFAULT
  Line search    : 2PNT                : 2 energies, one gradient
  stepsize       :    0.15000000                  energy_gap     :    0.08000000
  eps_taylor     :   0.10000E-15                  max_taylor     :             4
  ----------------------------------- OT ---------------------------------------

  Step     Update method      Time    Convergence         Total energy    Change
  ------------------------------------------------------------------------------
     1 OT CG       0.15E+00    0.3     0.01501672       -16.0940335400 -1.61E+01
     2 OT LS       0.19E+00    0.3                      -16.0960606141
     3 OT CG       0.19E+00    0.5     0.00446287       -16.0961651476 -2.13E-03
     4 OT LS       0.15E+00    0.3                      -16.0963015436
     5 OT CG       0.15E+00    0.6     0.00064741       -16.0963126135 -1.47E-04
     6 OT LS       0.19E+00    0.3                      -16.0963164183
     7 OT CG       0.19E+00    0.6     0.00006987       -16.0963166167 -4.00E-06

  *** SCF run converged in     7 steps ***


  Electronic density on regular grids:        -13.9999999998        0.0000000002
  Core density on regular grids:               13.9999999987       -0.0000000013
  Total charge density on r-space grids:       -0.0000000011
  Total charge density g-space grids:          -0.0000000011

  Overlap energy of the core charge distribution:               0.00000796657397
  Self energy of the core charge distribution:                -38.70122451907286
  Core Hamiltonian energy:                                     12.60690984246112
  Hartree energy:                                              15.59188740110173
  Exchange-correlation energy:                                 -5.59389730774619

  Total energy:                                               -16.09631661668222

  outer SCF iter =    1 RMS gradient =   0.70E-04 energy =        -16.0963166167
  outer SCF loop converged in   1 iterations or    7 steps


 ENERGY| Total FORCE_EVAL ( QS ) energy [a.u.]:              -16.096316663506201

 STRESS| Analytical stress tensor [GPa]
 STRESS|                        x                   y                   z
 STRESS|      x       -2.88905715973E-01  -6.60278913557E-02   8.11594902922E-02
 STRESS|      y       -6.60278913557E-02  -4.18311208253E-02   4.61097155160E-02
 STRESS|      z        8.11594902922E-02   4.61097155160E-02  -1.27597806859E-01
 STRESS| 1/3 Trace                                            -1.52778214552E-01
 STRESS| Determinant                                          -5.90170038579E-04

 STRESS| Eigenvectors and eigenvalues of the analytical stress tensor [GPa]
 STRESS|                        1                   2                   3
 STRESS| Eigenvalues  -3.43285458899E-01  -9.73981067165E-02  -1.76510780419E-02
 STRESS|      x           0.886279995594      0.440460548496     -0.143186153761
 STRESS|      y           0.253419632088     -0.202412809465      0.945942675133
 STRESS|      z          -0.387667717875      0.874656252355      0.291015774030

 Number of electrons:                                                         14
 Number of occupied orbitals:                                                  7
 Number of molecular orbitals:                                                 7

 Number of orbital functions:                                                 14
 Number of independent orbital functions:                                     14

 Extrapolation method: ASPC


 SCF WAVEFUNCTION OPTIMIZATION

  ----------------------------------- OT ---------------------------------------
  Minimizer      : CG                  : conjugate gradient
  Preconditioner : FULL_ALL            : diagonalization, state selective
  Precond_solver : DEFAULT
  Line search    : 2PNT                : 2 energies, one gradient
  stepsize       :    0.15000000                  energy_gap     :    0.08000000
  eps_taylor     :   0.10000E-15                  max_taylor     :             4
  ----------------------------------- OT ---------------------------------------

  Step     Update method      Time    Convergence         Total energy    Change
  ------------------------------------------------------------------------------
     1 OT CG       0.15E+00    0.3     0.01556247       -16.0938698617 -1.61E+01
     2 OT LS       0.19E+00    0.3                      -16.0960334946
     3 OT CG       0.19E+00    0.6     0.00473851       -16.0961402945 -2.27E-03
     4 OT LS       0.15E+00    0.3                      -16.0962974337
     5 OT CG       0.15E+00    0.6     0.00070512       -16.0963083594 -1.68E-04
     6 OT LS       0.19E+00    0.3                      -16.0963128459
     7 OT CG       0.19E+00    0.6     0.00007810       -16.0963130501 -4.69E-06

  *** SCF run converged in     7 steps ***


  Electronic density on regular grids:        -13.9999999998        0.0000000002
  Core density on regular grids:               13.9999999987       -0.0000000013
  Total charge density on r-space grids:       -0.0000000011
  Total charge density g-space grids:          -0.0000000011

  Overlap energy of the core charge distribution:               0.00000796657397
  Self energy of the core charge distribution:                -38.70122451907286
  Core Hamiltonian energy:                                     12.60696804441105
  Hartree energy:                                              15.59184560348708
  Exchange-correlation energy:                                 -5.59391014552877

  Total energy:                                               -16.09631305012953

  outer SCF iter =    1 RMS gradient =   0.78E-04 energy =        -16.0963130501
  outer SCF loop converged in   1 iterations or    7 steps


 ENERGY| Total FORCE_EVAL ( QS ) energy [a.u.]:              -16.096313107996547

 STRESS| Analytical stress tensor [GPa]
 STRESS|                        x                   y                   z
 STRESS|      x       -2.88935517911E-01  -6.60547788317E-02   8.11343633721E-02
 STRESS|      y       -6.60547788317E-02  -4.19284772503E-02   4.60716017136E-02
 STRESS|      z        8.11343633721E-02   4.60716017136E-02  -1.27648647282E-01
 STRESS| 1/3 Trace                                            -1.52837547481E-01
 STRESS| Determinant                                          -5.93980473748E-04

 STRESS| Eigenvectors and eigenvalues of the analytical stress tensor [GPa]
 STRESS|                        1                   2                   3
 STRESS| Eigenvalues  -3.43310087842E-01  -9.74478554599E-02  -1.77546991412E-02
 STRESS|      x           0.886291327159      0.440348587932     -0.143460114699
 STRESS|      y           0.253501198327     -0.202026678197      0.946003363495
 STRESS|      z          -0.387588474867      0.874801887517      0.290683387463

 Number of electrons:                                                         14
 Number of occupied orbitals:                                                  7
 Number of molecular orbitals:                                                 7

 Number of orbital functions:                                                 14
 Number of independent orbital functions:                                     14

 Extrapolation method: ASPC


 SCF WAVEFUNCTION OPTIMIZATION

  ----------------------------------- OT ---------------------------------------
  Minimizer      : CG                  : conjugate gradient
  Preconditioner : FULL_ALL            : diagonalization, state selective
  Precond_solver : DEFAULT
  Line search    : 2PNT                : 2 energies, one gradient
  stepsize       :    0.15000000                  energy_gap     :    0.08000000
  eps_taylor     :   0.10000E-15                  max_taylor     :             4
  ----------------------------------- OT ---------------------------------------

  Step     Update method      Time    Convergence         Total energy    Change
  ------------------------------------------------------------------------------
     1 OT CG       0.15E+00    0.3     0.01438803       -16.0888251801 -1.61E+01
     2 OT LS       0.20E+00    0.4                      -16.0907297104
     3 OT CG       0.20E+00    0.7     0.00411625       -16.0908569673 -2.03E-03
     4 OT LS       0.15E+00    0.4                      -16.0909629896
     5 OT CG       0.15E+00    0.8     0.00065536       -16.0909788987 -1.22E-04
     6 OT LS       0.19E+00    0.5                      -16.0909827014
     7 OT CG       0.19E+00    0.8     0.00007227       -16.0909829083 -4.01E-06

  *** SCF run converged in     7 steps ***


  Electronic density on regular grids:        -13.9999999998        0.0000000002
  Core density on regular grids:               13.9999999987       -0.0000000013
  Total charge density on r-space grids:       -0.0000000011
  Total charge density g-space grids:          -0.0000000011

  Overlap energy of the core charge distribution:               0.00000793627336
  Self energy of the core charge distribution:                -38.70122451907286
  Core Hamiltonian energy:                                     12.60262752522621
  Hartree energy:                                              15.59958302991793
  Exchange-correlation energy:                                 -5.59197688061928

  Total energy:                                               -16.09098290827464

  outer SCF iter =    1 RMS gradient =   0.72E-04 energy =        -16.0909829083
  outer SCF loop converged in   1 iterations or    7 steps


 ENERGY| Total FORCE_EVAL ( QS ) energy [a.u.]:              -16.090982957758904

 STRESS| Analytical stress tensor [GPa]
 STRESS|                        x                   y                   z
 STRESS|      x       -1.92653725646E-01  -8.57193576441E-02  -2.81511565410E-02
 STRESS|      y       -8.57193576441E-02  -9.41766270862E-02  -2.95017223444E-02
 STRESS|      z       -2.81511565410E-02  -2.95017223444E-02  -1.78428324625E-01
 STRESS| 1/3 Trace                                            -1.55086225786E-01
 STRESS| Determinant                                          -1.82632413962E-03

 STRESS| Eigenvectors and eigenvalues of the analytical stress tensor [GPa]
 STRESS|                        1                   2                   3
 STRESS| Eigenvalues  -2.60969295343E-01  -1.60756158448E-01  -4.35332235665E-02
 STRESS|      x           0.769332635750     -0.417431912327     -0.483609237031
 STRESS|      y           0.471605732534     -0.139555988721      0.870696364443
 STRESS|      z           0.430947013694      0.897928017484     -0.089498306158

 Number of electrons:                                                         14
 Number of occupied orbitals:                                                  7
 Number of molecular orbitals:                                                 7

 Number of orbital functions:                                                 14
 Number of independent orbital functions:                                     14

 Extrapolation method: ASPC


 SCF WAVEFUNCTION OPTIMIZATION

  ----------------------------------- OT ---------------------------------------
  Minimizer      : CG                  : conjugate gradient
  Preconditioner : FULL_ALL            : diagonalization, state selective
  Precond_solver : DEFAULT
  Line search    : 2PNT                : 2 energies, one gradient
  stepsize       :    0.15000000                  energy_gap     :    0.08000000
  eps_taylor     :   0.10000E-15                  max_taylor     :             4
  ----------------------------------- OT ---------------------------------------

  Step     Update method      Time    Convergence         Total energy    Change
  ------------------------------------------------------------------------------
     1 OT CG       0.15E+00    0.3     0.01311221       -16.0891217925 -1.61E+01
     2 OT LS       0.21E+00    0.3                      -16.0907467907
     3 OT CG       0.21E+00    0.5     0.00343041       -16.0908922843 -1.77E-03
     4 OT LS       0.14E+00    0.3                      -16.0909564361
     5 OT CG       0.14E+00    0.5     0.00058216       -16.0909747408 -8.25E-05
     6 OT LS       0.19E+00    0.3                      -16.0909776839
     7 OT CG       0.19E+00    0.6     0.00006537       -16.0909778655 -3.12E-06

  *** SCF run converged in     7 steps ***


  Electronic density on regular grids:        -13.9999999998        0.0000000002
  Core density on regular grids:               13.9999999987       -0.0000000013
  Total charge density on r-space grids:       -0.0000000011
  Total charge density g-space grids:          -0.0000000011

  Overlap energy of the core charge distribution:               0.00000793627336
  Self energy of the core charge distribution:                -38.70122451907286
  Core Hamiltonian energy:                                     12.60272243748478
  Hartree energy:                                              15.59950770210429
  Exchange-correlation energy:                                 -5.59199142233674

  Total energy:                                               -16.09097786554717

  outer SCF iter =    1 RMS gradient =   0.65E-04 energy =        -16.0909778655
  outer SCF loop converged in   1 iterations or    7 steps


 ENERGY| Total FORCE_EVAL ( QS ) energy [a.u.]:              -16.090977906057365

 STRESS| Analytical stress tensor [GPa]
 STRESS|                        x                   y                   z
 STRESS|      x       -1.92683563165E-01  -8.57509982723E-02  -2.81995721924E-02
 STRESS|      y       -8.57509982723E-02  -9.43015681095E-02  -2.95762041327E-02
 STRESS|      z       -2.81995721924E-02  -2.95762041327E-02  -1.78493431207E-01
 STRESS| 1/3 Trace                                            -1.55159520827E-01
 STRESS| Determinant                                          -1.83028485701E-03

 STRESS| Eigenvectors and eigenvalues of the analytical stress tensor [GPa]
 STRESS|                        1                   2                   3
 STRESS| Eigenvalues  -2.61112216122E-01  -1.60764987467E-01  -4.36013588922E-02
 STRESS|      x           0.768986125968     -0.417878588864     -0.483774558071
 STRESS|      y           0.471789143836     -0.139668836434      0.870578899289
 STRESS|      z           0.431364511552      0.897702679676     -0.089747184220

 Number of electrons:                                                         14
 Number of occupied orbitals:                                                  7
 Number of molecular orbitals:                                                 7

 Number of orbital functions:                                                 14
 Number of independent orbital functions:                                     14

 Extrapolation method: ASPC


 SCF WAVEFUNCTION OPTIMIZATION

  ----------------------------------- OT ---------------------------------------
  Minimizer      : CG                  : conjugate gradient
  Preconditioner : FULL_ALL            : diagonalization, state selective
  Precond_solver : DEFAULT
  Line search    : 2PNT                : 2 energies, one gradient
  stepsize       :    0.15000000                  energy_gap     :    0.08000000
  eps_taylor     :   0.10000E-15                  max_taylor     :             4
  ----------------------------------- OT ---------------------------------------

  Step     Update method      Time    Convergence         Total energy    Change
  ------------------------------------------------------------------------------
     1 OT CG       0.15E+00    0.3     0.01173519       -16.0833719927 -1.61E+01
     2 OT LS       0.23E+00    0.3                      -16.0847306436
     3 OT CG       0.23E+00    0.6     0.00189641       -16.0849105243 -1.54E-03
     4 OT LS       0.15E+00    0.3                      -16.0849285507
     5 OT CG       0.15E+00    0.5     0.00043902       -16.0849364122 -2.59E-05
     6 OT LS       0.18E+00    0.3                      -16.0849380229
     7 OT CG       0.18E+00    0.5     0.00004836       -16.0849380652 -1.65E-06

  *** SCF run converged in     7 steps ***


  Electronic density on regular grids:        -13.9999999998        0.0000000002
  Core density on regular grids:               13.9999999987       -0.0000000013
  Total charge density on r-space grids:       -0.0000000011
  Total charge density g-space grids:          -0.0000000011

  Overlap energy of the core charge distribution:               0.00000901618878
  Self energy of the core charge distribution:                -38.70122451907286
  Core Hamiltonian energy:                                     12.62628506072615
  Hartree energy:                                              15.58982968564801
  Exchange-correlation energy:                                 -5.59983730870771

  Total energy:                                               -16.08493806521763

  outer SCF iter =    1 RMS gradient =   0.48E-04 energy =        -16.0849380652
  outer SCF loop converged in   1 iterations or    7 steps


 ENERGY| Total FORCE_EVAL ( QS ) energy [a.u.]:              -16.084938086789158

 STRESS| Analytical stress tensor [GPa]
 STRESS|                        x                   y                   z
 STRESS|      x       -4.51716850226E-02  -5.88277534069E-02  -6.99151842480E-02
 STRESS|      y       -5.88277534069E-02  -8.52751988067E-02  -3.30347449866E-02
 STRESS|      z       -6.99151842480E-02  -3.30347449866E-02  -1.65393026081E-01
 STRESS| 1/3 Trace                                            -9.86133033033E-02
 STRESS| Determinant                                           1.29669822667E-04

 STRESS| Eigenvectors and eigenvalues of the analytical stress tensor [GPa]
 STRESS|                        1                   2                   3
 STRESS| Eigenvalues  -2.20762547934E-01  -8.22211713835E-02   7.14380940733E-03
 STRESS|      x           0.450588948737      0.260053850273      0.854014984783
 STRESS|      y           0.391288014121      0.802315225213     -0.450759325357
 STRESS|      z           0.802410922957     -0.537272997972     -0.259758419247

 Number of electrons:                                                         14
 Number of occupied orbitals:                                                  7
 Number of molecular orbitals:                                                 7

 Number of orbital functions:                                                 14
 Number of independent orbital functions:                                     14

 Extrapolation method: ASPC


 SCF WAVEFUNCTION OPTIMIZATION

  ----------------------------------- OT ---------------------------------------
  Minimizer      : CG                  : conjugate gradient
  Preconditioner : FULL_ALL            : diagonalization, state selective
  Precond_solver : DEFAULT
  Line search    : 2PNT                : 2 energies, one gradient
  stepsize       :    0.15000000                  energy_gap     :    0.08000000
  eps_taylor     :   0.10000E-15                  max_taylor     :             4
  ----------------------------------- OT ---------------------------------------

  Step     Update method      Time    Convergence         Total energy    Change
  ------------------------------------------------------------------------------
     1 OT CG       0.15E+00    0.3     0.01145303       -16.0834117875 -1.61E+01
     2 OT LS       0.23E+00    0.3                      -16.0847239250
     3 OT CG       0.23E+00    0.5     0.00116557       -16.0849205922 -1.51E-03
     4 OT LS       0.18E+00    0.3                      -16.0849318165
     5 OT CG       0.18E+00    0.6     0.00022453       -16.0849327847 -1.22E-05
     6 OT LS       0.16E+00    0.3                      -16.0849331848
     7 OT CG       0.16E+00    0.5     0.00003450       -16.0849331902 -4.05E-07

  *** SCF run converged in     7 steps ***


  Electronic density on regular grids:        -13.9999999998        0.0000000002
  Core density on regular grids:               13.9999999987       -0.0000000013
  Total charge density on r-space grids:       -0.0000000011
  Total charge density g-space grids:          -0.0000000011

  Overlap energy of the core charge distribution:               0.00000901618878
  Self energy of the core charge distribution:                -38.70122451907286
  Core Hamiltonian energy:                                     12.62646085581661
  Hartree energy:                                              15.58968322840012
  Exchange-correlation energy:                                 -5.59986177152388

  Total energy:                                               -16.08493319019123

  outer SCF iter =    1 RMS gradient =   0.34E-04 energy =        -16.0849331902
  outer SCF loop converged in   1 iterations or    7 steps


 ENERGY| Total FORCE_EVAL ( QS ) energy [a.u.]:              -16.084933199638385

 STRESS| Analytical stress tensor [GPa]
 STRESS|                        x                   y                   z
 STRESS|      x       -4.52420430257E-02  -5.88275539775E-02  -6.99422498563E-02
 STRESS|      y       -5.88275539775E-02  -8.53418412121E-02  -3.30750630733E-02
 STRESS|      z       -6.99422498563E-02  -3.30750630733E-02  -1.65460581829E-01
 STRESS| 1/3 Trace                                            -9.86814886889E-02
 STRESS| Determinant                                           1.28558024306E-04

 STRESS| Eigenvectors and eigenvalues of the analytical stress tensor [GPa]
 STRESS|                        1                   2                   3
 STRESS| Eigenvalues  -2.20875353643E-01  -8.22459227260E-02   7.07681030278E-03
 STRESS|      x           0.450612116491      0.259884964100      0.854054170358
 STRESS|      y           0.391387781700      0.802329356944     -0.450647542234
 STRESS|      z           0.802349253634     -0.537333609986     -0.259823530059

 Number of electrons:                                                         14
 Number of occupied orbitals:                                                  7
 Number of molecular orbitals:                                                 7

 Number of orbital functions:                                                 14
 Number of independent orbital functions:                                     14

 Extrapolation method: ASPC


 SCF WAVEFUNCTION OPTIMIZATION

  ----------------------------------- OT ---------------------------------------
  Minimizer      : CG                  : conjugate gradient
  Preconditioner : FULL_ALL            : diagonalization, state selective
  Precond_solver : DEFAULT
  Line search    : 2PNT                : 2 energies, one gradient
  stepsize       :    0.15000000                  energy_gap     :    0.08000000
  eps_taylor     :   0.10000E-15                  max_taylor     :             4
  ----------------------------------- OT ---------------------------------------

  Step     Update method      Time    Convergence         Total energy    Change
  ------------------------------------------------------------------------------
     1 OT CG       0.15E+00    0.3     0.01137231       -16.0810801330 -1.61E+01
     2 OT LS       0.23E+00    0.3                      -16.0823538747
     3 OT CG       0.23E+00    0.5     0.00219695       -16.0825202347 -1.44E-03
     4 OT LS       0.14E+00    0.3                      -16.0825406535
     5 OT CG       0.14E+00    0.5     0.00035691       -16.0825534076 -3.32E-05
     6 OT LS       0.19E+00    0.3                      -16.0825544997
     7 OT CG       0.19E+00    0.5     0.00005722       -16.0825545708 -1.16E-06

  *** SCF run converged in     7 steps ***


  Electronic density on regular grids:        -13.9999999998        0.0000000002
  Core density on regular grids:               13.9999999987       -0.0000000013
  Total charge density on r-space grids:       -0.0000000011
  Total charge density g-space grids:          -0.0000000011

  Overlap energy of the core charge distribution:               0.00001124455794
  Self energy of the core charge distribution:                -38.70122451907286
  Core Hamiltonian energy:                                     12.67530346030236
  Hartree energy:                                              15.56149919423423
  Exchange-correlation energy:                                 -5.61814395081614

  Total energy:                                               -16.08255457079447

  outer SCF iter =    1 RMS gradient =   0.57E-04 energy =        -16.0825545708
  outer SCF loop converged in   1 iterations or    7 steps


 ENERGY| Total FORCE_EVAL ( QS ) energy [a.u.]:              -16.082554597822373

 STRESS| Analytical stress tensor [GPa]
 STRESS|                        x                   y                   z
 STRESS|      x        1.36490629069E-01   2.16130377556E-02  -6.40801823276E-02
 STRESS|      y        2.16130377556E-02  -2.26497489564E-02  -9.93847854952E-05
 STRESS|      z       -6.40801823276E-02  -9.93847854952E-05  -6.89548386611E-02
 STRESS| 1/3 Trace                                             1.49620138172E-02
 STRESS| Determinant                                           3.38662739379E-04

 STRESS| Eigenvectors and eigenvalues of the analytical stress tensor [GPa]
 STRESS|                        1                   2                   3
 STRESS| Eigenvalues  -8.78437097570E-02  -2.45173780139E-02   1.57247129223E-01
 STRESS|      x           0.281675606497     -0.084917864184      0.955744635898
 STRESS|      y          -0.091924825816      0.989106067347      0.114973970689
 STRESS|      z           0.955096162228      0.120242022105     -0.270800991536

 Number of electrons:                                                         14
 Number of occupied orbitals:                                                  7
 Number of molecular orbitals:                                                 7

 Number of orbital functions:                                                 14
 Number of independent orbital functions:                                     14

 Extrapolation method: ASPC


 SCF WAVEFUNCTION OPTIMIZATION

  ----------------------------------- OT ---------------------------------------
  Minimizer      : CG                  : conjugate gradient
  Preconditioner : FULL_ALL            : diagonalization, state selective
  Precond_solver : DEFAULT
  Line search    : 2PNT                : 2 energies, one gradient
  stepsize       :    0.15000000                  energy_gap     :    0.08000000
  eps_taylor     :   0.10000E-15                  max_taylor     :             4
  ----------------------------------- OT ---------------------------------------

  Step     Update method      Time    Convergence         Total energy    Change
  ------------------------------------------------------------------------------
     1 OT CG       0.15E+00    0.4     0.01196780       -16.0810033085 -1.61E+01
     2 OT LS       0.21E+00    0.4                      -16.0823617875
     3 OT CG       0.21E+00    0.7     0.00320269       -16.0824865798 -1.48E-03
     4 OT LS       0.15E+00    0.3                      -16.0825449430
     5 OT CG       0.15E+00    0.6     0.00042932       -16.0825597850 -7.32E-05
     6 OT LS       0.18E+00    0.4                      -16.0825613579
     7 OT CG       0.18E+00    0.6     0.00007024       -16.0825614200 -1.64E-06

  *** SCF run converged in     7 steps ***


  Electronic density on regular grids:        -13.9999999998        0.0000000002
  Core density on regular grids:               13.9999999987       -0.0000000013
  Total charge density on r-space grids:       -0.0000000011
  Total charge density g-space grids:          -0.0000000011

  Overlap energy of the core charge distribution:               0.00001124455794
  Self energy of the core charge distribution:                -38.70122451907286
  Core Hamiltonian energy:                                     12.67519359686275
  Hartree energy:                                              15.56156627826545
  Exchange-correlation energy:                                 -5.61810802061135

  Total energy:                                               -16.08256141999807

  outer SCF iter =    1 RMS gradient =   0.70E-04 energy =        -16.0825614200
  outer SCF loop converged in   1 iterations or    7 steps


 ENERGY| Total FORCE_EVAL ( QS ) energy [a.u.]:              -16.082561463097541

 STRESS| Analytical stress tensor [GPa]
 STRESS|                        x                   y                   z
 STRESS|      x        1.36460909853E-01   2.16718700502E-02  -6.40325842514E-02
 STRESS|      y        2.16718700502E-02  -2.24935211655E-02  -4.99537619887E-05
 STRESS|      z       -6.40325842514E-02  -4.99537619887E-05  -6.89624049705E-02
 STRESS| 1/3 Trace                                             1.50016612389E-02
 STRESS| Determinant                                           3.36434335016E-04

 STRESS| Eigenvectors and eigenvalues of the analytical stress tensor [GPa]
 STRESS|                        1                   2                   3
 STRESS| Eigenvalues  -8.78378047724E-02  -2.43639490744E-02   1.57206737564E-01
 STRESS|      x           0.281599243361     -0.085077865599      0.955752908928
 STRESS|      y          -0.092664173084      0.988994558411      0.115339128049
 STRESS|      z           0.955047232950      0.121043464167     -0.270616449273

 Number of electrons:                                                         14
 Number of occupied orbitals:                                                  7
 Number of molecular orbitals:                                                 7

 Number of orbital functions:                                                 14
 Number of independent orbital functions:                                     14

 Extrapolation method: ASPC


 SCF WAVEFUNCTION OPTIMIZATION

  ----------------------------------- OT ---------------------------------------
  Minimizer      : CG                  : conjugate gradient
  Preconditioner : FULL_ALL            : diagonalization, state selective
  Precond_solver : DEFAULT
  Line search    : 2PNT                : 2 energies, one gradient
  stepsize       :    0.15000000                  energy_gap     :    0.08000000
  eps_taylor     :   0.10000E-15                  max_taylor     :             4
  ----------------------------------- OT ---------------------------------------

  Step     Update method      Time    Convergence         Total energy    Change
  ------------------------------------------------------------------------------
     1 OT CG       0.15E+00    0.3     0.01211754       -16.0804631448 -1.61E+01
     2 OT LS       0.20E+00    0.3                      -16.0818202169
     3 OT CG       0.20E+00    0.6     0.00319657       -16.0819170475 -1.45E-03
     4 OT LS       0.15E+00    0.3                      -16.0819866579
     5 OT CG       0.15E+00    0.5     0.00049842       -16.0819941933 -7.71E-05
     6 OT LS       0.18E+00    0.3                      -16.0819963000
     7 OT CG       0.18E+00    0.5     0.00006950       -16.0819963332 -2.14E-06

  *** SCF run converged in     7 steps ***


  Electronic density on regular grids:        -13.9999999997        0.0000000003
  Core density on regular grids:               13.9999999987       -0.0000000013
  Total charge density on r-space grids:       -0.0000000011
  Total charge density g-space grids:          -0.0000000011

  Overlap energy of the core charge distribution:               0.00001595098251
  Self energy of the core charge distribution:                -38.70122451907286
  Core Hamiltonian energy:                                     12.71897702288026
  Hartree energy:                                              15.53522462329063
  Exchange-correlation energy:                                 -5.63498941130148

  Total energy:                                               -16.08199633322094

  outer SCF iter =    1 RMS gradient =   0.70E-04 energy =        -16.0819963332
  outer SCF loop converged in   1 iterations or    7 steps


 ENERGY| Total FORCE_EVAL ( QS ) energy [a.u.]:              -16.081996377462712

 STRESS| Analytical stress tensor [GPa]
 STRESS|                        x                   y                   z
 STRESS|      x        2.06540675854E-01   1.16122358358E-01  -2.65296927122E-02
 STRESS|      y        1.16122358358E-01   6.53116597671E-02   4.17025188173E-02
 STRESS|      z       -2.65296927122E-02   4.17025188173E-02   8.88372187673E-02
 STRESS| 1/3 Trace                                             1.20229851463E-01
 STRESS| Determinant                                          -6.61653806224E-04

 STRESS| Eigenvectors and eigenvalues of the analytical stress tensor [GPa]
 STRESS|                        1                   2                   3
 STRESS| Eigenvalues  -2.19679821502E-02   1.10782566277E-01   2.71874970261E-01
 STRESS|      x          -0.450934910663     -0.186174160309      0.872924331416
 STRESS|      y           0.794390472204      0.362185957831      0.487611638112
 STRESS|      z          -0.406941622370      0.913323882302     -0.015427313418

 Number of electrons:                                                         14
 Number of occupied orbitals:                                                  7
 Number of molecular orbitals:                                                 7

 Number of orbital functions:                                                 14
 Number of independent orbital functions:                                     14

 Extrapolation method: ASPC


 SCF WAVEFUNCTION OPTIMIZATION

  ----------------------------------- OT ---------------------------------------
  Minimizer      : CG                  : conjugate gradient
  Preconditioner : FULL_ALL            : diagonalization, state selective
  Precond_solver : DEFAULT
  Line search    : 2PNT                : 2 energies, one gradient
  stepsize       :    0.15000000                  energy_gap     :    0.08000000
  eps_taylor     :   0.10000E-15                  max_taylor     :             4
  ----------------------------------- OT ---------------------------------------

  Step     Update method      Time    Convergence         Total energy    Change
  ------------------------------------------------------------------------------
     1 OT CG       0.15E+00    0.3     0.01242817       -16.0804218567 -1.61E+01
     2 OT LS       0.20E+00    0.3                      -16.0818341631
     3 OT CG       0.20E+00    0.6     0.00307451       -16.0819228519 -1.50E-03
     4 OT LS       0.16E+00    0.4                      -16.0819912034
     5 OT CG       0.16E+00    0.6     0.00054818       -16.0819959590 -7.31E-05
     6 OT LS       0.17E+00    0.3                      -16.0819984718
     7 OT CG       0.17E+00    0.5     0.00007148       -16.0819984877 -2.53E-06

  *** SCF run converged in     7 steps ***


  Electronic density on regular grids:        -13.9999999998        0.0000000002
  Core density on regular grids:               13.9999999987       -0.0000000013
  Total charge density on r-space grids:       -0.0000000011
  Total charge density g-space grids:          -0.0000000011

  Overlap energy of the core charge distribution:               0.00001595098251
  Self energy of the core charge distribution:                -38.70122451907286
  Core Hamiltonian energy:                                     12.71887049417264
  Hartree energy:                                              15.53529230937786
  Exchange-correlation energy:                                 -5.63495272319456

  Total energy:                                               -16.08199848773441

  outer SCF iter =    1 RMS gradient =   0.71E-04 energy =        -16.0819984877
  outer SCF loop converged in   1 iterations or    7 steps


 ENERGY| Total FORCE_EVAL ( QS ) energy [a.u.]:              -16.081998533907402

 STRESS| Analytical stress tensor [GPa]
 STRESS|                        x                   y                   z
 STRESS|      x        2.06519183110E-01   1.16191262324E-01  -2.64879266181E-02
 STRESS|      y        1.16191262324E-01   6.54009934992E-02   4.17389705378E-02
 STRESS|      z       -2.64879266181E-02   4.17389705378E-02   8.88186271022E-02
 STRESS| 1/3 Trace                                             1.20246267904E-01
 STRESS| Determinant                                          -6.62042608508E-04

 STRESS| Eigenvectors and eigenvalues of the analytical stress tensor [GPa]
 STRESS|                        1                   2                   3
 STRESS| Eigenvalues  -2.19766728063E-02   1.10778609294E-01   2.71936867224E-01
 STRESS|      x          -0.451070343770     -0.186687539512      0.872744697814
 STRESS|      y           0.794257252456      0.362028164753      0.487945719161
 STRESS|      z          -0.407051546973      0.913281649064     -0.015022236529

 Number of electrons:                                                         14
 Number of occupied orbitals:                                                  7
 Number of molecular orbitals:                                                 7

 Number of orbital functions:                                                 14
 Number of independent orbital functions:                                     14

 Extrapolation method: ASPC


 SCF WAVEFUNCTION OPTIMIZATION

  ----------------------------------- OT ---------------------------------------
  Minimizer      : CG                  : conjugate gradient
  Preconditioner : FULL_ALL            : diagonalization, state selective
  Precond_solver : DEFAULT
  Line search    : 2PNT                : 2 energies, one gradient
  stepsize       :    0.15000000                  energy_gap     :    0.08000000
  eps_taylor     :   0.10000E-15                  max_taylor     :             4
  ----------------------------------- OT ---------------------------------------

  Step     Update method      Time    Convergence         Total energy    Change
  ------------------------------------------------------------------------------
     1 OT CG       0.15E+00    0.3     0.01313760       -16.0789106589 -1.61E+01
     2 OT LS       0.20E+00    0.3                      -16.0805167862
     3 OT CG       0.20E+00    0.5     0.00257851       -16.0806402159 -1.73E-03
     4 OT LS       0.17E+00    0.3                      -16.0806920201
     5 OT CG       0.17E+00    0.5     0.00054679       -16.0806947375 -5.45E-05
     6 OT LS       0.16E+00    0.3                      -16.0806970686
     7 OT CG       0.16E+00    0.6     0.00007515       -16.0806970739 -2.34E-06

  *** SCF run converged in     7 steps ***


  Electronic density on regular grids:        -13.9999999998        0.0000000002
  Core density on regular grids:               13.9999999987       -0.0000000013
  Total charge density on r-space grids:       -0.0000000011
  Total charge density g-space grids:          -0.0000000011

  Overlap energy of the core charge distribution:               0.00002340898590
  Self energy of the core charge distribution:                -38.70122451907286
  Core Hamiltonian energy:                                     12.74076138885157
  Hartree energy:                                              15.52361007854150
  Exchange-correlation energy:                                 -5.64386743124751

  Total energy:                                               -16.08069707394139

  outer SCF iter =    1 RMS gradient =   0.75E-04 energy =        -16.0806970739
  outer SCF loop converged in   1 iterations or    7 steps


 ENERGY| Total FORCE_EVAL ( QS ) energy [a.u.]:              -16.080697125164875

 STRESS| Analytical stress tensor [GPa]
 STRESS|                        x                   y                   z
 STRESS|      x        1.53194791622E-01   1.84268967488E-01   2.71013601499E-02
 STRESS|      y        1.84268967488E-01   1.62681146356E-01   1.09400258261E-01
 STRESS|      z        2.71013601499E-02   1.09400258261E-01   2.37780912608E-01
 STRESS| 1/3 Trace                                             1.84552283529E-01
 STRESS| Determinant                                          -3.00821934131E-03

 STRESS| Eigenvectors and eigenvalues of the analytical stress tensor [GPa]
 STRESS|                        1                   2                   3
 STRESS| Eigenvalues  -3.92491166275E-02   1.90433572547E-01   4.02472394666E-01
 STRESS|      x           0.658341652362     -0.522235970553      0.542084734912
 STRESS|      y          -0.719887593331     -0.226460873990      0.656107708780
 STRESS|      z           0.219882063237      0.822183108323      0.525039821971

 Number of electrons:                                                         14
 Number of occupied orbitals:                                                  7
 Number of molecular orbitals:                                                 7

 Number of orbital functions:                                                 14
 Number of independent orbital functions:                                     14

 Extrapolation method: ASPC


 SCF WAVEFUNCTION OPTIMIZATION

  ----------------------------------- OT ---------------------------------------
  Minimizer      : CG                  : conjugate gradient
  Preconditioner : FULL_ALL            : diagonalization, state selective
  Precond_solver : DEFAULT
  Line search    : 2PNT                : 2 energies, one gradient
  stepsize       :    0.15000000                  energy_gap     :    0.08000000
  eps_taylor     :   0.10000E-15                  max_taylor     :             4
  ----------------------------------- OT ---------------------------------------

  Step     Update method      Time    Convergence         Total energy    Change
  ------------------------------------------------------------------------------
     1 OT CG       0.15E+00    0.3     0.01409289       -16.0786171745 -1.61E+01
     2 OT LS       0.21E+00    0.3                      -16.0804898848
     3 OT CG       0.21E+00    0.6     0.00229682       -16.0806515290 -2.03E-03
     4 OT LS       0.18E+00    0.3                      -16.0806983379
     5 OT CG       0.18E+00    0.5     0.00038778       -16.0806991800 -4.77E-05
     6 OT LS       0.16E+00    0.3                      -16.0807002967
     7 OT CG       0.16E+00    0.5     0.00007220       -16.0807003337 -1.15E-06

  *** SCF run converged in     7 steps ***


  Electronic density on regular grids:        -13.9999999997        0.0000000003
  Core density on regular grids:               13.9999999987       -0.0000000013
  Total charge density on r-space grids:       -0.0000000010
  Total charge density g-space grids:          -0.0000000010

  Overlap energy of the core charge distribution:               0.00002340898590
  Self energy of the core charge distribution:                -38.70122451907286
  Core Hamiltonian energy:                                     12.74047651133810
  Hartree energy:                                              15.52383107509991
  Exchange-correlation energy:                                 -5.64380681007907

  Total energy:                                               -16.08070033372801

  outer SCF iter =    1 RMS gradient =   0.72E-04 energy =        -16.0807003337
  outer SCF loop converged in   1 iterations or    7 steps


 ENERGY| Total FORCE_EVAL ( QS ) energy [a.u.]:              -16.080700377393569

 STRESS| Analytical stress tensor [GPa]
 STRESS|                        x                   y                   z
 STRESS|      x        1.53300457641E-01   1.84353511831E-01   2.71383307260E-02
 STRESS|      y        1.84353511831E-01   1.62745240422E-01   1.09434555305E-01
 STRESS|      z        2.71383307260E-02   1.09434555305E-01   2.37796039210E-01
 STRESS| 1/3 Trace                                             1.84613912424E-01
 STRESS| Determinant                                          -3.00979557952E-03

 STRESS| Eigenvectors and eigenvalues of the analytical stress tensor [GPa]
 STRESS|                        1                   2                   3
 STRESS| Eigenvalues  -3.92496645107E-02   1.90451368608E-01   4.02640033176E-01
 STRESS|      x           0.658291613534     -0.522133645994      0.542244047704
 STRESS|      y          -0.719930134410     -0.226269677839      0.656126995679
 STRESS|      z           0.219892594505      0.822300728816      0.524851177259

 Number of electrons:                                                         14
 Number of occupied orbitals:                                                  7
 Number of molecular orbitals:                                                 7

 Number of orbital functions:                                                 14
 Number of independent orbital functions:                                     14

 Extrapolation method: ASPC


 SCF WAVEFUNCTION OPTIMIZATION

  ----------------------------------- OT ---------------------------------------
  Minimizer      : CG                  : conjugate gradient
  Preconditioner : FULL_ALL            : diagonalization, state selective
  Precond_solver : DEFAULT
  Line search    : 2PNT                : 2 energies, one gradient
  stepsize       :    0.15000000                  energy_gap     :    0.08000000
  eps_taylor     :   0.10000E-15                  max_taylor     :             4
  ----------------------------------- OT ---------------------------------------

  Step     Update method      Time    Convergence         Total energy    Change
  ------------------------------------------------------------------------------
     1 OT CG       0.15E+00    0.3     0.01514988       -16.0799930730 -1.61E+01
     2 OT LS       0.21E+00    0.3                      -16.0821551113
     3 OT CG       0.21E+00    0.6     0.00232378       -16.0823417098 -2.35E-03
     4 OT LS       0.19E+00    0.3                      -16.0823912593
     5 OT CG       0.19E+00    0.5     0.00038302       -16.0823917951 -5.01E-05
     6 OT LS       0.15E+00    0.3                      -16.0823928083
     7 OT CG       0.15E+00    0.6     0.00008116       -16.0823928789 -1.08E-06

  *** SCF run converged in     7 steps ***


  Electronic density on regular grids:        -13.9999999998        0.0000000002
  Core density on regular grids:               13.9999999987       -0.0000000013
  Total charge density on r-space grids:       -0.0000000011
  Total charge density g-space grids:          -0.0000000011

  Overlap energy of the core charge distribution:               0.00002413160894
  Self energy of the core charge distribution:                -38.70122451907286
  Core Hamiltonian energy:                                     12.72033955646058
  Hartree energy:                                              15.53454849138888
  Exchange-correlation energy:                                 -5.63608053923886

  Total energy:                                               -16.08239287885332

  outer SCF iter =    1 RMS gradient =   0.81E-04 energy =        -16.0823928789
  outer SCF loop converged in   1 iterations or    7 steps


 ENERGY| Total FORCE_EVAL ( QS ) energy [a.u.]:              -16.082392935131679

 STRESS| Analytical stress tensor [GPa]
 STRESS|                        x                   y                   z
 STRESS|      x       -2.89267301562E-02   1.70518722995E-01   6.07933495356E-02
 STRESS|      y        1.70518722995E-01   1.71865726852E-01   1.18254978059E-01
 STRESS|      z        6.07933495356E-02   1.18254978059E-01   2.72177616927E-01
 STRESS| 1/3 Trace                                             1.38372204541E-01
 STRESS| Determinant                                          -7.04605446683E-03

 STRESS| Eigenvectors and eigenvalues of the analytical stress tensor [GPa]
 STRESS|                        1                   2                   3
 STRESS| Eigenvalues  -1.26508081626E-01   1.37985955063E-01   4.03638740187E-01
 STRESS|      x           0.865232951593      0.366497963877      0.342127435251
 STRESS|      y          -0.501092010754      0.609405282976      0.614436325293
 STRESS|      z           0.016695395660     -0.703067879763      0.710926733362

 Number of electrons:                                                         14
 Number of occupied orbitals:                                                  7
 Number of molecular orbitals:                                                 7

 Number of orbital functions:                                                 14
 Number of independent orbital functions:                                     14

 Extrapolation method: ASPC


 SCF WAVEFUNCTION OPTIMIZATION

  ----------------------------------- OT ---------------------------------------
  Minimizer      : CG                  : conjugate gradient
  Preconditioner : FULL_ALL            : diagonalization, state selective
  Precond_solver : DEFAULT
  Line search    : 2PNT                : 2 energies, one gradient
  stepsize       :    0.15000000                  energy_gap     :    0.08000000
  eps_taylor     :   0.10000E-15                  max_taylor     :             4
  ----------------------------------- OT ---------------------------------------

  Step     Update method      Time    Convergence         Total energy    Change
  ------------------------------------------------------------------------------
     1 OT CG       0.15E+00    0.3     0.01605164       -16.0797229380 -1.61E+01
     2 OT LS       0.21E+00    0.3                      -16.0821319891
     3 OT CG       0.21E+00    0.5     0.00281742       -16.0823246577 -2.60E-03
     4 OT LS       0.17E+00    0.3                      -16.0823857254
     5 OT CG       0.17E+00    0.6     0.00066127       -16.0823894000 -6.47E-05
     6 OT LS       0.16E+00    0.3                      -16.0823927558
     7 OT CG       0.16E+00    0.5     0.00008584       -16.0823927675 -3.37E-06

  *** SCF run converged in     7 steps ***


  Electronic density on regular grids:        -13.9999999997        0.0000000003
  Core density on regular grids:               13.9999999987       -0.0000000013
  Total charge density on r-space grids:       -0.0000000011
  Total charge density g-space grids:          -0.0000000011

  Overlap energy of the core charge distribution:               0.00002413160894
  Self energy of the core charge distribution:                -38.70122451907286
  Core Hamiltonian energy:                                     12.72072818043201
  Hartree energy:                                              15.53422529031901
  Exchange-correlation energy:                                 -5.63614585074204

  Total energy:                                               -16.08239276745494

  outer SCF iter =    1 RMS gradient =   0.86E-04 energy =        -16.0823927675
  outer SCF loop converged in   1 iterations or    7 steps


 ENERGY| Total FORCE_EVAL ( QS ) energy [a.u.]:              -16.082392835163702

 STRESS| Analytical stress tensor [GPa]
 STRESS|                        x                   y                   z
 STRESS|      x       -2.89969634490E-02   1.70542732711E-01   6.08129183516E-02
 STRESS|      y        1.70542732711E-01   1.71883499488E-01   1.18269858409E-01
 STRESS|      z        6.08129183516E-02   1.18269858409E-01   2.72020576008E-01
 STRESS| 1/3 Trace                                             1.38302370682E-01
 STRESS| Determinant                                          -7.04430601476E-03

 STRESS| Eigenvectors and eigenvalues of the analytical stress tensor [GPa]
 STRESS|                        1                   2                   3
 STRESS| Eigenvalues  -1.26576746880E-01   1.37893358299E-01   4.03590500628E-01
 STRESS|      x           0.865274244332      0.366307213174      0.342227274880
 STRESS|      y          -0.501022270068      0.609249128595      0.614648016512
 STRESS|      z           0.016648333009     -0.703302584157      0.710695650842

 Number of electrons:                                                         14
 Number of occupied orbitals:                                                  7
 Number of molecular orbitals:                                                 7

 Number of orbital functions:                                                 14
 Number of independent orbital functions:                                     14

 Extrapolation method: ASPC


 SCF WAVEFUNCTION OPTIMIZATION

  ----------------------------------- OT ---------------------------------------
  Minimizer      : CG                  : conjugate gradient
  Preconditioner : FULL_ALL            : diagonalization, state selective
  Precond_solver : DEFAULT
  Line search    : 2PNT                : 2 energies, one gradient
  stepsize       :    0.15000000                  energy_gap     :    0.08000000
  eps_taylor     :   0.10000E-15                  max_taylor     :             4
  ----------------------------------- OT ---------------------------------------

  Step     Update method      Time    Convergence         Total energy    Change
  ------------------------------------------------------------------------------
     1 OT CG       0.15E+00    0.3     0.01713709       -16.0856931806 -1.61E+01
     2 OT LS       0.20E+00    0.3                      -16.0883997573
     3 OT CG       0.20E+00    0.5     0.00337717       -16.0885851286 -2.89E-03
     4 OT LS       0.16E+00    0.3                      -16.0886677532
     5 OT CG       0.16E+00    0.5     0.00079276       -16.0886739270 -8.88E-05
     6 OT LS       0.16E+00    0.3                      -16.0886789568
     7 OT CG       0.16E+00    0.5     0.00009797       -16.0886789604 -5.03E-06

  *** SCF run converged in     7 steps ***


  Electronic density on regular grids:        -13.9999999997        0.0000000003
  Core density on regular grids:               13.9999999987       -0.0000000013
  Total charge density on r-space grids:       -0.0000000010
  Total charge density g-space grids:          -0.0000000010

  Overlap energy of the core charge distribution:               0.00001887453541
  Self energy of the core charge distribution:                -38.70122451907286
  Core Hamiltonian energy:                                     12.67474227356169
  Hartree energy:                                              15.55747051762337
  Exchange-correlation energy:                                 -5.61968610701984

  Total energy:                                               -16.08867896037223

  outer SCF iter =    1 RMS gradient =   0.98E-04 energy =        -16.0886789604
  outer SCF loop converged in   1 iterations or    7 steps


 ENERGY| Total FORCE_EVAL ( QS ) energy [a.u.]:              -16.088679050358735

 STRESS| Analytical stress tensor [GPa]
 STRESS|                        x                   y                   z
 STRESS|      x       -2.12817725981E-01   1.08812373477E-01   7.25850716123E-02
 STRESS|      y        1.08812373477E-01   1.21457418910E-01   9.03659419760E-02
 STRESS|      z        7.25850716123E-02   9.03659419760E-02   1.73274962619E-01
 STRESS| 1/3 Trace                                             2.73048851829E-02
 STRESS| Determinant                                          -4.00505144928E-03

 STRESS| Eigenvectors and eigenvalues of the analytical stress tensor [GPa]
 STRESS|                        1                   2                   3
 STRESS| Eigenvalues  -2.49992284878E-01   5.86228870970E-02   2.73284053330E-01
 STRESS|      x           0.960729796981      0.120497552348      0.249957190477
 STRESS|      y          -0.254577447252      0.741147398797      0.621201140217
 STRESS|      z          -0.110401904620     -0.660439908799      0.742718349256

 Number of electrons:                                                         14
 Number of occupied orbitals:                                                  7
 Number of molecular orbitals:                                                 7

 Number of orbital functions:                                                 14
 Number of independent orbital functions:                                     14

 Extrapolation method: ASPC


 SCF WAVEFUNCTION OPTIMIZATION

  ----------------------------------- OT ---------------------------------------
  Minimizer      : CG                  : conjugate gradient
  Preconditioner : FULL_ALL            : diagonalization, state selective
  Precond_solver : DEFAULT
  Line search    : 2PNT                : 2 energies, one gradient
  stepsize       :    0.15000000                  energy_gap     :    0.08000000
  eps_taylor     :   0.10000E-15                  max_taylor     :             4
  ----------------------------------- OT ---------------------------------------

  Step     Update method      Time    Convergence         Total energy    Change
  ------------------------------------------------------------------------------
     1 OT CG       0.15E+00    0.3     0.01812378       -16.0853804798 -1.61E+01
     2 OT LS       0.20E+00    0.3                      -16.0883738797
     3 OT CG       0.20E+00    0.6     0.00391255       -16.0885575089 -3.18E-03
     4 OT LS       0.16E+00    0.3                      -16.0886654018
     5 OT CG       0.16E+00    0.6     0.00088369       -16.0886740135 -1.17E-04
     6 OT LS       0.17E+00    0.3                      -16.0886804115
     7 OT CG       0.17E+00    0.6     0.00010385       -16.0886804503 -6.44E-06
     8 OT LS       0.20E+00    0.3                      -16.0886805520
     9 OT CG       0.20E+00    0.5     0.00001250       -16.0886805541 -1.04E-07

  *** SCF run converged in     9 steps ***


  Electronic density on regular grids:        -13.9999999997        0.0000000003
  Core density on regular grids:               13.9999999987       -0.0000000013
  Total charge density on r-space grids:       -0.0000000010
  Total charge density g-space grids:          -0.0000000010

  Overlap energy of the core charge distribution:               0.00001887453541
  Self energy of the core charge distribution:                -38.70122451907286
  Core Hamiltonian energy:                                     12.67485186866542
  Hartree energy:                                              15.55738420724677
  Exchange-correlation energy:                                 -5.61971098549236

  Total energy:                                               -16.08868055411762

  outer SCF iter =    1 RMS gradient =   0.13E-04 energy =        -16.0886805541
  outer SCF loop converged in   1 iterations or    9 steps


 ENERGY| Total FORCE_EVAL ( QS ) energy [a.u.]:              -16.088680555539746

 STRESS| Analytical stress tensor [GPa]
 STRESS|                        x                   y                   z
 STRESS|      x       -2.12770137330E-01   1.08843927881E-01   7.26004255556E-02
 STRESS|      y        1.08843927881E-01   1.21472052149E-01   9.03754890728E-02
 STRESS|      z        7.26004255556E-02   9.03754890728E-02   1.73203482604E-01
 STRESS| 1/3 Trace                                             2.73017991412E-02
 STRESS| Determinant                                          -4.00258767646E-03

 STRESS| Eigenvectors and eigenvalues of the analytical stress tensor [GPa]
 STRESS|                        1                   2                   3
 STRESS| Eigenvalues  -2.49966442268E-01   5.85942717473E-02   2.73277567945E-01
 STRESS|      x           0.960706877732      0.120468285745      0.250059367367
 STRESS|      y          -0.254648583355      0.740989840122      0.621359924546
 STRESS|      z          -0.110437285706     -0.660622016712      0.742551114039

 Number of electrons:                                                         14
 Number of occupied orbitals:                                                  7
 Number of molecular orbitals:                                                 7

 Number of orbital functions:                                                 14
 Number of independent orbital functions:                                     14

 Extrapolation method: ASPC


 SCF WAVEFUNCTION OPTIMIZATION

  ----------------------------------- OT ---------------------------------------
  Minimizer      : CG                  : conjugate gradient
  Preconditioner : FULL_ALL            : diagonalization, state selective
  Precond_solver : DEFAULT
  Line search    : 2PNT                : 2 energies, one gradient
  stepsize       :    0.15000000                  energy_gap     :    0.08000000
  eps_taylor     :   0.10000E-15                  max_taylor     :             4
  ----------------------------------- OT ---------------------------------------

  Step     Update method      Time    Convergence         Total energy    Change
  ------------------------------------------------------------------------------
     1 OT CG       0.15E+00    0.3     0.01720263       -16.0898146770 -1.61E+01
     2 OT LS       0.20E+00    0.3                      -16.0925095742
     3 OT CG       0.20E+00    0.6     0.00391803       -16.0926716653 -2.86E-03
     4 OT LS       0.15E+00    0.3                      -16.0927784263
     5 OT CG       0.15E+00    0.5     0.00087969       -16.0927874307 -1.16E-04
     6 OT LS       0.17E+00    0.3                      -16.0927937773
     7 OT CG       0.17E+00    0.5     0.00011164       -16.0927938245 -6.39E-06
     8 OT LS       0.19E+00    0.3                      -16.0927939389
     9 OT CG       0.19E+00    0.5     0.00001822       -16.0927939403 -1.16E-07

  *** SCF run converged in     9 steps ***


  Electronic density on regular grids:        -13.9999999998        0.0000000002
  Core density on regular grids:               13.9999999987       -0.0000000013
  Total charge density on r-space grids:       -0.0000000011
  Total charge density g-space grids:          -0.0000000011

  Overlap energy of the core charge distribution:               0.00001553995896
  Self energy of the core charge distribution:                -38.70122451907286
  Core Hamiltonian energy:                                     12.62673450777485
  Hartree energy:                                              15.58332041573697
  Exchange-correlation energy:                                 -5.60163988470533

  Total energy:                                               -16.09279394030740

  outer SCF iter =    1 RMS gradient =   0.18E-04 energy =        -16.0927939403
  outer SCF loop converged in   1 iterations or    9 steps


 ENERGY| Total FORCE_EVAL ( QS ) energy [a.u.]:              -16.092793943395463

 STRESS| Analytical stress tensor [GPa]
 STRESS|                        x                   y                   z
 STRESS|      x       -3.34941985470E-01   5.15792054815E-02   7.20417584917E-02
 STRESS|      y        5.15792054815E-02   6.89669135260E-02   5.18300107069E-02
 STRESS|      z        7.20417584917E-02   5.18300107069E-02  -1.30627626808E-02
 STRESS| 1/3 Trace                                            -9.30126115417E-02
 STRESS| Determinant                                           1.26351894334E-03

 STRESS| Eigenvectors and eigenvalues of the analytical stress tensor [GPa]
 STRESS|                        1                   2                   3
 STRESS| Eigenvalues  -3.54134734103E-01  -3.30050099065E-02   1.08101909385E-01
 STRESS|      x           0.976770556136      0.120026156245      0.177519020057
 STRESS|      y          -0.095581183134     -0.497409303099      0.862234435998
 STRESS|      z          -0.191790297188      0.859172687536      0.474382519594

 Number of electrons:                                                         14
 Number of occupied orbitals:                                                  7
 Number of molecular orbitals:                                                 7

 Number of orbital functions:                                                 14
 Number of independent orbital functions:                                     14

 Extrapolation method: ASPC


 SCF WAVEFUNCTION OPTIMIZATION

  ----------------------------------- OT ---------------------------------------
  Minimizer      : CG                  : conjugate gradient
  Preconditioner : FULL_ALL            : diagonalization, state selective
  Precond_solver : DEFAULT
  Line search    : 2PNT                : 2 energies, one gradient
  stepsize       :    0.15000000                  energy_gap     :    0.08000000
  eps_taylor     :   0.10000E-15                  max_taylor     :             4
  ----------------------------------- OT ---------------------------------------

  Step     Update method      Time    Convergence         Total energy    Change
  ------------------------------------------------------------------------------
     1 OT CG       0.15E+00    0.3     0.01605592       -16.0901807474 -1.61E+01
     2 OT LS       0.20E+00    0.3                      -16.0925318231
     3 OT CG       0.20E+00    0.5     0.00391468       -16.0926771167 -2.50E-03
     4 OT LS       0.15E+00    0.3                      -16.0927807631
     5 OT CG       0.15E+00    0.5     0.00083566       -16.0927911658 -1.14E-04
     6 OT LS       0.17E+00    0.3                      -16.0927969343
     7 OT CG       0.17E+00    0.5     0.00010455       -16.0927970062 -5.84E-06
     8 OT LS       0.19E+00    0.3                      -16.0927971071
     9 OT CG       0.19E+00    0.5     0.00001688       -16.0927971082 -1.02E-07

  *** SCF run converged in     9 steps ***


  Electronic density on regular grids:        -13.9999999998        0.0000000002
  Core density on regular grids:               13.9999999987       -0.0000000013
  Total charge density on r-space grids:       -0.0000000011
  Total charge density g-space grids:          -0.0000000011

  Overlap energy of the core charge distribution:               0.00001553995896
  Self energy of the core charge distribution:                -38.70122451907286
  Core Hamiltonian energy:                                     12.62673466093356
  Hartree energy:                                              15.58331398847428
  Exchange-correlation energy:                                 -5.60163677845301

  Total energy:                                               -16.09279710815907

  outer SCF iter =    1 RMS gradient =   0.17E-04 energy =        -16.0927971082
  outer SCF loop converged in   1 iterations or    9 steps


 ENERGY| Total FORCE_EVAL ( QS ) energy [a.u.]:              -16.092797110816189

 STRESS| Analytical stress tensor [GPa]
 STRESS|                        x                   y                   z
 STRESS|      x       -3.34962508415E-01   5.15971108865E-02   7.20564860717E-02
 STRESS|      y        5.15971108865E-02   6.89979372785E-02   5.18288905904E-02
 STRESS|      z        7.20564860717E-02   5.18288905904E-02  -1.30580182122E-02
 STRESS| 1/3 Trace                                            -9.30075297830E-02
 STRESS| Determinant                                           1.26348798052E-03

 STRESS| Eigenvectors and eigenvalues of the analytical stress tensor [GPa]
 STRESS|                        1                   2                   3
 STRESS| Eigenvalues  -3.54162759566E-01  -3.29922711861E-02   1.08132441403E-01
 STRESS|      x           0.976764358285      0.120041723327      0.177542595017
 STRESS|      y          -0.095606614498     -0.497354619464      0.862263160388
 STRESS|      z          -0.191809185518      0.859202168967      0.474321482955

 Number of electrons:                                                         14
 Number of occupied orbitals:                                                  7
 Number of molecular orbitals:                                                 7

 Number of orbital functions:                                                 14
 Number of independent orbital functions:                                     14

 Extrapolation method: ASPC


 SCF WAVEFUNCTION OPTIMIZATION

  ----------------------------------- OT ---------------------------------------
  Minimizer      : CG                  : conjugate gradient
  Preconditioner : FULL_ALL            : diagonalization, state selective
  Precond_solver : DEFAULT
  Line search    : 2PNT                : 2 energies, one gradient
  stepsize       :    0.15000000                  energy_gap     :    0.08000000
  eps_taylor     :   0.10000E-15                  max_taylor     :             4
  ----------------------------------- OT ---------------------------------------

  Step     Update method      Time    Convergence         Total energy    Change
  ------------------------------------------------------------------------------
     1 OT CG       0.15E+00    0.3     0.01431596       -16.0907399340 -1.61E+01
     2 OT LS       0.21E+00    0.3                      -16.0926601819
     3 OT CG       0.21E+00    0.5     0.00318817       -16.0928165383 -2.08E-03
     4 OT LS       0.15E+00    0.3                      -16.0928849308
     5 OT CG       0.15E+00    0.5     0.00071522       -16.0928936173 -7.71E-05
     6 OT LS       0.16E+00    0.3                      -16.0928977117
     7 OT CG       0.16E+00    0.5     0.00010317       -16.0928977241 -4.11E-06
     8 OT LS       0.18E+00    0.3                      -16.0928978165
     9 OT CG       0.18E+00    0.5     0.00001637       -16.0928978171 -9.31E-08

  *** SCF run converged in     9 steps ***


  Electronic density on regular grids:        -13.9999999998        0.0000000002
  Core density on regular grids:               13.9999999987       -0.0000000013
  Total charge density on r-space grids:       -0.0000000011
  Total charge density g-space grids:          -0.0000000011

  Overlap energy of the core charge distribution:               0.00001325295931
  Self energy of the core charge distribution:                -38.70122451907286
  Core Hamiltonian energy:                                     12.59918422898949
  Hartree energy:                                              15.59825397136888
  Exchange-correlation energy:                                 -5.58912475137799

  Total energy:                                               -16.09289781713316

  outer SCF iter =    1 RMS gradient =   0.16E-04 energy =        -16.0928978171
  outer SCF loop converged in   1 iterations or    9 steps


 ENERGY| Total FORCE_EVAL ( QS ) energy [a.u.]:              -16.092897819523809

 STRESS| Analytical stress tensor [GPa]
 STRESS|                        x                   y                   z
 STRESS|      x       -3.54200635579E-01  -3.40407515548E-03   3.20480100973E-02
 STRESS|      y       -3.40407515548E-03   1.34691916725E-02  -5.55457416797E-03
 STRESS|      z        3.20480100973E-02  -5.55457416797E-03  -1.88863497597E-01
 STRESS| 1/3 Trace                                            -1.76531647168E-01
 STRESS| Determinant                                           9.01524091715E-04

 STRESS| Eigenvectors and eigenvalues of the analytical stress tensor [GPa]
 STRESS|                        1                   2                   3
 STRESS| Eigenvalues  -3.60209761410E-01  -1.83057269192E-01   1.36720890987E-02
 STRESS|      x           0.982972010534      0.183376114250     -0.011799458837
 STRESS|      y           0.006224631251      0.030946997860      0.999501644465
 STRESS|      z          -0.183649885576      0.982555588273     -0.029278584015

 Number of electrons:                                                         14
 Number of occupied orbitals:                                                  7
 Number of molecular orbitals:                                                 7

 Number of orbital functions:                                                 14
 Number of independent orbital functions:                                     14

 Extrapolation method: ASPC


 SCF WAVEFUNCTION OPTIMIZATION

  ----------------------------------- OT ---------------------------------------
  Minimizer      : CG                  : conjugate gradient
  Preconditioner : FULL_ALL            : diagonalization, state selective
  Precond_solver : DEFAULT
  Line search    : 2PNT                : 2 energies, one gradient
  stepsize       :    0.15000000                  energy_gap     :    0.08000000
  eps_taylor     :   0.10000E-15                  max_taylor     :             4
  ----------------------------------- OT ---------------------------------------

  Step     Update method      Time    Convergence         Total energy    Change
  ------------------------------------------------------------------------------
     1 OT CG       0.15E+00    0.3     0.01350301       -16.0909281117 -1.61E+01
     2 OT LS       0.22E+00    0.3                      -16.0926742553
     3 OT CG       0.22E+00    0.5     0.00253040       -16.0928510590 -1.92E-03
     4 OT LS       0.16E+00    0.3                      -16.0928971078
     5 OT CG       0.16E+00    0.5     0.00059015       -16.0929022939 -5.12E-05
     6 OT LS       0.16E+00    0.3                      -16.0929049467
     7 OT CG       0.16E+00    0.5     0.00009689       -16.0929049527 -2.66E-06

  *** SCF run converged in     7 steps ***


  Electronic density on regular grids:        -13.9999999997        0.0000000003
  Core density on regular grids:               13.9999999987       -0.0000000013
  Total charge density on r-space grids:       -0.0000000010
  Total charge density g-space grids:          -0.0000000010

  Overlap energy of the core charge distribution:               0.00001325295931
  Self energy of the core charge distribution:                -38.70122451907286
  Core Hamiltonian energy:                                     12.59933377927322
  Hartree energy:                                              15.59814524975586
  Exchange-correlation energy:                                 -5.58917271565756

  Total energy:                                               -16.09290495274202

  outer SCF iter =    1 RMS gradient =   0.97E-04 energy =        -16.0929049527
  outer SCF loop converged in   1 iterations or    7 steps


 ENERGY| Total FORCE_EVAL ( QS ) energy [a.u.]:              -16.092905030801511

 STRESS| Analytical stress tensor [GPa]
 STRESS|                        x                   y                   z
 STRESS|      x       -3.54233686550E-01  -3.37281074517E-03   3.20664816340E-02
 STRESS|      y       -3.37281074517E-03   1.36287706571E-02  -5.55548052047E-03
 STRESS|      z        3.20664816340E-02  -5.55548052047E-03  -1.88918868775E-01
 STRESS| 1/3 Trace                                            -1.76507928223E-01
 STRESS| Determinant                                           9.12326529018E-04

 STRESS| Eigenvectors and eigenvalues of the analytical stress tensor [GPa]
 STRESS|                        1                   2                   3
 STRESS| Eigenvalues  -3.60249847563E-01  -1.83104725751E-01   1.38307886470E-02
 STRESS|      x           0.982949940217      0.183500340299     -0.011706414409
 STRESS|      y           0.006136666185      0.030891339530      0.999503910183
 STRESS|      z          -0.183770934470      0.982534147118     -0.029238560011

 Number of electrons:                                                         14
 Number of occupied orbitals:                                                  7
 Number of molecular orbitals:                                                 7

 Number of orbital functions:                                                 14
 Number of independent orbital functions:                                     14

 Extrapolation method: ASPC


 SCF WAVEFUNCTION OPTIMIZATION

  ----------------------------------- OT ---------------------------------------
  Minimizer      : CG                  : conjugate gradient
  Preconditioner : FULL_ALL            : diagonalization, state selective
  Precond_solver : DEFAULT
  Line search    : 2PNT                : 2 energies, one gradient
  stepsize       :    0.15000000                  energy_gap     :    0.08000000
  eps_taylor     :   0.10000E-15                  max_taylor     :             4
  ----------------------------------- OT ---------------------------------------

  Step     Update method      Time    Convergence         Total energy    Change
  ------------------------------------------------------------------------------
     1 OT CG       0.15E+00    0.3     0.01334375       -16.0884077695 -1.61E+01
     2 OT LS       0.22E+00    0.3                      -16.0901247569
     3 OT CG       0.22E+00    0.6     0.00215083       -16.0903099143 -1.90E-03
     4 OT LS       0.18E+00    0.3                      -16.0903488230
     5 OT CG       0.18E+00    0.6     0.00042123       -16.0903506698 -4.08E-05
     6 OT LS       0.16E+00    0.3                      -16.0903520552
     7 OT CG       0.16E+00    0.6     0.00007631       -16.0903520733 -1.40E-06

  *** SCF run converged in     7 steps ***


  Electronic density on regular grids:        -13.9999999998        0.0000000002
  Core density on regular grids:               13.9999999987       -0.0000000013
  Total charge density on r-space grids:       -0.0000000011
  Total charge density g-space grids:          -0.0000000011

  Overlap energy of the core charge distribution:               0.00001200326199
  Self energy of the core charge distribution:                -38.70122451907286
  Core Hamiltonian energy:                                     12.60829113930068
  Hartree energy:                                              15.59173989612701
  Exchange-correlation energy:                                 -5.58917059294808

  Total energy:                                               -16.09035207333127

  outer SCF iter =    1 RMS gradient =   0.76E-04 energy =        -16.0903520733
  outer SCF loop converged in   1 iterations or    7 steps


 ENERGY| Total FORCE_EVAL ( QS ) energy [a.u.]:              -16.090352117056579

 STRESS| Analytical stress tensor [GPa]
 STRESS|                        x                   y                   z
 STRESS|      x       -2.31711152345E-01  -4.31296575275E-02  -5.53816907285E-02
 STRESS|      y       -4.31296575275E-02  -4.11485393549E-02  -6.88427751415E-02
 STRESS|      z       -5.53816907285E-02  -6.88427751415E-02  -2.69669773281E-01
 STRESS| 1/3 Trace                                            -1.80843154993E-01
 STRESS| Determinant                                          -1.17406761790E-03

 STRESS| Eigenvectors and eigenvalues of the analytical stress tensor [GPa]
 STRESS|                        1                   2                   3
 STRESS| Eigenvalues  -3.31864920534E-01  -1.92263854056E-01  -1.84006903901E-02
 STRESS|      x           0.552165391804      0.822919101070     -0.133856390167
 STRESS|      y           0.268805969382     -0.023738417289      0.962901780230
 STRESS|      z           0.789212728558     -0.567662435466     -0.234313099169

 Number of electrons:                                                         14
 Number of occupied orbitals:                                                  7
 Number of molecular orbitals:                                                 7

 Number of orbital functions:                                                 14
 Number of independent orbital functions:                                     14

 Extrapolation method: ASPC


 SCF WAVEFUNCTION OPTIMIZATION

  ----------------------------------- OT ---------------------------------------
  Minimizer      : CG                  : conjugate gradient
  Preconditioner : FULL_ALL            : diagonalization, state selective
  Precond_solver : DEFAULT
  Line search    : 2PNT                : 2 energies, one gradient
  stepsize       :    0.15000000                  energy_gap     :    0.08000000
  eps_taylor     :   0.10000E-15                  max_taylor     :             4
  ----------------------------------- OT ---------------------------------------

  Step     Update method      Time    Convergence         Total energy    Change
  ------------------------------------------------------------------------------
     1 OT CG       0.15E+00    0.3     0.01374227       -16.0883197022 -1.61E+01
     2 OT LS       0.21E+00    0.3                      -16.0901211954
     3 OT CG       0.21E+00    0.6     0.00262029       -16.0902958097 -1.98E-03
     4 OT LS       0.16E+00    0.3                      -16.0903425098
     5 OT CG       0.16E+00    0.6     0.00063939       -16.0903490040 -5.32E-05
     6 OT LS       0.17E+00    0.3                      -16.0903523359
     7 OT CG       0.17E+00    0.6     0.00008886       -16.0903523445 -3.34E-06

  *** SCF run converged in     7 steps ***


  Electronic density on regular grids:        -13.9999999997        0.0000000003
  Core density on regular grids:               13.9999999987       -0.0000000013
  Total charge density on r-space grids:       -0.0000000010
  Total charge density g-space grids:          -0.0000000010

  Overlap energy of the core charge distribution:               0.00001200326199
  Self energy of the core charge distribution:                -38.70122451907286
  Core Hamiltonian energy:                                     12.60783283056598
  Hartree energy:                                              15.59213108349561
  Exchange-correlation energy:                                 -5.58910374274127

  Total energy:                                               -16.09035234449056

  outer SCF iter =    1 RMS gradient =   0.89E-04 energy =        -16.0903523445
  outer SCF loop converged in   1 iterations or    7 steps


 ENERGY| Total FORCE_EVAL ( QS ) energy [a.u.]:              -16.090352408824458

 STRESS| Analytical stress tensor [GPa]
 STRESS|                        x                   y                   z
 STRESS|      x       -2.31527779995E-01  -4.30746679741E-02  -5.53996050222E-02
 STRESS|      y       -4.30746679741E-02  -4.11451777540E-02  -6.87657742579E-02
 STRESS|      z       -5.53996050222E-02  -6.87657742579E-02  -2.69471238324E-01
 STRESS| 1/3 Trace                                            -1.80714732024E-01
 STRESS| Determinant                                          -1.17414875602E-03

 STRESS| Eigenvectors and eigenvalues of the analytical stress tensor [GPa]
 STRESS|                        1                   2                   3
 STRESS| Eigenvalues  -3.31651735222E-01  -1.92059032667E-01  -1.84334281834E-02
 STRESS|      x           0.552259735944      0.822873979768     -0.133744523164
 STRESS|      y           0.268693817333     -0.023821417817      0.962931032099
 STRESS|      z           0.789184906458     -0.567724363996     -0.234256760721

 Number of electrons:                                                         14
 Number of occupied orbitals:                                                  7
 Number of molecular orbitals:                                                 7

 Number of orbital functions:                                                 14
 Number of independent orbital functions:                                     14

 Extrapolation method: ASPC


 SCF WAVEFUNCTION OPTIMIZATION

  ----------------------------------- OT ---------------------------------------
  Minimizer      : CG                  : conjugate gradient
  Preconditioner : FULL_ALL            : diagonalization, state selective
  Precond_solver : DEFAULT
  Line search    : 2PNT                : 2 energies, one gradient
  stepsize       :    0.15000000                  energy_gap     :    0.08000000
  eps_taylor     :   0.10000E-15                  max_taylor     :             4
  ----------------------------------- OT ---------------------------------------

  Step     Update method      Time    Convergence         Total energy    Change
  ------------------------------------------------------------------------------
     1 OT CG       0.15E+00    0.3     0.01494858       -16.0861891926 -1.61E+01
     2 OT LS       0.20E+00    0.3                      -16.0882537016
     3 OT CG       0.20E+00    0.6     0.00360541       -16.0884007395 -2.21E-03
     4 OT LS       0.15E+00    0.3                      -16.0884860906
     5 OT CG       0.15E+00    0.6     0.00072885       -16.0884970539 -9.63E-05
     6 OT LS       0.19E+00    0.4                      -16.0885017527
     7 OT CG       0.19E+00    0.6     0.00008527       -16.0885019400 -4.89E-06

  *** SCF run converged in     7 steps ***


  Electronic density on regular grids:        -13.9999999997        0.0000000003
  Core density on regular grids:               13.9999999987       -0.0000000013
  Total charge density on r-space grids:       -0.0000000010
  Total charge density g-space grids:          -0.0000000010

  Overlap energy of the core charge distribution:               0.00001030186793
  Self energy of the core charge distribution:                -38.70122451907286
  Core Hamiltonian energy:                                     12.64367357497110
  Hartree energy:                                              15.56748048272243
  Exchange-correlation energy:                                 -5.59844178047113

  Total energy:                                               -16.08850193998252

  outer SCF iter =    1 RMS gradient =   0.85E-04 energy =        -16.0885019400
  outer SCF loop converged in   1 iterations or    7 steps


 ENERGY| Total FORCE_EVAL ( QS ) energy [a.u.]:              -16.088501998515440

 STRESS| Analytical stress tensor [GPa]
 STRESS|                        x                   y                   z
 STRESS|      x       -7.69312687430E-02  -4.68770345467E-02  -1.28241539871E-01
 STRESS|      y       -4.68770345467E-02  -7.98240682125E-02  -1.16705458011E-01
 STRESS|      z       -1.28241539871E-01  -1.16705458011E-01  -2.48280634049E-01
 STRESS| 1/3 Trace                                            -1.35011990335E-01
 STRESS| Determinant                                          -2.16718580538E-05

 STRESS| Eigenvectors and eigenvalues of the analytical stress tensor [GPa]
 STRESS|                        1                   2                   3
 STRESS| Eigenvalues  -3.70670394522E-01  -3.25704962184E-02  -1.79508026375E-03
 STRESS|      x           0.419774870545      0.573902651387      0.703153471719
 STRESS|      y           0.395465029983     -0.812960556827      0.427437180300
 STRESS|      z           0.816943368979      0.098645221749     -0.568218841739

 Number of electrons:                                                         14
 Number of occupied orbitals:                                                  7
 Number of molecular orbitals:                                                 7

 Number of orbital functions:                                                 14
 Number of independent orbital functions:                                     14

 Extrapolation method: ASPC


 SCF WAVEFUNCTION OPTIMIZATION

  ----------------------------------- OT ---------------------------------------
  Minimizer      : CG                  : conjugate gradient
  Preconditioner : FULL_ALL            : diagonalization, state selective
  Precond_solver : DEFAULT
  Line search    : 2PNT                : 2 energies, one gradient
  stepsize       :    0.15000000                  energy_gap     :    0.08000000
  eps_taylor     :   0.10000E-15                  max_taylor     :             4
  ----------------------------------- OT ---------------------------------------

  Step     Update method      Time    Convergence         Total energy    Change
  ------------------------------------------------------------------------------
     1 OT CG       0.15E+00    0.3     0.01630197       -16.0858287544 -1.61E+01
     2 OT LS       0.19E+00    0.3                      -16.0882327319
     3 OT CG       0.19E+00    0.6     0.00404574       -16.0883663868 -2.54E-03
     4 OT LS       0.15E+00    0.3                      -16.0884804460
     5 OT CG       0.15E+00    0.6     0.00080414       -16.0884893364 -1.23E-04
     6 OT LS       0.19E+00    0.3                      -16.0884951695
     7 OT CG       0.19E+00    0.6     0.00007598       -16.0884954077 -6.07E-06

  *** SCF run converged in     7 steps ***


  Electronic density on regular grids:        -13.9999999997        0.0000000003
  Core density on regular grids:               13.9999999987       -0.0000000013
  Total charge density on r-space grids:       -0.0000000010
  Total charge density g-space grids:          -0.0000000010

  Overlap energy of the core charge distribution:               0.00001030186793
  Self energy of the core charge distribution:                -38.70122451907286
  Core Hamiltonian energy:                                     12.64348069359114
  Hartree energy:                                              15.56765940171207
  Exchange-correlation energy:                                 -5.59842128584532

  Total energy:                                               -16.08849540774705

  outer SCF iter =    1 RMS gradient =   0.76E-04 energy =        -16.0884954077
  outer SCF loop converged in   1 iterations or    7 steps


 ENERGY| Total FORCE_EVAL ( QS ) energy [a.u.]:              -16.088495454988006

 STRESS| Analytical stress tensor [GPa]
 STRESS|                        x                   y                   z
 STRESS|      x       -7.68783131008E-02  -4.68465005821E-02  -1.28273596337E-01
 STRESS|      y       -4.68465005821E-02  -7.98848291500E-02  -1.16646112751E-01
 STRESS|      z       -1.28273596337E-01  -1.16646112751E-01  -2.48123030441E-01
 STRESS| 1/3 Trace                                            -1.34962057564E-01
 STRESS| Determinant                                          -2.07236533694E-05

 STRESS| Eigenvectors and eigenvalues of the analytical stress tensor [GPa]
 STRESS|                        1                   2                   3
 STRESS| Eigenvalues  -3.70538894012E-01  -3.26334411587E-02  -1.71383752092E-03
 STRESS|      x           0.419904217677      0.572480608763      0.704234620398
 STRESS|      y           0.395502592068     -0.813827587681      0.425749171693
 STRESS|      z           0.816858707271      0.099752744925     -0.568147201204

 Number of electrons:                                                         14
 Number of occupied orbitals:                                                  7
 Number of molecular orbitals:                                                 7

 Number of orbital functions:                                                 14
 Number of independent orbital functions:                                     14

 Extrapolation method: ASPC


 SCF WAVEFUNCTION OPTIMIZATION

  ----------------------------------- OT ---------------------------------------
  Minimizer      : CG                  : conjugate gradient
  Preconditioner : FULL_ALL            : diagonalization, state selective
  Precond_solver : DEFAULT
  Line search    : 2PNT                : 2 energies, one gradient
  stepsize       :    0.15000000                  energy_gap     :    0.08000000
  eps_taylor     :   0.10000E-15                  max_taylor     :             4
  ----------------------------------- OT ---------------------------------------

  Step     Update method      Time    Convergence         Total energy    Change
  ------------------------------------------------------------------------------
     1 OT CG       0.15E+00    0.3     0.01693853       -16.0887951742 -1.61E+01
     2 OT LS       0.19E+00    0.3                      -16.0913610388
     3 OT CG       0.19E+00    0.6     0.00434500       -16.0914887756 -2.69E-03
     4 OT LS       0.16E+00    0.3                      -16.0916259365
     5 OT CG       0.16E+00    0.5     0.00078861       -16.0916334190 -1.45E-04
     6 OT LS       0.20E+00    0.3                      -16.0916392029
     7 OT CG       0.20E+00    0.6     0.00006447       -16.0916394870 -6.07E-06

  *** SCF run converged in     7 steps ***


  Electronic density on regular grids:        -13.9999999997        0.0000000003
  Core density on regular grids:               13.9999999987       -0.0000000013
  Total charge density on r-space grids:       -0.0000000010
  Total charge density g-space grids:          -0.0000000010

  Overlap energy of the core charge distribution:               0.00000745548837
  Self energy of the core charge distribution:                -38.70122451907286
  Core Hamiltonian energy:                                     12.68815839326758
  Hartree energy:                                              15.53451518853638
  Exchange-correlation energy:                                 -5.61309600519126

  Total energy:                                               -16.09163948697180

  outer SCF iter =    1 RMS gradient =   0.64E-04 energy =        -16.0916394870
  outer SCF loop converged in   1 iterations or    7 steps


 ENERGY| Total FORCE_EVAL ( QS ) energy [a.u.]:              -16.091639521144593

 STRESS| Analytical stress tensor [GPa]
 STRESS|                        x                   y                   z
 STRESS|      x        2.03186423442E-02   5.10799452063E-04  -1.05751911934E-01
 STRESS|      y        5.10799452063E-04  -7.81020100978E-02  -1.10838580744E-01
 STRESS|      z       -1.05751911934E-01  -1.10838580744E-01  -1.39430151698E-01
 STRESS| 1/3 Trace                                            -6.57378398172E-02
 STRESS| Determinant                                           8.57109227734E-04

 STRESS| Eigenvectors and eigenvalues of the analytical stress tensor [GPa]
 STRESS|                        1                   2                   3
 STRESS| Eigenvalues  -2.51287895974E-01  -3.73202130225E-02   9.13945895444E-02
 STRESS|      x           0.310892977025     -0.543019540892      0.780048290202
 STRESS|      y           0.511688905041      0.787254729450      0.344099484767
 STRESS|      z           0.800949449900     -0.292163942280     -0.522609040810

 Number of electrons:                                                         14
 Number of occupied orbitals:                                                  7
 Number of molecular orbitals:                                                 7

 Number of orbital functions:                                                 14
 Number of independent orbital functions:                                     14

 Extrapolation method: ASPC


 SCF WAVEFUNCTION OPTIMIZATION

  ----------------------------------- OT ---------------------------------------
  Minimizer      : CG                  : conjugate gradient
  Preconditioner : FULL_ALL            : diagonalization, state selective
  Precond_solver : DEFAULT
  Line search    : 2PNT                : 2 energies, one gradient
  stepsize       :    0.15000000                  energy_gap     :    0.08000000
  eps_taylor     :   0.10000E-15                  max_taylor     :             4
  ----------------------------------- OT ---------------------------------------

  Step     Update method      Time    Convergence         Total energy    Change
  ------------------------------------------------------------------------------
     1 OT CG       0.15E+00    0.3     0.01729488       -16.0886790003 -1.61E+01
     2 OT LS       0.19E+00    0.4                      -16.0913508136
     3 OT CG       0.19E+00    0.6     0.00433161       -16.0914788169 -2.80E-03
     4 OT LS       0.16E+00    0.3                      -16.0916191979
     5 OT CG       0.16E+00    0.6     0.00080899       -16.0916249848 -1.46E-04
     6 OT LS       0.19E+00    0.3                      -16.0916310198
     7 OT CG       0.19E+00    0.6     0.00005262       -16.0916312230 -6.24E-06

  *** SCF run converged in     7 steps ***


  Electronic density on regular grids:        -13.9999999998        0.0000000002
  Core density on regular grids:               13.9999999987       -0.0000000013
  Total charge density on r-space grids:       -0.0000000011
  Total charge density g-space grids:          -0.0000000011

  Overlap energy of the core charge distribution:               0.00000745548837
  Self energy of the core charge distribution:                -38.70122451907286
  Core Hamiltonian energy:                                     12.68805981100807
  Hartree energy:                                              15.53460939227786
  Exchange-correlation energy:                                 -5.61308336268289

  Total energy:                                               -16.09163122298145

  outer SCF iter =    1 RMS gradient =   0.53E-04 energy =        -16.0916312230
  outer SCF loop converged in   1 iterations or    7 steps


 ENERGY| Total FORCE_EVAL ( QS ) energy [a.u.]:              -16.091631247854746

 STRESS| Analytical stress tensor [GPa]
 STRESS|                        x                   y                   z
 STRESS|      x        2.02824664888E-02   5.11414260946E-04  -1.05748050410E-01
 STRESS|      y        5.11414260946E-04  -7.81074261754E-02  -1.10801679206E-01
 STRESS|      z       -1.05748050410E-01  -1.10801679206E-01  -1.39367731216E-01
 STRESS| 1/3 Trace                                            -6.57308969674E-02
 STRESS| Determinant                                           8.57248859298E-04

 STRESS| Eigenvectors and eigenvalues of the analytical stress tensor [GPa]
 STRESS|                        1                   2                   3
 STRESS| Eigenvalues  -2.51220404045E-01  -3.73451844488E-02   9.13728975919E-02
 STRESS|      x           0.310981897593     -0.543042376771      0.779996946404
 STRESS|      y           0.511704027355      0.787253447672      0.344079928966
 STRESS|      z           0.800905267655     -0.292124949567     -0.522698542262

 Number of electrons:                                                         14
 Number of occupied orbitals:                                                  7
 Number of molecular orbitals:                                                 7

 Number of orbital functions:                                                 14
 Number of independent orbital functions:                                     14

 Extrapolation method: ASPC


 SCF WAVEFUNCTION OPTIMIZATION

  ----------------------------------- OT ---------------------------------------
  Minimizer      : CG                  : conjugate gradient
  Preconditioner : FULL_ALL            : diagonalization, state selective
  Precond_solver : DEFAULT
  Line search    : 2PNT                : 2 energies, one gradient
  stepsize       :    0.15000000                  energy_gap     :    0.08000000
  eps_taylor     :   0.10000E-15                  max_taylor     :             4
  ----------------------------------- OT ---------------------------------------

  Step     Update method      Time    Convergence         Total energy    Change
  ------------------------------------------------------------------------------
     1 OT CG       0.15E+00    0.3     0.01731876       -16.0892757685 -1.61E+01
     2 OT LS       0.20E+00    0.3                      -16.0919996041
     3 OT CG       0.20E+00    0.6     0.00415192       -16.0921604959 -2.88E-03
     4 OT LS       0.16E+00    0.3                      -16.0922871640
     5 OT CG       0.16E+00    0.5     0.00082123       -16.0922946893 -1.34E-04
     6 OT LS       0.19E+00    0.3                      -16.0923009009
     7 OT CG       0.19E+00    0.6     0.00004931       -16.0923011202 -6.43E-06

  *** SCF run converged in     7 steps ***


  Electronic density on regular grids:        -13.9999999998        0.0000000002
  Core density on regular grids:               13.9999999987       -0.0000000013
  Total charge density on r-space grids:       -0.0000000011
  Total charge density g-space grids:          -0.0000000011

  Overlap energy of the core charge distribution:               0.00000660968152
  Self energy of the core charge distribution:                -38.70122451907286
  Core Hamiltonian energy:                                     12.73048133655752
  Hartree energy:                                              15.50517555022575
  Exchange-correlation energy:                                 -5.62674009763396

  Total energy:                                               -16.09230112024203

  outer SCF iter =    1 RMS gradient =   0.49E-04 energy =        -16.0923011202
  outer SCF loop converged in   1 iterations or    7 steps


 ENERGY| Total FORCE_EVAL ( QS ) energy [a.u.]:              -16.092301142136538

 STRESS| Analytical stress tensor [GPa]
 STRESS|                        x                   y                   z
 STRESS|      x        2.63513904582E-02   6.49899711533E-02  -2.06914157053E-03
 STRESS|      y        6.49899711533E-02  -1.94906780088E-02  -3.31058729539E-02
 STRESS|      z       -2.06914157053E-03  -3.31058729539E-02   1.41192834537E-02
 STRESS| 1/3 Trace                                             6.99333196768E-03
 STRESS| Determinant                                          -8.67812459127E-05

 STRESS| Eigenvectors and eigenvalues of the analytical stress tensor [GPa]
 STRESS|                        1                   2                   3
 STRESS| Eigenvalues  -7.33756823650E-02   1.48815410251E-02   7.94741372430E-02
 STRESS|      x          -0.517924865595      0.433196021392      0.737627982555
 STRESS|      y           0.804051563870     -0.047798155238      0.592635148295
 STRESS|      z           0.291984445196      0.900031412455     -0.323556085335

 Number of electrons:                                                         14
 Number of occupied orbitals:                                                  7
 Number of molecular orbitals:                                                 7

 Number of orbital functions:                                                 14
 Number of independent orbital functions:                                     14

 Extrapolation method: ASPC


 SCF WAVEFUNCTION OPTIMIZATION

  ----------------------------------- OT ---------------------------------------
  Minimizer      : CG                  : conjugate gradient
  Preconditioner : FULL_ALL            : diagonalization, state selective
  Precond_solver : DEFAULT
  Line search    : 2PNT                : 2 energies, one gradient
  stepsize       :    0.15000000                  energy_gap     :    0.08000000
  eps_taylor     :   0.10000E-15                  max_taylor     :             4
  ----------------------------------- OT ---------------------------------------

  Step     Update method      Time    Convergence         Total energy    Change
  ------------------------------------------------------------------------------
     1 OT CG       0.15E+00    0.3     0.01734867       -16.0892249390 -1.61E+01
     2 OT LS       0.20E+00    0.4                      -16.0919956504
     3 OT CG       0.20E+00    0.7     0.00378737       -16.0921831975 -2.96E-03
     4 OT LS       0.16E+00    0.4                      -16.0922914044
     5 OT CG       0.16E+00    0.7     0.00081961       -16.0922975436 -1.14E-04
     6 OT LS       0.18E+00    0.4                      -16.0923035095
     7 OT CG       0.18E+00    0.6     0.00004197       -16.0923035860 -6.04E-06

  *** SCF run converged in     7 steps ***


  Electronic density on regular grids:        -13.9999999998        0.0000000002
  Core density on regular grids:               13.9999999987       -0.0000000013
  Total charge density on r-space grids:       -0.0000000011
  Total charge density g-space grids:          -0.0000000011

  Overlap energy of the core charge distribution:               0.00000660968152
  Self energy of the core charge distribution:                -38.70122451907286
  Core Hamiltonian energy:                                     12.73045536394525
  Hartree energy:                                              15.50520277751543
  Exchange-correlation energy:                                 -5.62674381809235

  Total energy:                                               -16.09230358602301

  outer SCF iter =    1 RMS gradient =   0.42E-04 energy =        -16.0923035860
  outer SCF loop converged in   1 iterations or    7 steps


 ENERGY| Total FORCE_EVAL ( QS ) energy [a.u.]:              -16.092303602717955

 STRESS| Analytical stress tensor [GPa]
 STRESS|                        x                   y                   z
 STRESS|      x        2.63715590001E-02   6.50308917995E-02  -2.06140458342E-03
 STRESS|      y        6.50308917995E-02  -1.94469558133E-02  -3.30798214959E-02
 STRESS|      z       -2.06140458342E-03  -3.30798214959E-02   1.41409349366E-02
 STRESS| 1/3 Trace                                             7.02184604115E-03
 STRESS| Determinant                                          -8.69604419807E-05

 STRESS| Eigenvectors and eigenvalues of the analytical stress tensor [GPa]
 STRESS|                        1                   2                   3
 STRESS| Eigenvalues  -7.33643638904E-02   1.49050616249E-02   7.95248403889E-02
 STRESS|      x          -0.518188308699      0.432715932624      0.737724744319
 STRESS|      y           0.803977077037     -0.047760795594      0.592739205725
 STRESS|      z           0.291722018926      0.900264310110     -0.323144604808

 Number of electrons:                                                         14
 Number of occupied orbitals:                                                  7
 Number of molecular orbitals:                                                 7

 Number of orbital functions:                                                 14
 Number of independent orbital functions:                                     14

 Extrapolation method: ASPC


 SCF WAVEFUNCTION OPTIMIZATION

  ----------------------------------- OT ---------------------------------------
  Minimizer      : CG                  : conjugate gradient
  Preconditioner : FULL_ALL            : diagonalization, state selective
  Precond_solver : DEFAULT
  Line search    : 2PNT                : 2 energies, one gradient
  stepsize       :    0.15000000                  energy_gap     :    0.08000000
  eps_taylor     :   0.10000E-15                  max_taylor     :             4
  ----------------------------------- OT ---------------------------------------

  Step     Update method      Time    Convergence         Total energy    Change
  ------------------------------------------------------------------------------
     1 OT CG       0.15E+00    0.4     0.01679636       -16.0845451493 -1.61E+01
     2 OT LS       0.21E+00    0.4                      -16.0871780748
     3 OT CG       0.21E+00    0.7     0.00318330       -16.0873835536 -2.84E-03
     4 OT LS       0.17E+00    0.4                      -16.0874627331
     5 OT CG       0.17E+00    0.6     0.00081272       -16.0874668767 -8.33E-05
     6 OT LS       0.17E+00    0.4                      -16.0874725121
     7 OT CG       0.17E+00    0.6     0.00004199       -16.0874725197 -5.64E-06

  *** SCF run converged in     7 steps ***


  Electronic density on regular grids:        -13.9999999997        0.0000000003
  Core density on regular grids:               13.9999999987       -0.0000000013
  Total charge density on r-space grids:       -0.0000000011
  Total charge density g-space grids:          -0.0000000011

  Overlap energy of the core charge distribution:               0.00000883638828
  Self energy of the core charge distribution:                -38.70122451907286
  Core Hamiltonian energy:                                     12.75799720968810
  Hartree energy:                                              15.48942061949657
  Exchange-correlation energy:                                 -5.63367466622179

  Total energy:                                               -16.08747251972171

  outer SCF iter =    1 RMS gradient =   0.42E-04 energy =        -16.0874725197
  outer SCF loop converged in   1 iterations or    7 steps


 ENERGY| Total FORCE_EVAL ( QS ) energy [a.u.]:              -16.087472536040288

 STRESS| Analytical stress tensor [GPa]
 STRESS|                        x                   y                   z
 STRESS|      x       -1.38585011548E-02   1.02217103920E-01   1.19828896969E-01
 STRESS|      y        1.02217103920E-01   3.55617501897E-02   5.55838958995E-02
 STRESS|      z        1.19828896969E-01   5.55838958995E-02   1.44182617511E-01
 STRESS| 1/3 Trace                                             5.52952888487E-02
 STRESS| Determinant                                          -6.83693796432E-04

 STRESS| Eigenvectors and eigenvalues of the analytical stress tensor [GPa]
 STRESS|                        1                   2                   3
 STRESS| Eigenvalues  -1.12543467349E-01   2.38639300059E-02   2.54565403889E-01
 STRESS|      x           0.835220103132      0.231196982362      0.498954241059
 STRESS|      y          -0.468173091223      0.774925720826      0.424622283750
 STRESS|      z          -0.288481084265     -0.588250017041      0.755473746382

 Number of electrons:                                                         14
 Number of occupied orbitals:                                                  7
 Number of molecular orbitals:                                                 7

 Number of orbital functions:                                                 14
 Number of independent orbital functions:                                     14

 Extrapolation method: ASPC


 SCF WAVEFUNCTION OPTIMIZATION

  ----------------------------------- OT ---------------------------------------
  Minimizer      : CG                  : conjugate gradient
  Preconditioner : FULL_ALL            : diagonalization, state selective
  Precond_solver : DEFAULT
  Line search    : 2PNT                : 2 energies, one gradient
  stepsize       :    0.15000000                  energy_gap     :    0.08000000
  eps_taylor     :   0.10000E-15                  max_taylor     :             4
  ----------------------------------- OT ---------------------------------------

  Step     Update method      Time    Convergence         Total energy    Change
  ------------------------------------------------------------------------------
     1 OT CG       0.15E+00    0.3     0.01651864       -16.0846415572 -1.61E+01
     2 OT LS       0.21E+00    0.3                      -16.0872000689
     3 OT CG       0.21E+00    0.6     0.00265125       -16.0874117871 -2.77E-03
     4 OT LS       0.19E+00    0.3                      -16.0874760470
     5 OT CG       0.19E+00    0.6     0.00066583       -16.0874766953 -6.49E-05
     6 OT LS       0.15E+00    0.3                      -16.0874798617
     7 OT CG       0.15E+00    0.6     0.00003945       -16.0874800319 -3.34E-06

  *** SCF run converged in     7 steps ***


  Electronic density on regular grids:        -13.9999999997        0.0000000003
  Core density on regular grids:               13.9999999987       -0.0000000013
  Total charge density on r-space grids:       -0.0000000010
  Total charge density g-space grids:          -0.0000000010

  Overlap energy of the core charge distribution:               0.00000883638828
  Self energy of the core charge distribution:                -38.70122451907286
  Core Hamiltonian energy:                                     12.75799292431525
  Hartree energy:                                              15.48942224373253
  Exchange-correlation energy:                                 -5.63367951724893

  Total energy:                                               -16.08748003188573

  outer SCF iter =    1 RMS gradient =   0.39E-04 energy =        -16.0874800319
  outer SCF loop converged in   1 iterations or    7 steps


 ENERGY| Total FORCE_EVAL ( QS ) energy [a.u.]:              -16.087480045947068

 STRESS| Analytical stress tensor [GPa]
 STRESS|                        x                   y                   z
 STRESS|      x       -1.38936889044E-02   1.02202738793E-01   1.19818849530E-01
 STRESS|      y        1.02202738793E-01   3.56301193162E-02   5.55981752876E-02
 STRESS|      z        1.19818849530E-01   5.55981752876E-02   1.44260088677E-01
 STRESS| 1/3 Trace                                             5.53321730295E-02
 STRESS| Determinant                                          -6.85156284790E-04

 STRESS| Eigenvectors and eigenvalues of the analytical stress tensor [GPa]
 STRESS|                        1                   2                   3
 STRESS| Eigenvalues  -1.12526660275E-01   2.39144821881E-02   2.54608697175E-01
 STRESS|      x           0.835333325539      0.231112136102      0.498803985340
 STRESS|      y          -0.467992591232      0.775025047056      0.424639978085
 STRESS|      z          -0.288446129800     -0.588152494667      0.755563017372

 Number of electrons:                                                         14
 Number of occupied orbitals:                                                  7
 Number of molecular orbitals:                                                 7

 Number of orbital functions:                                                 14
 Number of independent orbital functions:                                     14

 Extrapolation method: ASPC


 SCF WAVEFUNCTION OPTIMIZATION

  ----------------------------------- OT ---------------------------------------
  Minimizer      : CG                  : conjugate gradient
  Preconditioner : FULL_ALL            : diagonalization, state selective
  Precond_solver : DEFAULT
  Line search    : 2PNT                : 2 energies, one gradient
  stepsize       :    0.15000000                  energy_gap     :    0.08000000
  eps_taylor     :   0.10000E-15                  max_taylor     :             4
  ----------------------------------- OT ---------------------------------------

  Step     Update method      Time    Convergence         Total energy    Change
  ------------------------------------------------------------------------------
     1 OT CG       0.15E+00    0.3     0.01476210       -16.0828481347 -1.61E+01
     2 OT LS       0.21E+00    0.3                      -16.0848978564
     3 OT CG       0.21E+00    0.6     0.00207743       -16.0850682313 -2.22E-03
     4 OT LS       0.22E+00    0.3                      -16.0851138702
     5 OT CG       0.22E+00    0.6     0.00019474       -16.0851139507 -4.57E-05
     6 OT LS       0.16E+00    0.3                      -16.0851142216
     7 OT CG       0.16E+00    0.6     0.00002752       -16.0851142546 -3.04E-07

  *** SCF run converged in     7 steps ***


  Electronic density on regular grids:        -13.9999999997        0.0000000003
  Core density on regular grids:               13.9999999987       -0.0000000013
  Total charge density on r-space grids:       -0.0000000010
  Total charge density g-space grids:          -0.0000000010

  Overlap energy of the core charge distribution:               0.00001403728970
  Self energy of the core charge distribution:                -38.70122451907286
  Core Hamiltonian energy:                                     12.74991953158897
  Hartree energy:                                              15.49483271174367
  Exchange-correlation energy:                                 -5.62865601611059

  Total energy:                                               -16.08511425456111

  outer SCF iter =    1 RMS gradient =   0.28E-04 energy =        -16.0851142546
  outer SCF loop converged in   1 iterations or    7 steps


 ENERGY| Total FORCE_EVAL ( QS ) energy [a.u.]:              -16.085114261400143

 STRESS| Analytical stress tensor [GPa]
 STRESS|                        x                   y                   z
 STRESS|      x       -4.21785129076E-02   9.46789982437E-02   1.91249439440E-01
 STRESS|      y        9.46789982437E-02   3.10416349283E-02   6.05487274931E-02
 STRESS|      z        1.91249439440E-01   6.05487274931E-02   9.23728853635E-02
 STRESS| 1/3 Trace                                             2.70786691281E-02
 STRESS| Determinant                                           2.63007786159E-04

 STRESS| Eigenvectors and eigenvalues of the analytical stress tensor [GPa]
 STRESS|                        1                   2                   3
 STRESS| Eigenvalues  -1.86950973520E-01  -5.14691950248E-03   2.73333900406E-01
 STRESS|      x           0.826942753635     -0.052027905881      0.559873895820
 STRESS|      y          -0.214829566963      0.890936893948      0.400099622795
 STRESS|      z          -0.519628655262     -0.451136950395      0.725576675906

 Number of electrons:                                                         14
 Number of occupied orbitals:                                                  7
 Number of molecular orbitals:                                                 7

 Number of orbital functions:                                                 14
 Number of independent orbital functions:                                     14

 Extrapolation method: ASPC


 SCF WAVEFUNCTION OPTIMIZATION

  ----------------------------------- OT ---------------------------------------
  Minimizer      : CG                  : conjugate gradient
  Preconditioner : FULL_ALL            : diagonalization, state selective
  Precond_solver : DEFAULT
  Line search    : 2PNT                : 2 energies, one gradient
  stepsize       :    0.15000000                  energy_gap     :    0.08000000
  eps_taylor     :   0.10000E-15                  max_taylor     :             4
  ----------------------------------- OT ---------------------------------------

  Step     Update method      Time    Convergence         Total energy    Change
  ------------------------------------------------------------------------------
     1 OT CG       0.15E+00    0.3     0.01405099       -16.0830798415 -1.61E+01
     2 OT LS       0.20E+00    0.3                      -16.0849132106
     3 OT CG       0.20E+00    0.5     0.00245975       -16.0850528742 -1.97E-03
     4 OT LS       0.18E+00    0.3                      -16.0851045797
     5 OT CG       0.18E+00    0.5     0.00066459       -16.0851057195 -5.28E-05
     6 OT LS       0.16E+00    0.3                      -16.0851092023
     7 OT CG       0.16E+00    0.5     0.00004877       -16.0851092331 -3.51E-06

  *** SCF run converged in     7 steps ***


  Electronic density on regular grids:        -13.9999999997        0.0000000003
  Core density on regular grids:               13.9999999987       -0.0000000013
  Total charge density on r-space grids:       -0.0000000011
  Total charge density g-space grids:          -0.0000000011

  Overlap energy of the core charge distribution:               0.00001403728970
  Self energy of the core charge distribution:                -38.70122451907286
  Core Hamiltonian energy:                                     12.74996749673213
  Hartree energy:                                              15.49479110865301
  Exchange-correlation energy:                                 -5.62865735670392

  Total energy:                                               -16.08510923310194

  outer SCF iter =    1 RMS gradient =   0.49E-04 energy =        -16.0851092331
  outer SCF loop converged in   1 iterations or    7 steps


 ENERGY| Total FORCE_EVAL ( QS ) energy [a.u.]:              -16.085109253182882

 STRESS| Analytical stress tensor [GPa]
 STRESS|                        x                   y                   z
 STRESS|      x       -4.22265946574E-02   9.46441565417E-02   1.91234944285E-01
 STRESS|      y        9.46441565417E-02   3.09859162173E-02   6.05427557495E-02
 STRESS|      z        1.91234944285E-01   6.05427557495E-02   9.23708146908E-02
 STRESS| 1/3 Trace                                             2.70433787502E-02
 STRESS| Determinant                                           2.64884123180E-04

 STRESS| Eigenvectors and eigenvalues of the analytical stress tensor [GPa]
 STRESS|                        1                   2                   3
 STRESS| Eigenvalues  -1.86963482508E-01  -5.18435239783E-03   2.73277971156E-01
 STRESS|      x           0.826972898046     -0.051991617578      0.559832740735
 STRESS|      y          -0.214774265842      0.890992132604      0.400006292913
 STRESS|      z          -0.519603541779     -0.451032029172      0.725659884541

 Number of electrons:                                                         14
 Number of occupied orbitals:                                                  7
 Number of molecular orbitals:                                                 7

 Number of orbital functions:                                                 14
 Number of independent orbital functions:                                     14

 Extrapolation method: ASPC


 SCF WAVEFUNCTION OPTIMIZATION

  ----------------------------------- OT ---------------------------------------
  Minimizer      : CG                  : conjugate gradient
  Preconditioner : FULL_ALL            : diagonalization, state selective
  Precond_solver : DEFAULT
  Line search    : 2PNT                : 2 energies, one gradient
  stepsize       :    0.15000000                  energy_gap     :    0.08000000
  eps_taylor     :   0.10000E-15                  max_taylor     :             4
  ----------------------------------- OT ---------------------------------------

  Step     Update method      Time    Convergence         Total energy    Change
  ------------------------------------------------------------------------------
     1 OT CG       0.15E+00    0.4     0.01455129       -16.0854252567 -1.61E+01
     2 OT LS       0.20E+00    0.4                      -16.0873603538
     3 OT CG       0.20E+00    0.7     0.00298858       -16.0874786659 -2.05E-03
     4 OT LS       0.17E+00    0.4                      -16.0875487518
     5 OT CG       0.17E+00    0.7     0.00075479       -16.0875513015 -7.26E-05
     6 OT LS       0.17E+00    0.4                      -16.0875560835
     7 OT CG       0.17E+00    0.6     0.00005316       -16.0875560867 -4.79E-06

  *** SCF run converged in     7 steps ***


  Electronic density on regular grids:        -13.9999999997        0.0000000003
  Core density on regular grids:               13.9999999987       -0.0000000013
  Total charge density on r-space grids:       -0.0000000011
  Total charge density g-space grids:          -0.0000000011

  Overlap energy of the core charge distribution:               0.00001827156034
  Self energy of the core charge distribution:                -38.70122451907286
  Core Hamiltonian energy:                                     12.72396774365546
  Hartree energy:                                              15.50824068994641
  Exchange-correlation energy:                                 -5.61855827279260

  Total energy:                                               -16.08755608670324

  outer SCF iter =    1 RMS gradient =   0.53E-04 energy =        -16.0875560867
  outer SCF loop converged in   1 iterations or    7 steps


 ENERGY| Total FORCE_EVAL ( QS ) energy [a.u.]:              -16.087556111601621

 STRESS| Analytical stress tensor [GPa]
 STRESS|                        x                   y                   z
 STRESS|      x       -5.31026874350E-02   5.56170432018E-02   1.72624035686E-01
 STRESS|      y        5.56170432018E-02  -7.68915777755E-03  -3.45676276163E-03
 STRESS|      z        1.72624035686E-01  -3.45676276163E-03  -7.04964513483E-02
 STRESS| 1/3 Trace                                            -4.37627655203E-02
 STRESS| Determinant                                           3.52667330704E-04

 STRESS| Eigenvectors and eigenvalues of the analytical stress tensor [GPa]
 STRESS|                        1                   2                   3
 STRESS| Eigenvalues  -2.41886901018E-01  -1.19018676803E-02   1.22500472138E-01
 STRESS|      x           0.691972064745     -0.091500094632      0.716102223355
 STRESS|      y          -0.174667855338      0.941244560370      0.289049853634
 STRESS|      z          -0.700475411363     -0.325094463590      0.635332816577

 Number of electrons:                                                         14
 Number of occupied orbitals:                                                  7
 Number of molecular orbitals:                                                 7

 Number of orbital functions:                                                 14
 Number of independent orbital functions:                                     14

 Extrapolation method: ASPC


 SCF WAVEFUNCTION OPTIMIZATION

  ----------------------------------- OT ---------------------------------------
  Minimizer      : CG                  : conjugate gradient
  Preconditioner : FULL_ALL            : diagonalization, state selective
  Precond_solver : DEFAULT
  Line search    : 2PNT                : 2 energies, one gradient
  stepsize       :    0.15000000                  energy_gap     :    0.08000000
  eps_taylor     :   0.10000E-15                  max_taylor     :             4
  ----------------------------------- OT ---------------------------------------

  Step     Update method      Time    Convergence         Total energy    Change
  ------------------------------------------------------------------------------
     1 OT CG       0.15E+00    0.3     0.01586566       -16.0850429747 -1.61E+01
     2 OT LS       0.19E+00    0.3                      -16.0873200509
     3 OT CG       0.19E+00    0.5     0.00345969       -16.0874514200 -2.41E-03
     4 OT LS       0.16E+00    0.3                      -16.0875441102
     5 OT CG       0.16E+00    0.5     0.00086202       -16.0875476898 -9.63E-05
     6 OT LS       0.18E+00    0.3                      -16.0875541329
     7 OT CG       0.18E+00    0.5     0.00006049       -16.0875541771 -6.49E-06

  *** SCF run converged in     7 steps ***


  Electronic density on regular grids:        -13.9999999998        0.0000000002
  Core density on regular grids:               13.9999999987       -0.0000000013
  Total charge density on r-space grids:       -0.0000000011
  Total charge density g-space grids:          -0.0000000011

  Overlap energy of the core charge distribution:               0.00001827156034
  Self energy of the core charge distribution:                -38.70122451907286
  Core Hamiltonian energy:                                     12.72408866232247
  Hartree energy:                                              15.50812658829117
  Exchange-correlation energy:                                 -5.61856318015239

  Total energy:                                               -16.08755417705127

  outer SCF iter =    1 RMS gradient =   0.60E-04 energy =        -16.0875541771
  outer SCF loop converged in   1 iterations or    7 steps


 ENERGY| Total FORCE_EVAL ( QS ) energy [a.u.]:              -16.087554208286637

 STRESS| Analytical stress tensor [GPa]
 STRESS|                        x                   y                   z
 STRESS|      x       -5.31792454596E-02   5.55649828562E-02   1.72584794961E-01
 STRESS|      y        5.55649828562E-02  -7.77327086298E-03  -3.47772173301E-03
 STRESS|      z        1.72584794961E-01  -3.47772173301E-03  -7.04960343665E-02
 STRESS| 1/3 Trace                                            -4.38161835630E-02
 STRESS| Determinant                                           3.53986397260E-04

 STRESS| Eigenvectors and eigenvalues of the analytical stress tensor [GPa]
 STRESS|                        1                   2                   3
 STRESS| Eigenvalues  -2.41880426256E-01  -1.19575436376E-02   1.22389419204E-01
 STRESS|      x           0.692029809242     -0.091220318085      0.716082115884
 STRESS|      y          -0.174657172891      0.941351573460      0.288707615248
 STRESS|      z          -0.700421027010     -0.324863153825      0.635511066944

 Number of electrons:                                                         14
 Number of occupied orbitals:                                                  7
 Number of molecular orbitals:                                                 7

 Number of orbital functions:                                                 14
 Number of independent orbital functions:                                     14

 Extrapolation method: ASPC


 SCF WAVEFUNCTION OPTIMIZATION

  ----------------------------------- OT ---------------------------------------
  Minimizer      : CG                  : conjugate gradient
  Preconditioner : FULL_ALL            : diagonalization, state selective
  Precond_solver : DEFAULT
  Line search    : 2PNT                : 2 energies, one gradient
  stepsize       :    0.15000000                  energy_gap     :    0.08000000
  eps_taylor     :   0.10000E-15                  max_taylor     :             4
  ----------------------------------- OT ---------------------------------------

  Step     Update method      Time    Convergence         Total energy    Change
  ------------------------------------------------------------------------------
     1 OT CG       0.15E+00    0.4     0.01607374       -16.0863375358 -1.61E+01
     2 OT LS       0.19E+00    0.4                      -16.0886610097
     3 OT CG       0.19E+00    0.6     0.00343821       -16.0887791772 -2.44E-03
     4 OT LS       0.17E+00    0.4                      -16.0888728034
     5 OT CG       0.17E+00    0.6     0.00086345       -16.0888752058 -9.60E-05
     6 OT LS       0.17E+00    0.4                      -16.0888814397
     7 OT CG       0.17E+00    0.6     0.00006198       -16.0888814430 -6.24E-06

  *** SCF run converged in     7 steps ***


  Electronic density on regular grids:        -13.9999999998        0.0000000002
  Core density on regular grids:               13.9999999987       -0.0000000013
  Total charge density on r-space grids:       -0.0000000011
  Total charge density g-space grids:          -0.0000000011

  Overlap energy of the core charge distribution:               0.00001879906745
  Self energy of the core charge distribution:                -38.70122451907286
  Core Hamiltonian energy:                                     12.70515838605881
  Hartree energy:                                              15.51824227936188
  Exchange-correlation energy:                                 -5.61107638840607

  Total energy:                                               -16.08888144299080

  outer SCF iter =    1 RMS gradient =   0.62E-04 energy =        -16.0888814430
  outer SCF loop converged in   1 iterations or    7 steps


 ENERGY| Total FORCE_EVAL ( QS ) energy [a.u.]:              -16.088881478712029

 STRESS| Analytical stress tensor [GPa]
 STRESS|                        x                   y                   z
 STRESS|      x       -5.72987871478E-02   6.32069165096E-03   9.56405621985E-02
 STRESS|      y        6.32069165096E-03  -2.65229138916E-02  -5.84175610394E-02
 STRESS|      z        9.56405621985E-02  -5.84175610394E-02  -2.03595161053E-01
 STRESS| 1/3 Trace                                            -9.58056206976E-02
 STRESS| Determinant                                           6.62421937205E-05

 STRESS| Eigenvectors and eigenvalues of the analytical stress tensor [GPa]
 STRESS|                        1                   2                   3
 STRESS| Eigenvalues  -2.63771893269E-01  -3.15938153849E-02   7.94884656123E-03
 STRESS|      x          -0.414980808580      0.683159946570      0.600902168337
 STRESS|      y           0.227937906048      0.717456164458     -0.658256001163
 STRESS|      z           0.880815099494      0.136195225625      0.453448586964

 Number of electrons:                                                         14
 Number of occupied orbitals:                                                  7
 Number of molecular orbitals:                                                 7

 Number of orbital functions:                                                 14
 Number of independent orbital functions:                                     14

 Extrapolation method: ASPC


 SCF WAVEFUNCTION OPTIMIZATION

  ----------------------------------- OT ---------------------------------------
  Minimizer      : CG                  : conjugate gradient
  Preconditioner : FULL_ALL            : diagonalization, state selective
  Precond_solver : DEFAULT
  Line search    : 2PNT                : 2 energies, one gradient
  stepsize       :    0.15000000                  energy_gap     :    0.08000000
  eps_taylor     :   0.10000E-15                  max_taylor     :             4
  ----------------------------------- OT ---------------------------------------

  Step     Update method      Time    Convergence         Total energy    Change
  ------------------------------------------------------------------------------
     1 OT CG       0.15E+00    0.3     0.01593718       -16.0864137647 -1.61E+01
     2 OT LS       0.19E+00    0.3                      -16.0886803142
     3 OT CG       0.19E+00    0.6     0.00325384       -16.0887921707 -2.38E-03
     4 OT LS       0.17E+00    0.3                      -16.0888780194
     5 OT CG       0.17E+00    0.6     0.00087860       -16.0888796463 -8.75E-05
     6 OT LS       0.17E+00    0.3                      -16.0888861632
     7 OT CG       0.17E+00    0.6     0.00006365       -16.0888861676 -6.52E-06

  *** SCF run converged in     7 steps ***


  Electronic density on regular grids:        -13.9999999998        0.0000000002
  Core density on regular grids:               13.9999999987       -0.0000000013
  Total charge density on r-space grids:       -0.0000000011
  Total charge density g-space grids:          -0.0000000011

  Overlap energy of the core charge distribution:               0.00001879906745
  Self energy of the core charge distribution:                -38.70122451907286
  Core Hamiltonian energy:                                     12.70529117982885
  Hartree energy:                                              15.51811811178806
  Exchange-correlation energy:                                 -5.61108973916525

  Total energy:                                               -16.08888616755374

  outer SCF iter =    1 RMS gradient =   0.64E-04 energy =        -16.0888861676
  outer SCF loop converged in   1 iterations or    7 steps


 ENERGY| Total FORCE_EVAL ( QS ) energy [a.u.]:              -16.088886203011405

 STRESS| Analytical stress tensor [GPa]
 STRESS|                        x                   y                   z
 STRESS|      x       -5.73616925090E-02   6.24372637521E-03   9.56212078148E-02
 STRESS|      y        6.24372637521E-03  -2.65861712216E-02  -5.84425227796E-02
 STRESS|      z        9.56212078148E-02  -5.84425227796E-02  -2.03553083376E-01
 STRESS| 1/3 Trace                                            -9.58336490357E-02
 STRESS| Determinant                                           6.67359424543E-05

 STRESS| Eigenvectors and eigenvalues of the analytical stress tensor [GPa]
 STRESS|                        1                   2                   3
 STRESS| Eigenvalues  -2.63734682386E-01  -3.17388821675E-02   7.97261744648E-03
 STRESS|      x          -0.415004844293      0.683247900371      0.600785557293
 STRESS|      y           0.227987202894      0.717363351566     -0.658340077123
 STRESS|      z           0.880791016377      0.136242902452      0.453481043707

 Number of electrons:                                                         14
 Number of occupied orbitals:                                                  7
 Number of molecular orbitals:                                                 7

 Number of orbital functions:                                                 14
 Number of independent orbital functions:                                     14

 Extrapolation method: ASPC


 SCF WAVEFUNCTION OPTIMIZATION

  ----------------------------------- OT ---------------------------------------
  Minimizer      : CG                  : conjugate gradient
  Preconditioner : FULL_ALL            : diagonalization, state selective
  Precond_solver : DEFAULT
  Line search    : 2PNT                : 2 energies, one gradient
  stepsize       :    0.15000000                  energy_gap     :    0.08000000
  eps_taylor     :   0.10000E-15                  max_taylor     :             4
  ----------------------------------- OT ---------------------------------------

  Step     Update method      Time    Convergence         Total energy    Change
  ------------------------------------------------------------------------------
     1 OT CG       0.15E+00    0.3     0.01518703       -16.0864406022 -1.61E+01
     2 OT LS       0.19E+00    0.3                      -16.0884970148
     3 OT CG       0.19E+00    0.5     0.00266314       -16.0885917245 -2.15E-03
     4 OT LS       0.18E+00    0.3                      -16.0886533903
     5 OT CG       0.18E+00    0.6     0.00073738       -16.0886536423 -6.19E-05
     6 OT LS       0.16E+00    0.3                      -16.0886578155
     7 OT CG       0.16E+00    0.6     0.00005601       -16.0886578828 -4.24E-06

  *** SCF run converged in     7 steps ***


  Electronic density on regular grids:        -13.9999999997        0.0000000003
  Core density on regular grids:               13.9999999987       -0.0000000013
  Total charge density on r-space grids:       -0.0000000011
  Total charge density g-space grids:          -0.0000000011

  Overlap energy of the core charge distribution:               0.00001833032357
  Self energy of the core charge distribution:                -38.70122451907286
  Core Hamiltonian energy:                                     12.70410624507771
  Hartree energy:                                              15.51846327441234
  Exchange-correlation energy:                                 -5.61002121350040

  Total energy:                                               -16.08865788275964

  outer SCF iter =    1 RMS gradient =   0.56E-04 energy =        -16.0886578828
  outer SCF loop converged in   1 iterations or    7 steps


 ENERGY| Total FORCE_EVAL ( QS ) energy [a.u.]:              -16.088657911089935

 STRESS| Analytical stress tensor [GPa]
 STRESS|                        x                   y                   z
 STRESS|      x       -7.14072764303E-03  -4.19334745309E-02  -2.74294702572E-02
 STRESS|      y       -4.19334745309E-02  -4.17345141772E-02  -1.02953531861E-01
 STRESS|      z       -2.74294702572E-02  -1.02953531861E-01  -2.61335317018E-01
 STRESS| 1/3 Trace                                            -1.03403519613E-01
 STRESS| Determinant                                           2.51905186623E-04

 STRESS| Eigenvectors and eigenvalues of the analytical stress tensor [GPa]
 STRESS|                        1                   2                   3
 STRESS| Eigenvalues  -3.07677546897E-01  -2.99079998306E-02   2.73749878899E-02
 STRESS|      x           0.136141702543      0.702949030643      0.698088889144
 STRESS|      y           0.376252464454      0.615164965404     -0.692824760190
 STRESS|      z           0.916460320920     -0.356980007364      0.180736699430

 Number of electrons:                                                         14
 Number of occupied orbitals:                                                  7
 Number of molecular orbitals:                                                 7

 Number of orbital functions:                                                 14
 Number of independent orbital functions:                                     14

 Extrapolation method: ASPC


 SCF WAVEFUNCTION OPTIMIZATION

  ----------------------------------- OT ---------------------------------------
  Minimizer      : CG                  : conjugate gradient
  Preconditioner : FULL_ALL            : diagonalization, state selective
  Precond_solver : DEFAULT
  Line search    : 2PNT                : 2 energies, one gradient
  stepsize       :    0.15000000                  energy_gap     :    0.08000000
  eps_taylor     :   0.10000E-15                  max_taylor     :             4
  ----------------------------------- OT ---------------------------------------

  Step     Update method      Time    Convergence         Total energy    Change
  ------------------------------------------------------------------------------
     1 OT CG       0.15E+00    0.4     0.01488482       -16.0865599403 -1.61E+01
     2 OT LS       0.19E+00    0.4                      -16.0885256277
     3 OT CG       0.19E+00    0.7     0.00225103       -16.0886152729 -2.06E-03
     4 OT LS       0.19E+00    0.4                      -16.0886630816
     5 OT CG       0.19E+00    0.7     0.00063522       -16.0886630928 -4.78E-05
     6 OT LS       0.15E+00    0.4                      -16.0886658529
     7 OT CG       0.15E+00    0.6     0.00005687       -16.0886660757 -2.98E-06

  *** SCF run converged in     7 steps ***


  Electronic density on regular grids:        -13.9999999997        0.0000000003
  Core density on regular grids:               13.9999999987       -0.0000000013
  Total charge density on r-space grids:       -0.0000000010
  Total charge density g-space grids:          -0.0000000010

  Overlap energy of the core charge distribution:               0.00001833032357
  Self energy of the core charge distribution:                -38.70122451907286
  Core Hamiltonian energy:                                     12.70429544866147
  Hartree energy:                                              15.51829549796215
  Exchange-correlation energy:                                 -5.61005083355486

  Total energy:                                               -16.08866607568053

  outer SCF iter =    1 RMS gradient =   0.57E-04 energy =        -16.0886660757
  outer SCF loop converged in   1 iterations or    7 steps


 ENERGY| Total FORCE_EVAL ( QS ) energy [a.u.]:              -16.088666103457324

 STRESS| Analytical stress tensor [GPa]
 STRESS|                        x                   y                   z
 STRESS|      x       -7.16933588871E-03  -4.19961259537E-02  -2.74346614864E-02
 STRESS|      y       -4.19961259537E-02  -4.17966429183E-02  -1.02988558089E-01
 STRESS|      z       -2.74346614864E-02  -1.02988558089E-01  -2.61313952086E-01
 STRESS| 1/3 Trace                                            -1.03426643631E-01
 STRESS| Determinant                                           2.52753806884E-04

 STRESS| Eigenvectors and eigenvalues of the analytical stress tensor [GPa]
 STRESS|                        1                   2                   3
 STRESS| Eigenvalues  -3.07700813785E-01  -2.99791058740E-02   2.73999887667E-02
 STRESS|      x           0.136256180702      0.702884254831      0.698131776624
 STRESS|      y           0.376441650348      0.615111261808     -0.692769672749
 STRESS|      z           0.916365613227     -0.357200027867      0.180782197651

 Number of electrons:                                                         14
 Number of occupied orbitals:                                                  7
 Number of molecular orbitals:                                                 7

 Number of orbital functions:                                                 14
 Number of independent orbital functions:                                     14

 Extrapolation method: ASPC


 SCF WAVEFUNCTION OPTIMIZATION

  ----------------------------------- OT ---------------------------------------
  Minimizer      : CG                  : conjugate gradient
  Preconditioner : FULL_ALL            : diagonalization, state selective
  Precond_solver : DEFAULT
  Line search    : 2PNT                : 2 energies, one gradient
  stepsize       :    0.15000000                  energy_gap     :    0.08000000
  eps_taylor     :   0.10000E-15                  max_taylor     :             4
  ----------------------------------- OT ---------------------------------------

  Step     Update method      Time    Convergence         Total energy    Change
  ------------------------------------------------------------------------------
     1 OT CG       0.15E+00    0.3     0.01369481       -16.0880372729 -1.61E+01
     2 OT LS       0.19E+00    0.3                      -16.0897070491
     3 OT CG       0.19E+00    0.5     0.00171397       -16.0897846308 -1.75E-03
     4 OT LS       0.22E+00    0.3                      -16.0898153817
     5 OT CG       0.22E+00    0.5     0.00030899       -16.0898158635 -3.12E-05
     6 OT LS       0.14E+00    0.3                      -16.0898163568
     7 OT CG       0.14E+00    0.6     0.00004228       -16.0898165343 -6.71E-07

  *** SCF run converged in     7 steps ***


  Electronic density on regular grids:        -13.9999999997        0.0000000003
  Core density on regular grids:               13.9999999987       -0.0000000013
  Total charge density on r-space grids:       -0.0000000010
  Total charge density g-space grids:          -0.0000000010

  Overlap energy of the core charge distribution:               0.00001935196838
  Self energy of the core charge distribution:                -38.70122451907286
  Core Hamiltonian energy:                                     12.73971518495898
  Hartree energy:                                              15.49563218631257
  Exchange-correlation energy:                                 -5.62395873849139

  Total energy:                                               -16.08981653432433

  outer SCF iter =    1 RMS gradient =   0.42E-04 energy =        -16.0898165343
  outer SCF loop converged in   1 iterations or    7 steps


 ENERGY| Total FORCE_EVAL ( QS ) energy [a.u.]:              -16.089816549410855

 STRESS| Analytical stress tensor [GPa]
 STRESS|                        x                   y                   z
 STRESS|      x        1.68966069241E-01  -4.62434369554E-02  -1.46055954300E-01
 STRESS|      y       -4.62434369554E-02  -2.17381550664E-02  -9.78234919287E-02
 STRESS|      z       -1.46055954300E-01  -9.78234919287E-02  -2.00088587365E-01
 STRESS| 1/3 Trace                                            -1.76202243968E-02
 STRESS| Determinant                                          -1.31180115138E-03

 STRESS| Eigenvectors and eigenvalues of the analytical stress tensor [GPa]
 STRESS|                        1                   2                   3
 STRESS| Eigenvalues  -2.93525002706E-01   2.02786755310E-02   2.20385653984E-01
 STRESS|      x           0.313259232275     -0.070296206398      0.947062351042
 STRESS|      y           0.368351467824      0.928177802969     -0.052944898032
 STRESS|      z           0.875320426785     -0.365437285237     -0.316653976782

 Number of electrons:                                                         14
 Number of occupied orbitals:                                                  7
 Number of molecular orbitals:                                                 7

 Number of orbital functions:                                                 14
 Number of independent orbital functions:                                     14

 Extrapolation method: ASPC


 SCF WAVEFUNCTION OPTIMIZATION

  ----------------------------------- OT ---------------------------------------
  Minimizer      : CG                  : conjugate gradient
  Preconditioner : FULL_ALL            : diagonalization, state selective
  Precond_solver : DEFAULT
  Line search    : 2PNT                : 2 energies, one gradient
  stepsize       :    0.15000000                  energy_gap     :    0.08000000
  eps_taylor     :   0.10000E-15                  max_taylor     :             4
  ----------------------------------- OT ---------------------------------------

  Step     Update method      Time    Convergence         Total energy    Change
  ------------------------------------------------------------------------------
     1 OT CG       0.15E+00    0.3     0.01321226       -16.0881878293 -1.61E+01
     2 OT LS       0.19E+00    0.3                      -16.0897186282
     3 OT CG       0.19E+00    0.6     0.00201534       -16.0897769115 -1.59E-03
     4 OT LS       0.18E+00    0.3                      -16.0898124869
     5 OT CG       0.18E+00    0.6     0.00057403       -16.0898125329 -3.56E-05
     6 OT LS       0.17E+00    0.3                      -16.0898151878
     7 OT CG       0.17E+00    0.6     0.00004569       -16.0898152065 -2.67E-06

  *** SCF run converged in     7 steps ***


  Electronic density on regular grids:        -13.9999999997        0.0000000003
  Core density on regular grids:               13.9999999987       -0.0000000013
  Total charge density on r-space grids:       -0.0000000010
  Total charge density g-space grids:          -0.0000000010

  Overlap energy of the core charge distribution:               0.00001935196838
  Self energy of the core charge distribution:                -38.70122451907286
  Core Hamiltonian energy:                                     12.73957031756896
  Hartree energy:                                              15.49573626287142
  Exchange-correlation energy:                                 -5.62391661986296

  Total energy:                                               -16.08981520652706

  outer SCF iter =    1 RMS gradient =   0.46E-04 energy =        -16.0898152065
  outer SCF loop converged in   1 iterations or    7 steps


 ENERGY| Total FORCE_EVAL ( QS ) energy [a.u.]:              -16.089815224853552

 STRESS| Analytical stress tensor [GPa]
 STRESS|                        x                   y                   z
 STRESS|      x        1.68968720359E-01  -4.62223685398E-02  -1.46059700561E-01
 STRESS|      y       -4.62223685398E-02  -2.17761950121E-02  -9.78041893470E-02
 STRESS|      z       -1.46059700561E-01  -9.78041893470E-02  -2.00035025927E-01
 STRESS| 1/3 Trace                                            -1.76141668599E-02
 STRESS| Determinant                                          -1.30892806594E-03

 STRESS| Eigenvectors and eigenvalues of the analytical stress tensor [GPa]
 STRESS|                        1                   2                   3
 STRESS| Eigenvalues  -2.93473611591E-01   2.02370310772E-02   2.20394079934E-01
 STRESS|      x           0.313279273558     -0.070413064510      0.947047040598
 STRESS|      y           0.368382379919      0.928170957148     -0.052849753756
 STRESS|      z           0.875300245015     -0.365432175175     -0.316715655475

 Number of electrons:                                                         14
 Number of occupied orbitals:                                                  7
 Number of molecular orbitals:                                                 7

 Number of orbital functions:                                                 14
 Number of independent orbital functions:                                     14

 Extrapolation method: ASPC


 SCF WAVEFUNCTION OPTIMIZATION

  ----------------------------------- OT ---------------------------------------
  Minimizer      : CG                  : conjugate gradient
  Preconditioner : FULL_ALL            : diagonalization, state selective
  Precond_solver : DEFAULT
  Line search    : 2PNT                : 2 energies, one gradient
  stepsize       :    0.15000000                  energy_gap     :    0.08000000
  eps_taylor     :   0.10000E-15                  max_taylor     :             4
  ----------------------------------- OT ---------------------------------------

  Step     Update method      Time    Convergence         Total energy    Change
  ------------------------------------------------------------------------------
     1 OT CG       0.15E+00    0.3     0.01290510       -16.0897408913 -1.61E+01
     2 OT LS       0.18E+00    0.3                      -16.0911956153
     3 OT CG       0.18E+00    0.5     0.00236607       -16.0912500630 -1.51E-03
     4 OT LS       0.17E+00    0.3                      -16.0912951800
     5 OT CG       0.17E+00    0.6     0.00061332       -16.0912957541 -4.57E-05
     6 OT LS       0.18E+00    0.3                      -16.0912991202
     7 OT CG       0.18E+00    0.5     0.00004266       -16.0912991535 -3.40E-06

  *** SCF run converged in     7 steps ***


  Electronic density on regular grids:        -13.9999999997        0.0000000003
  Core density on regular grids:               13.9999999987       -0.0000000013
  Total charge density on r-space grids:       -0.0000000010
  Total charge density g-space grids:          -0.0000000010

  Overlap energy of the core charge distribution:               0.00002003839403
  Self energy of the core charge distribution:                -38.70122451907286
  Core Hamiltonian energy:                                     12.77100544779891
  Hartree energy:                                              15.47559185350545
  Exchange-correlation energy:                                 -5.63669197411335

  Total energy:                                               -16.09129915348783

  outer SCF iter =    1 RMS gradient =   0.43E-04 energy =        -16.0912991535
  outer SCF loop converged in   1 iterations or    7 steps


 ENERGY| Total FORCE_EVAL ( QS ) energy [a.u.]:              -16.091299170212515

 STRESS| Analytical stress tensor [GPa]
 STRESS|                        x                   y                   z
 STRESS|      x        3.19897310840E-01  -5.36258795233E-02  -2.40163745366E-01
 STRESS|      y       -5.36258795233E-02  -1.88646805341E-02  -8.88896904319E-02
 STRESS|      z       -2.40163745366E-01  -8.88896904319E-02  -1.09163882449E-01
 STRESS| 1/3 Trace                                             6.39562492857E-02
 STRESS| Determinant                                          -2.75645539946E-03

 STRESS| Eigenvectors and eigenvalues of the analytical stress tensor [GPa]
 STRESS|                        1                   2                   3
 STRESS| Eigenvalues  -2.60621726117E-01   2.47248987340E-02   4.27765575240E-01
 STRESS|      x           0.382339149621     -0.134005462299      0.914253417134
 STRESS|      y           0.392398966063      0.919326678654     -0.029351479488
 STRESS|      z           0.836564298843     -0.369974315311     -0.404078185394

 Number of electrons:                                                         14
 Number of occupied orbitals:                                                  7
 Number of molecular orbitals:                                                 7

 Number of orbital functions:                                                 14
 Number of independent orbital functions:                                     14

 Extrapolation method: ASPC


 SCF WAVEFUNCTION OPTIMIZATION

  ----------------------------------- OT ---------------------------------------
  Minimizer      : CG                  : conjugate gradient
  Preconditioner : FULL_ALL            : diagonalization, state selective
  Precond_solver : DEFAULT
  Line search    : 2PNT                : 2 energies, one gradient
  stepsize       :    0.15000000                  energy_gap     :    0.08000000
  eps_taylor     :   0.10000E-15                  max_taylor     :             4
  ----------------------------------- OT ---------------------------------------

  Step     Update method      Time    Convergence         Total energy    Change
  ------------------------------------------------------------------------------
     1 OT CG       0.15E+00    0.3     0.01277382       -16.0897558268 -1.61E+01
     2 OT LS       0.19E+00    0.3                      -16.0911832408
     3 OT CG       0.19E+00    0.6     0.00253678       -16.0912357220 -1.48E-03
     4 OT LS       0.17E+00    0.3                      -16.0912882681
     5 OT CG       0.17E+00    0.6     0.00062233       -16.0912887738 -5.31E-05
     6 OT LS       0.18E+00    0.3                      -16.0912921728
     7 OT CG       0.18E+00    0.6     0.00004220       -16.0912921857 -3.41E-06

  *** SCF run converged in     7 steps ***


  Electronic density on regular grids:        -13.9999999997        0.0000000003
  Core density on regular grids:               13.9999999987       -0.0000000013
  Total charge density on r-space grids:       -0.0000000010
  Total charge density g-space grids:          -0.0000000010

  Overlap energy of the core charge distribution:               0.00002003839403
  Self energy of the core charge distribution:                -38.70122451907286
  Core Hamiltonian energy:                                     12.77097547574721
  Hartree energy:                                              15.47560473439653
  Exchange-correlation energy:                                 -5.63666791511505

  Total energy:                                               -16.09129218565015

  outer SCF iter =    1 RMS gradient =   0.42E-04 energy =        -16.0912921857
  outer SCF loop converged in   1 iterations or    7 steps


 ENERGY| Total FORCE_EVAL ( QS ) energy [a.u.]:              -16.091292202154470

 STRESS| Analytical stress tensor [GPa]
 STRESS|                        x                   y                   z
 STRESS|      x        3.19823117489E-01  -5.36234122986E-02  -2.40173634043E-01
 STRESS|      y       -5.36234122986E-02  -1.89263650189E-02  -8.88943032366E-02
 STRESS|      z       -2.40173634043E-01  -8.88943032366E-02  -1.09159352046E-01
 STRESS| 1/3 Trace                                             6.39124668080E-02
 STRESS| Determinant                                          -2.75065994817E-03

 STRESS| Eigenvectors and eigenvalues of the analytical stress tensor [GPa]
 STRESS|                        1                   2                   3
 STRESS| Eigenvalues  -2.60647516069E-01   2.46736031588E-02   4.27711313335E-01
 STRESS|      x           0.382371286354     -0.134072380550      0.914230165848
 STRESS|      y           0.392460422475      0.919301188529     -0.029328170080
 STRESS|      z           0.836520780473     -0.370013407248     -0.404132481117

 Number of electrons:                                                         14
 Number of occupied orbitals:                                                  7
 Number of molecular orbitals:                                                 7

 Number of orbital functions:                                                 14
 Number of independent orbital functions:                                     14

 Extrapolation method: ASPC


 SCF WAVEFUNCTION OPTIMIZATION

  ----------------------------------- OT ---------------------------------------
  Minimizer      : CG                  : conjugate gradient
  Preconditioner : FULL_ALL            : diagonalization, state selective
  Precond_solver : DEFAULT
  Line search    : 2PNT                : 2 energies, one gradient
  stepsize       :    0.15000000                  energy_gap     :    0.08000000
  eps_taylor     :   0.10000E-15                  max_taylor     :             4
  ----------------------------------- OT ---------------------------------------

  Step     Update method      Time    Convergence         Total energy    Change
  ------------------------------------------------------------------------------
     1 OT CG       0.15E+00    0.4     0.01275064       -16.0948396114 -1.61E+01
     2 OT LS       0.19E+00    0.4                      -16.0962910748
     3 OT CG       0.19E+00    0.7     0.00237516       -16.0963619719 -1.52E-03
     4 OT LS       0.17E+00    0.4                      -16.0964093943
     5 OT CG       0.17E+00    0.6     0.00059646       -16.0964099070 -4.79E-05
     6 OT LS       0.17E+00    0.3                      -16.0964129118
     7 OT CG       0.17E+00    0.6     0.00004614       -16.0964129118 -3.00E-06

  *** SCF run converged in     7 steps ***


  Electronic density on regular grids:        -13.9999999997        0.0000000003
  Core density on regular grids:               13.9999999987       -0.0000000013
  Total charge density on r-space grids:       -0.0000000011
  Total charge density g-space grids:          -0.0000000011

  Overlap energy of the core charge distribution:               0.00002115398216
  Self energy of the core charge distribution:                -38.70122451907286
  Core Hamiltonian energy:                                     12.77897727743125
  Hartree energy:                                              15.46746469483761
  Exchange-correlation energy:                                 -5.64165151902425

  Total energy:                                               -16.09641291184610

  outer SCF iter =    1 RMS gradient =   0.46E-04 energy =        -16.0964129118
  outer SCF loop converged in   1 iterations or    7 steps


 ENERGY| Total FORCE_EVAL ( QS ) energy [a.u.]:              -16.096412931919502

 STRESS| Analytical stress tensor [GPa]
 STRESS|                        x                   y                   z
 STRESS|      x        2.88142387470E-01  -6.82371610517E-02  -1.86022924146E-01
 STRESS|      y       -6.82371610517E-02  -5.02206016370E-03  -2.90763529835E-02
 STRESS|      z       -1.86022924146E-01  -2.90763529835E-02  -1.14008744695E-02
 STRESS| 1/3 Trace                                             9.05731509456E-02
 STRESS| Determinant                                          -7.38407204322E-04

 STRESS| Eigenvectors and eigenvalues of the analytical stress tensor [GPa]
 STRESS|                        1                   2                   3
 STRESS| Eigenvalues  -1.26926538109E-01   1.51707176190E-02   3.83475273327E-01
 STRESS|      x           0.427225026610     -0.076824286880      0.900875577193
 STRESS|      y           0.428979092212      0.894317879045     -0.127171025260
 STRESS|      z           0.795899312151     -0.440787431952     -0.415030992519

 Number of electrons:                                                         14
 Number of occupied orbitals:                                                  7
 Number of molecular orbitals:                                                 7

 Number of orbital functions:                                                 14
 Number of independent orbital functions:                                     14

 Extrapolation method: ASPC


 SCF WAVEFUNCTION OPTIMIZATION

  ----------------------------------- OT ---------------------------------------
  Minimizer      : CG                  : conjugate gradient
  Preconditioner : FULL_ALL            : diagonalization, state selective
  Precond_solver : DEFAULT
  Line search    : 2PNT                : 2 energies, one gradient
  stepsize       :    0.15000000                  energy_gap     :    0.08000000
  eps_taylor     :   0.10000E-15                  max_taylor     :             4
  ----------------------------------- OT ---------------------------------------

  Step     Update method      Time    Convergence         Total energy    Change
  ------------------------------------------------------------------------------
     1 OT CG       0.15E+00    0.3     0.01305707       -16.0947283734 -1.61E+01
     2 OT LS       0.20E+00    0.3                      -16.0962783129
     3 OT CG       0.20E+00    0.6     0.00219266       -16.0963695485 -1.64E-03
     4 OT LS       0.19E+00    0.3                      -16.0964134695
     5 OT CG       0.19E+00    0.6     0.00051516       -16.0964135780 -4.40E-05
     6 OT LS       0.16E+00    0.3                      -16.0964155112
     7 OT CG       0.16E+00    0.6     0.00004844       -16.0964155971 -2.02E-06

  *** SCF run converged in     7 steps ***


  Electronic density on regular grids:        -13.9999999997        0.0000000003
  Core density on regular grids:               13.9999999987       -0.0000000013
  Total charge density on r-space grids:       -0.0000000010
  Total charge density g-space grids:          -0.0000000010

  Overlap energy of the core charge distribution:               0.00002115398216
  Self energy of the core charge distribution:                -38.70122451907286
  Core Hamiltonian energy:                                     12.77890222972810
  Hartree energy:                                              15.46752115896698
  Exchange-correlation energy:                                 -5.64163562067798

  Total energy:                                               -16.09641559707360

  outer SCF iter =    1 RMS gradient =   0.48E-04 energy =        -16.0964155971
  outer SCF loop converged in   1 iterations or    7 steps


 ENERGY| Total FORCE_EVAL ( QS ) energy [a.u.]:              -16.096415618545166

 STRESS| Analytical stress tensor [GPa]
 STRESS|                        x                   y                   z
 STRESS|      x        2.88153429321E-01  -6.82267046883E-02  -1.86032726258E-01
 STRESS|      y       -6.82267046883E-02  -5.02564326715E-03  -2.90548735724E-02
 STRESS|      z       -1.86032726258E-01  -2.90548735724E-02  -1.13384327657E-02
 STRESS| 1/3 Trace                                             9.05964510961E-02
 STRESS| Determinant                                          -7.37679898927E-04

 STRESS| Eigenvectors and eigenvalues of the analytical stress tensor [GPa]
 STRESS|                        1                   2                   3
 STRESS| Eigenvalues  -1.26873795585E-01   1.51610133568E-02   3.83502135516E-01
 STRESS|      x           0.427263962764     -0.076883417048      0.900852066827
 STRESS|      y           0.429012901090      0.894304456633     -0.127151364699
 STRESS|      z           0.795860186730     -0.440804354594     -0.415088043852

 Number of electrons:                                                         14
 Number of occupied orbitals:                                                  7
 Number of molecular orbitals:                                                 7

 Number of orbital functions:                                                 14
 Number of independent orbital functions:                                     14

 Extrapolation method: ASPC


 SCF WAVEFUNCTION OPTIMIZATION

  ----------------------------------- OT ---------------------------------------
  Minimizer      : CG                  : conjugate gradient
  Preconditioner : FULL_ALL            : diagonalization, state selective
  Precond_solver : DEFAULT
  Line search    : 2PNT                : 2 energies, one gradient
  stepsize       :    0.15000000                  energy_gap     :    0.08000000
  eps_taylor     :   0.10000E-15                  max_taylor     :             4
  ----------------------------------- OT ---------------------------------------

  Step     Update method      Time    Convergence         Total energy    Change
  ------------------------------------------------------------------------------
     1 OT CG       0.15E+00    0.3     0.01336834       -16.0973181785 -1.61E+01
     2 OT LS       0.20E+00    0.3                      -16.0989719800
     3 OT CG       0.20E+00    0.6     0.00208346       -16.0990912436 -1.77E-03
     4 OT LS       0.20E+00    0.3                      -16.0991337041
     5 OT CG       0.20E+00    0.6     0.00034262       -16.0991337132 -4.25E-05
     6 OT LS       0.15E+00    0.3                      -16.0991344641
     7 OT CG       0.15E+00    0.6     0.00004995       -16.0991345660 -8.53E-07

  *** SCF run converged in     7 steps ***


  Electronic density on regular grids:        -13.9999999997        0.0000000003
  Core density on regular grids:               13.9999999987       -0.0000000013
  Total charge density on r-space grids:       -0.0000000010
  Total charge density g-space grids:          -0.0000000010

  Overlap energy of the core charge distribution:               0.00001873297950
  Self energy of the core charge distribution:                -38.70122451907286
  Core Hamiltonian energy:                                     12.76730459079743
  Hartree energy:                                              15.47304037894862
  Exchange-correlation energy:                                 -5.63827374969328

  Total energy:                                               -16.09913456604059

  outer SCF iter =    1 RMS gradient =   0.50E-04 energy =        -16.0991345660
  outer SCF loop converged in   1 iterations or    7 steps


 ENERGY| Total FORCE_EVAL ( QS ) energy [a.u.]:              -16.099134587863951

 STRESS| Analytical stress tensor [GPa]
 STRESS|                        x                   y                   z
 STRESS|      x        1.58175064097E-01  -9.17334160689E-02  -4.33852271161E-02
 STRESS|      y       -9.17334160689E-02  -2.12953775451E-02   3.06898821950E-02
 STRESS|      z       -4.33852271161E-02   3.06898821950E-02   6.63643065961E-02
 STRESS| 1/3 Trace                                             6.77479977159E-02
 STRESS| Determinant                                          -6.46610874758E-04

 STRESS| Eigenvectors and eigenvalues of the analytical stress tensor [GPa]
 STRESS|                        1                   2                   3
 STRESS| Eigenvalues  -6.10098864711E-02   4.93074513051E-02   2.14946428314E-01
 STRESS|      x           0.367734505855      0.342708572705      0.864477973923
 STRESS|      y           0.924798210432     -0.037238312422     -0.378631190038
 STRESS|      z          -0.097568453845      0.938703436812     -0.330630087155

 Number of electrons:                                                         14
 Number of occupied orbitals:                                                  7
 Number of molecular orbitals:                                                 7

 Number of orbital functions:                                                 14
 Number of independent orbital functions:                                     14

 Extrapolation method: ASPC


 SCF WAVEFUNCTION OPTIMIZATION

  ----------------------------------- OT ---------------------------------------
  Minimizer      : CG                  : conjugate gradient
  Preconditioner : FULL_ALL            : diagonalization, state selective
  Precond_solver : DEFAULT
  Line search    : 2PNT                : 2 energies, one gradient
  stepsize       :    0.15000000                  energy_gap     :    0.08000000
  eps_taylor     :   0.10000E-15                  max_taylor     :             4
  ----------------------------------- OT ---------------------------------------

  Step     Update method      Time    Convergence         Total energy    Change
  ------------------------------------------------------------------------------
     1 OT CG       0.15E+00    0.3     0.01373040       -16.0971865420 -1.61E+01
     2 OT LS       0.21E+00    0.3                      -16.0989493048
     3 OT CG       0.21E+00    0.5     0.00211480       -16.0990899428 -1.90E-03
     4 OT LS       0.20E+00    0.3                      -16.0991343099
     5 OT CG       0.20E+00    0.6     0.00019417       -16.0991343226 -4.44E-05
     6 OT LS       0.18E+00    0.4                      -16.0991346559
     7 OT CG       0.18E+00    0.8     0.00002911       -16.0991346600 -3.37E-07

  *** SCF run converged in     7 steps ***


  Electronic density on regular grids:        -13.9999999997        0.0000000003
  Core density on regular grids:               13.9999999987       -0.0000000013
  Total charge density on r-space grids:       -0.0000000010
  Total charge density g-space grids:          -0.0000000010

  Overlap energy of the core charge distribution:               0.00001873297950
  Self energy of the core charge distribution:                -38.70122451907286
  Core Hamiltonian energy:                                     12.76715926266231
  Hartree energy:                                              15.47315540037265
  Exchange-correlation energy:                                 -5.63824353691436

  Total energy:                                               -16.09913465997275

  outer SCF iter =    1 RMS gradient =   0.29E-04 energy =        -16.0991346600
  outer SCF loop converged in   1 iterations or    7 steps


 ENERGY| Total FORCE_EVAL ( QS ) energy [a.u.]:              -16.099134668419012

 STRESS| Analytical stress tensor [GPa]
 STRESS|                        x                   y                   z
 STRESS|      x        1.58196603939E-01  -9.17191047786E-02  -4.34101573450E-02
 STRESS|      y       -9.17191047786E-02  -2.13258429620E-02   3.07094999345E-02
 STRESS|      z       -4.34101573450E-02   3.07094999345E-02   6.64483346149E-02
 STRESS| 1/3 Trace                                             6.77730318639E-02
 STRESS| Determinant                                          -6.47626176613E-04

 STRESS| Eigenvectors and eigenvalues of the analytical stress tensor [GPa]
 STRESS|                        1                   2                   3
 STRESS| Eigenvalues  -6.10242507050E-02   4.93661921529E-02   2.14977154144E-01
 STRESS|      x           0.367611737662      0.342984162356      0.864420889790
 STRESS|      y           0.924842010637     -0.037263161195     -0.378521745978
 STRESS|      z          -0.097615909022      0.938601790532     -0.330904537768

 Number of electrons:                                                         14
 Number of occupied orbitals:                                                  7
 Number of molecular orbitals:                                                 7

 Number of orbital functions:                                                 14
 Number of independent orbital functions:                                     14

 Extrapolation method: ASPC


 SCF WAVEFUNCTION OPTIMIZATION

  ----------------------------------- OT ---------------------------------------
  Minimizer      : CG                  : conjugate gradient
  Preconditioner : FULL_ALL            : diagonalization, state selective
  Precond_solver : DEFAULT
  Line search    : 2PNT                : 2 energies, one gradient
  stepsize       :    0.15000000                  energy_gap     :    0.08000000
  eps_taylor     :   0.10000E-15                  max_taylor     :             4
  ----------------------------------- OT ---------------------------------------

  Step     Update method      Time    Convergence         Total energy    Change
  ------------------------------------------------------------------------------
     1 OT CG       0.15E+00    0.4     0.01292862       -16.0963081975 -1.61E+01
     2 OT LS       0.21E+00    0.4                      -16.0978845305
     3 OT CG       0.21E+00    0.8     0.00213969       -16.0980215689 -1.71E-03
     4 OT LS       0.19E+00    0.4                      -16.0980640682
     5 OT CG       0.19E+00    0.7     0.00026545       -16.0980644500 -4.29E-05
     6 OT LS       0.16E+00    0.4                      -16.0980649892
     7 OT CG       0.16E+00    0.7     0.00004363       -16.0980650079 -5.58E-07

  *** SCF run converged in     7 steps ***


  Electronic density on regular grids:        -13.9999999997        0.0000000003
  Core density on regular grids:               13.9999999987       -0.0000000013
  Total charge density on r-space grids:       -0.0000000010
  Total charge density g-space grids:          -0.0000000010

  Overlap energy of the core charge distribution:               0.00001323696081
  Self energy of the core charge distribution:                -38.70122451907286
  Core Hamiltonian energy:                                     12.74461856696910
  Hartree energy:                                              15.48761984391335
  Exchange-correlation energy:                                 -5.62909213668996

  Total energy:                                               -16.09806500791957

  outer SCF iter =    1 RMS gradient =   0.44E-04 energy =        -16.0980650079
  outer SCF loop converged in   1 iterations or    7 steps


 ENERGY| Total FORCE_EVAL ( QS ) energy [a.u.]:              -16.098065024576595

 STRESS| Analytical stress tensor [GPa]
 STRESS|                        x                   y                   z
 STRESS|      x        3.51547514317E-03  -1.01140021977E-01   7.69181498680E-02
 STRESS|      y       -1.01140021977E-01  -6.20434175497E-02   4.52379474871E-02
 STRESS|      z        7.69181498680E-02   4.52379474871E-02   9.57519060015E-02
 STRESS| 1/3 Trace                                             1.24079878650E-02
 STRESS| Determinant                                          -1.34433807276E-03

 STRESS| Eigenvectors and eigenvalues of the analytical stress tensor [GPa]
 STRESS|                        1                   2                   3
 STRESS| Eigenvalues  -1.62093458779E-01   5.91832843531E-02   1.40134138021E-01
 STRESS|      x           0.595944352237      0.601442804257      0.532087288181
 STRESS|      y           0.741653400015     -0.666288362832     -0.077524523865
 STRESS|      z          -0.307897001093     -0.440824648542      0.843132887483

 Number of electrons:                                                         14
 Number of occupied orbitals:                                                  7
 Number of molecular orbitals:                                                 7

 Number of orbital functions:                                                 14
 Number of independent orbital functions:                                     14

 Extrapolation method: ASPC


 SCF WAVEFUNCTION OPTIMIZATION

  ----------------------------------- OT ---------------------------------------
  Minimizer      : CG                  : conjugate gradient
  Preconditioner : FULL_ALL            : diagonalization, state selective
  Precond_solver : DEFAULT
  Line search    : 2PNT                : 2 energies, one gradient
  stepsize       :    0.15000000                  energy_gap     :    0.08000000
  eps_taylor     :   0.10000E-15                  max_taylor     :             4
  ----------------------------------- OT ---------------------------------------

  Step     Update method      Time    Convergence         Total energy    Change
  ------------------------------------------------------------------------------
     1 OT CG       0.15E+00    0.3     0.01218971       -16.0964828243 -1.61E+01
     2 OT LS       0.21E+00    0.3                      -16.0978906152
     3 OT CG       0.21E+00    0.6     0.00211180       -16.0980192688 -1.54E-03
     4 OT LS       0.18E+00    0.3                      -16.0980584664
     5 OT CG       0.18E+00    0.5     0.00028773       -16.0980593690 -4.01E-05
     6 OT LS       0.16E+00    0.3                      -16.0980599770
     7 OT CG       0.16E+00    0.6     0.00005173       -16.0980599980 -6.29E-07

  *** SCF run converged in     7 steps ***


  Electronic density on regular grids:        -13.9999999997        0.0000000003
  Core density on regular grids:               13.9999999987       -0.0000000013
  Total charge density on r-space grids:       -0.0000000010
  Total charge density g-space grids:          -0.0000000010

  Overlap energy of the core charge distribution:               0.00001323696081
  Self energy of the core charge distribution:                -38.70122451907286
  Core Hamiltonian energy:                                     12.74489076352042
  Hartree energy:                                              15.48740332561275
  Exchange-correlation energy:                                 -5.62914280505831

  Total energy:                                               -16.09805999803719

  outer SCF iter =    1 RMS gradient =   0.52E-04 energy =        -16.0980599980
  outer SCF loop converged in   1 iterations or    7 steps


 ENERGY| Total FORCE_EVAL ( QS ) energy [a.u.]:              -16.098060021678926

 STRESS| Analytical stress tensor [GPa]
 STRESS|                        x                   y                   z
 STRESS|      x        3.40315411915E-03  -1.01174829237E-01   7.69078466567E-02
 STRESS|      y       -1.01174829237E-01  -6.21483262145E-02   4.52345276863E-02
 STRESS|      z        7.69078466567E-02   4.52345276863E-02   9.57241013125E-02
 STRESS| 1/3 Trace                                             1.23263097390E-02
 STRESS| Determinant                                          -1.34343037259E-03

 STRESS| Eigenvectors and eigenvalues of the analytical stress tensor [GPa]
 STRESS|                        1                   2                   3
 STRESS| Eigenvalues  -1.62219121958E-01   5.91220256751E-02   1.40076025500E-01
 STRESS|      x           0.595984860117      0.601591527949      0.531873744428
 STRESS|      y           0.741676592335     -0.666268374091     -0.077474422028
 STRESS|      z          -0.307762698997     -0.440651888895      0.843272218159

 Number of electrons:                                                         14
 Number of occupied orbitals:                                                  7
 Number of molecular orbitals:                                                 7

 Number of orbital functions:                                                 14
 Number of independent orbital functions:                                     14

 Extrapolation method: ASPC


 SCF WAVEFUNCTION OPTIMIZATION

  ----------------------------------- OT ---------------------------------------
  Minimizer      : CG                  : conjugate gradient
  Preconditioner : FULL_ALL            : diagonalization, state selective
  Precond_solver : DEFAULT
  Line search    : 2PNT                : 2 energies, one gradient
  stepsize       :    0.15000000                  energy_gap     :    0.08000000
  eps_taylor     :   0.10000E-15                  max_taylor     :             4
  ----------------------------------- OT ---------------------------------------

  Step     Update method      Time    Convergence         Total energy    Change
  ------------------------------------------------------------------------------
     1 OT CG       0.15E+00    0.3     0.01046278       -16.0998370554 -1.61E+01
     2 OT LS       0.21E+00    0.3                      -16.1008781220
     3 OT CG       0.21E+00    0.6     0.00193882       -16.1009761671 -1.14E-03
     4 OT LS       0.17E+00    0.3                      -16.1010066978
     5 OT CG       0.17E+00    0.6     0.00028546       -16.1010082401 -3.21E-05
     6 OT LS       0.16E+00    0.3                      -16.1010088526
     7 OT CG       0.16E+00    0.6     0.00004646       -16.1010088615 -6.21E-07

  *** SCF run converged in     7 steps ***


  Electronic density on regular grids:        -13.9999999997        0.0000000003
  Core density on regular grids:               13.9999999987       -0.0000000013
  Total charge density on r-space grids:       -0.0000000010
  Total charge density g-space grids:          -0.0000000010

  Overlap energy of the core charge distribution:               0.00000835378905
  Self energy of the core charge distribution:                -38.70122451907286
  Core Hamiltonian energy:                                     12.71777591339614
  Hartree energy:                                              15.50175515804301
  Exchange-correlation energy:                                 -5.61932376766696

  Total energy:                                               -16.10100886151161

  outer SCF iter =    1 RMS gradient =   0.46E-04 energy =        -16.1010088615
  outer SCF loop converged in   1 iterations or    7 steps


 ENERGY| Total FORCE_EVAL ( QS ) energy [a.u.]:              -16.101008880488145

 STRESS| Analytical stress tensor [GPa]
 STRESS|                        x                   y                   z
 STRESS|      x       -1.67534220284E-01  -9.01539779420E-02   1.06996356110E-01
 STRESS|      y       -9.01539779420E-02  -9.37680673818E-02   2.52853558970E-02
 STRESS|      z        1.06996356110E-01   2.52853558970E-02   9.46191786317E-02
 STRESS| 1/3 Trace                                            -5.55610363448E-02
 STRESS| Determinant                                           1.41014451939E-03

 STRESS| Eigenvectors and eigenvalues of the analytical stress tensor [GPa]
 STRESS|                        1                   2                   3
 STRESS| Eigenvalues  -2.58622624982E-01  -4.10114851413E-02   1.32951001089E-01
 STRESS|      x           0.822132830516     -0.453767089933      0.343792142264
 STRESS|      y           0.493209631407      0.869320271910     -0.032039418439
 STRESS|      z          -0.284327044925      0.195902253536      0.938499034940

 Number of electrons:                                                         14
 Number of occupied orbitals:                                                  7
 Number of molecular orbitals:                                                 7

 Number of orbital functions:                                                 14
 Number of independent orbital functions:                                     14

 Extrapolation method: ASPC


 SCF WAVEFUNCTION OPTIMIZATION

  ----------------------------------- OT ---------------------------------------
  Minimizer      : CG                  : conjugate gradient
  Preconditioner : FULL_ALL            : diagonalization, state selective
  Precond_solver : DEFAULT
  Line search    : 2PNT                : 2 energies, one gradient
  stepsize       :    0.15000000                  energy_gap     :    0.08000000
  eps_taylor     :   0.10000E-15                  max_taylor     :             4
  ----------------------------------- OT ---------------------------------------

  Step     Update method      Time    Convergence         Total energy    Change
  ------------------------------------------------------------------------------
     1 OT CG       0.15E+00    0.3     0.00920271       -16.1000860758 -1.61E+01
     2 OT LS       0.21E+00    0.3                      -16.1008952667
     3 OT CG       0.21E+00    0.5     0.00175352       -16.1009755476 -8.89E-04
     4 OT LS       0.17E+00    0.3                      -16.1009987000
     5 OT CG       0.17E+00    0.6     0.00027139       -16.1010007194 -2.52E-05
     6 OT LS       0.16E+00    0.3                      -16.1010012789
     7 OT CG       0.16E+00    0.5     0.00004523       -16.1010012818 -5.62E-07

  *** SCF run converged in     7 steps ***


  Electronic density on regular grids:        -13.9999999997        0.0000000003
  Core density on regular grids:               13.9999999987       -0.0000000013
  Total charge density on r-space grids:       -0.0000000011
  Total charge density g-space grids:          -0.0000000011

  Overlap energy of the core charge distribution:               0.00000835378905
  Self energy of the core charge distribution:                -38.70122451907286
  Core Hamiltonian energy:                                     12.71796374335501
  Hartree energy:                                              15.50161445817568
  Exchange-correlation energy:                                 -5.61936331805840

  Total energy:                                               -16.10100128181151

  outer SCF iter =    1 RMS gradient =   0.45E-04 energy =        -16.1010012818
  outer SCF loop converged in   1 iterations or    7 steps


 ENERGY| Total FORCE_EVAL ( QS ) energy [a.u.]:              -16.101001300637602

 STRESS| Analytical stress tensor [GPa]
 STRESS|                        x                   y                   z
 STRESS|      x       -1.67591308559E-01  -9.01733500688E-02   1.06998183155E-01
 STRESS|      y       -9.01733500688E-02  -9.38831478041E-02   2.53051109213E-02
 STRESS|      z        1.06998183155E-01   2.53051109213E-02   9.46089751640E-02
 STRESS| 1/3 Trace                                            -5.56218270663E-02
 STRESS| Determinant                                           1.41313158700E-03

 STRESS| Eigenvectors and eigenvalues of the analytical stress tensor [GPa]
 STRESS|                        1                   2                   3
 STRESS| Eigenvalues  -2.58712142040E-01  -4.10889076113E-02   1.32935568452E-01
 STRESS|      x           0.822053946584     -0.453954563983      0.343733272675
 STRESS|      y           0.493366817806      0.869234482072     -0.031946803687
 STRESS|      z          -0.284282415906      0.195848586965      0.938523755155

 Number of electrons:                                                         14
 Number of occupied orbitals:                                                  7
 Number of molecular orbitals:                                                 7

 Number of orbital functions:                                                 14
 Number of independent orbital functions:                                     14

 Extrapolation method: ASPC


 SCF WAVEFUNCTION OPTIMIZATION

  ----------------------------------- OT ---------------------------------------
  Minimizer      : CG                  : conjugate gradient
  Preconditioner : FULL_ALL            : diagonalization, state selective
  Precond_solver : DEFAULT
  Line search    : 2PNT                : 2 energies, one gradient
  stepsize       :    0.15000000                  energy_gap     :    0.08000000
  eps_taylor     :   0.10000E-15                  max_taylor     :             4
  ----------------------------------- OT ---------------------------------------

  Step     Update method      Time    Convergence         Total energy    Change
  ------------------------------------------------------------------------------
     1 OT CG       0.15E+00    0.3     0.00825483       -16.1044853285 -1.61E+01
     2 OT LS       0.22E+00    0.3                      -16.1051386608
     3 OT CG       0.22E+00    0.6     0.00169797       -16.1052051253 -7.20E-04
     4 OT LS       0.16E+00    0.3                      -16.1052241343
     5 OT CG       0.16E+00    0.6     0.00026793       -16.1052272541 -2.21E-05
     6 OT LS       0.16E+00    0.3                      -16.1052278273
     7 OT CG       0.16E+00    0.6     0.00004193       -16.1052278281 -5.74E-07

  *** SCF run converged in     7 steps ***


  Electronic density on regular grids:        -13.9999999997        0.0000000003
  Core density on regular grids:               13.9999999987       -0.0000000013
  Total charge density on r-space grids:       -0.0000000011
  Total charge density g-space grids:          -0.0000000011

  Overlap energy of the core charge distribution:               0.00000694389565
  Self energy of the core charge distribution:                -38.70122451907286
  Core Hamiltonian energy:                                     12.69473664093617
  Hartree energy:                                              15.51291327547488
  Exchange-correlation energy:                                 -5.61166016936740

  Total energy:                                               -16.10522782813355

  outer SCF iter =    1 RMS gradient =   0.42E-04 energy =        -16.1052278281
  outer SCF loop converged in   1 iterations or    7 steps


 ENERGY| Total FORCE_EVAL ( QS ) energy [a.u.]:              -16.105227844527590

 STRESS| Analytical stress tensor [GPa]
 STRESS|                        x                   y                   z
 STRESS|      x       -2.89894673608E-01  -6.24116759828E-02   3.27469210164E-02
 STRESS|      y       -6.24116759828E-02  -1.05401622676E-01  -2.52853327596E-02
 STRESS|      z        3.27469210164E-02  -2.52853327596E-02   6.00798907970E-02
 STRESS| 1/3 Trace                                            -1.11738801829E-01
 STRESS| Determinant                                           2.00346700212E-03

 STRESS| Eigenvectors and eigenvalues of the analytical stress tensor [GPa]
 STRESS|                        1                   2                   3
 STRESS| Eigenvalues  -3.10586646923E-01  -9.35690845645E-02   6.89393260010E-02
 STRESS|      x           0.956892595498     -0.263969070496      0.121148217080
 STRESS|      y           0.283022024439      0.941138139643     -0.184817574360
 STRESS|      z          -0.065231084328      0.211138182078      0.975277177886

 Number of electrons:                                                         14
 Number of occupied orbitals:                                                  7
 Number of molecular orbitals:                                                 7

 Number of orbital functions:                                                 14
 Number of independent orbital functions:                                     14

 Extrapolation method: ASPC


 SCF WAVEFUNCTION OPTIMIZATION

  ----------------------------------- OT ---------------------------------------
  Minimizer      : CG                  : conjugate gradient
  Preconditioner : FULL_ALL            : diagonalization, state selective
  Precond_solver : DEFAULT
  Line search    : 2PNT                : 2 energies, one gradient
  stepsize       :    0.15000000                  energy_gap     :    0.08000000
  eps_taylor     :   0.10000E-15                  max_taylor     :             4
  ----------------------------------- OT ---------------------------------------

  Step     Update method      Time    Convergence         Total energy    Change
  ------------------------------------------------------------------------------
     1 OT CG       0.15E+00    0.3     0.00812673       -16.1045031098 -1.61E+01
     2 OT LS       0.22E+00    0.3                      -16.1051366741
     3 OT CG       0.22E+00    0.6     0.00172619       -16.1052019639 -6.99E-04
     4 OT LS       0.15E+00    0.3                      -16.1052202935
     5 OT CG       0.15E+00    0.5     0.00027501       -16.1052241962 -2.22E-05
     6 OT LS       0.17E+00    0.3                      -16.1052248250
     7 OT CG       0.17E+00    0.6     0.00003946       -16.1052248334 -6.37E-07

  *** SCF run converged in     7 steps ***


  Electronic density on regular grids:        -13.9999999997        0.0000000003
  Core density on regular grids:               13.9999999987       -0.0000000013
  Total charge density on r-space grids:       -0.0000000011
  Total charge density g-space grids:          -0.0000000011

  Overlap energy of the core charge distribution:               0.00000694389565
  Self energy of the core charge distribution:                -38.70122451907286
  Core Hamiltonian energy:                                     12.69481987719451
  Hartree energy:                                              15.51285808493548
  Exchange-correlation energy:                                 -5.61168522037776

  Total energy:                                               -16.10522483342498

  outer SCF iter =    1 RMS gradient =   0.39E-04 energy =        -16.1052248334
  outer SCF loop converged in   1 iterations or    7 steps


 ENERGY| Total FORCE_EVAL ( QS ) energy [a.u.]:              -16.105224848426545

 STRESS| Analytical stress tensor [GPa]
 STRESS|                        x                   y                   z
 STRESS|      x       -2.89900740347E-01  -6.24045635693E-02   3.27595161682E-02
 STRESS|      y       -6.24045635693E-02  -1.05443912428E-01  -2.52636150926E-02
 STRESS|      z        3.27595161682E-02  -2.52636150926E-02   6.00739243750E-02
 STRESS| 1/3 Trace                                            -1.11756909467E-01
 STRESS| Determinant                                           2.00389332194E-03

 STRESS| Eigenvectors and eigenvalues of the analytical stress tensor [GPa]
 STRESS|                        1                   2                   3
 STRESS| Eigenvalues  -3.10594137549E-01  -9.36035412789E-02   6.89269504270E-02
 STRESS|      x           0.956885319009     -0.263991334694      0.121157176727
 STRESS|      y           0.283035731151      0.941163644292     -0.184666644401
 STRESS|      z          -0.065278336052      0.210996611037      0.975304654440

 Number of electrons:                                                         14
 Number of occupied orbitals:                                                  7
 Number of molecular orbitals:                                                 7

 Number of orbital functions:                                                 14
 Number of independent orbital functions:                                     14

 Extrapolation method: ASPC


 SCF WAVEFUNCTION OPTIMIZATION

  ----------------------------------- OT ---------------------------------------
  Minimizer      : CG                  : conjugate gradient
  Preconditioner : FULL_ALL            : diagonalization, state selective
  Precond_solver : DEFAULT
  Line search    : 2PNT                : 2 energies, one gradient
  stepsize       :    0.15000000                  energy_gap     :    0.08000000
  eps_taylor     :   0.10000E-15                  max_taylor     :             4
  ----------------------------------- OT ---------------------------------------

  Step     Update method      Time    Convergence         Total energy    Change
  ------------------------------------------------------------------------------
     1 OT CG       0.15E+00    0.3     0.00848878       -16.1016284112 -1.61E+01
     2 OT LS       0.22E+00    0.3                      -16.1023259085
     3 OT CG       0.22E+00    0.6     0.00163447       -16.1024034656 -7.75E-04
     4 OT LS       0.15E+00    0.4                      -16.1024195160
     5 OT CG       0.15E+00    0.7     0.00028206       -16.1024233913 -1.99E-05
     6 OT LS       0.17E+00    0.4                      -16.1024240425
     7 OT CG       0.17E+00    0.7     0.00003919       -16.1024240486 -6.57E-07

  *** SCF run converged in     7 steps ***


  Electronic density on regular grids:        -13.9999999998        0.0000000002
  Core density on regular grids:               13.9999999987       -0.0000000013
  Total charge density on r-space grids:       -0.0000000011
  Total charge density g-space grids:          -0.0000000011

  Overlap energy of the core charge distribution:               0.00000862659658
  Self energy of the core charge distribution:                -38.70122451907286
  Core Hamiltonian energy:                                     12.69369122417841
  Hartree energy:                                              15.51551552659266
  Exchange-correlation energy:                                 -5.61041490685474

  Total energy:                                               -16.10242404855995

  outer SCF iter =    1 RMS gradient =   0.39E-04 energy =        -16.1024240486
  outer SCF loop converged in   1 iterations or    7 steps


 ENERGY| Total FORCE_EVAL ( QS ) energy [a.u.]:              -16.102424063666231

 STRESS| Analytical stress tensor [GPa]
 STRESS|                        x                   y                   z
 STRESS|      x       -3.37179634824E-01  -1.64980546303E-02  -5.21714475680E-02
 STRESS|      y       -1.64980546303E-02  -7.91041959869E-02  -4.25414551132E-02
 STRESS|      z       -5.21714475680E-02  -4.25414551132E-02   7.64345173242E-02
 STRESS| 1/3 Trace                                            -1.13283104496E-01
 STRESS| Determinant                                           2.77017857404E-03

 STRESS| Eigenvectors and eigenvalues of the analytical stress tensor [GPa]
 STRESS|                        1                   2                   3
 STRESS| Eigenvalues  -3.45438256734E-01  -8.67997534827E-02   9.23886967299E-02
 STRESS|      x           0.988052881525     -0.109293704187     -0.108657211156
 STRESS|      y           0.082043570834      0.969848682025     -0.229482867465
 STRESS|      z           0.130462085665      0.217826582859      0.967228630678

 Number of electrons:                                                         14
 Number of occupied orbitals:                                                  7
 Number of molecular orbitals:                                                 7

 Number of orbital functions:                                                 14
 Number of independent orbital functions:                                     14

 Extrapolation method: ASPC


 SCF WAVEFUNCTION OPTIMIZATION

  ----------------------------------- OT ---------------------------------------
  Minimizer      : CG                  : conjugate gradient
  Preconditioner : FULL_ALL            : diagonalization, state selective
  Precond_solver : DEFAULT
  Line search    : 2PNT                : 2 energies, one gradient
  stepsize       :    0.15000000                  energy_gap     :    0.08000000
  eps_taylor     :   0.10000E-15                  max_taylor     :             4
  ----------------------------------- OT ---------------------------------------

  Step     Update method      Time    Convergence         Total energy    Change
  ------------------------------------------------------------------------------
     1 OT CG       0.15E+00    0.3     0.00909870       -16.1015014669 -1.61E+01
     2 OT LS       0.22E+00    0.3                      -16.1023093174
     3 OT CG       0.22E+00    0.6     0.00143249       -16.1024067031 -9.05E-04
     4 OT LS       0.16E+00    0.3                      -16.1024207157
     5 OT CG       0.16E+00    0.5     0.00027557       -16.1024230202 -1.63E-05
     6 OT LS       0.16E+00    0.3                      -16.1024236062
     7 OT CG       0.16E+00    0.6     0.00003946       -16.1024236067 -5.86E-07

  *** SCF run converged in     7 steps ***


  Electronic density on regular grids:        -13.9999999998        0.0000000002
  Core density on regular grids:               13.9999999987       -0.0000000013
  Total charge density on r-space grids:       -0.0000000011
  Total charge density g-space grids:          -0.0000000011

  Overlap energy of the core charge distribution:               0.00000862659658
  Self energy of the core charge distribution:                -38.70122451907286
  Core Hamiltonian energy:                                     12.69378525157016
  Hartree energy:                                              15.51544473234649
  Exchange-correlation energy:                                 -5.61043769813594

  Total energy:                                               -16.10242360669557

  outer SCF iter =    1 RMS gradient =   0.39E-04 energy =        -16.1024236067
  outer SCF loop converged in   1 iterations or    7 steps


 ENERGY| Total FORCE_EVAL ( QS ) energy [a.u.]:              -16.102423621840593

 STRESS| Analytical stress tensor [GPa]
 STRESS|                        x                   y                   z
 STRESS|      x       -3.37201559095E-01  -1.64939619769E-02  -5.21677869842E-02
 STRESS|      y       -1.64939619769E-02  -7.91367259088E-02  -4.25398005295E-02
 STRESS|      z       -5.21677869842E-02  -4.25398005295E-02   7.64182487174E-02
 STRESS| 1/3 Trace                                            -1.13306678762E-01
 STRESS| Determinant                                           2.77080685008E-03

 STRESS| Eigenvectors and eigenvalues of the analytical stress tensor [GPa]
 STRESS|                        1                   2                   3
 STRESS| Eigenvalues  -3.45458513554E-01  -8.68317280109E-02   9.23702052790E-02
 STRESS|      x           0.988055509226     -0.109275190197     -0.108651937380
 STRESS|      y           0.082029731384      0.969855409578     -0.229459381330
 STRESS|      z           0.130450886766      0.217805916629      0.967234795085

 -------------------------------------------------------------------------------
 -                                                                             -
 -                         MESSAGE PASSING PERFORMANCE                         -
 -                                                                             -
 -------------------------------------------------------------------------------

 ROUTINE             CALLS      AVE VOLUME [Bytes]
 MP_Group                3
 MP_Bcast             7544                  55053.
 MP_Allreduce        40654                     43.
 MP_Sync               646
 MP_Alltoall         10886               61962140.
 MP_SendRecv          5140                5989198.
 MP_ISendRecv         3277                6163870.
 MP_Wait              3277
 MP_comm_split         643
 -------------------------------------------------------------------------------


 -------------------------------------------------------------------------------
 -                                                                             -
 -                           R E F E R E N C E S                               -
 -                                                                             -
 -------------------------------------------------------------------------------
 
 CP2K version 2023.2, the CP2K developers group (2023).
 CP2K is freely available from https://www.cp2k.org/ .

 Kuehne,Thomas D.; Iannuzzi,Marcella; Del Ben,Mauro;
 Rybkin,Vladimir V.; Seewald,Patrick; Stein,Frederick; Laino,Teodoro;
 Khaliullin,Rustam Z.; Schuett,Ole; Schiffmann,Florian; Golze,Dorothea;
 Wilhelm,Jan; Chulkov,Sergey; Bani-Hashemian,Mohammad Hossein;
 Weber,Valery; Borstnik,Urban; Taillefumier,Mathieu;
 Jakobovits,Alice Shoshana; Lazzaro,Alfio; Pabst,Hans; Mueller,Tiziano;
 Schade,Robert; Guidon,Manuel; Andermatt,Samuel; Holmberg,Nico;
 Schenter,Gregory K.; Hehn,Anna; Bussy,Augustin; Belleflamme,Fabian;
 Tabacchi,Gloria; Gloess,Andreas; Lass,Michael; Bethune,Iain;
 Mundy,Christopher J.; Plessl,Christian; Watkins,Matt;
 VandeVondele,Joost; Krack,Matthias; Hutter,Juerg. 
 The Journal of Chemical Physics, 152 (19), (2020). 
 CP2K: An electronic structure and molecular dynamics software package -
 Quickstep: Efficient and accurate electronic structure calculations.
 https://doi.org/10.1063/5.0007045

 Marek, A; Blum, V; Johanni, R; Havu, V; Lang, B; Auckenthaler, T;
 Heinecke, A; Bungartz, H; Lederer, H. 
 Journal of Physics: Condensed Matter, 26 (21), (2014). 
 The ELPA library: scalable parallel eigenvalue solutions for
 electronic structure
 theory and computational science.
 https://doi.org/10.1088/0953-8984/26/21/213201

 VandeVondele, J; Hutter, J. 
 JOURNAL OF CHEMICAL PHYSICS, 127 (11), 114105 (2007). 
 Gaussian basis sets for accurate calculations on molecular systems in
 gas and condensed phases.
 https://doi.org/10.1063/1.2770708

 Kuhne, TD; Krack, M; Mohamed, FR; Parrinello, M. 
 PHYSICAL REVIEW LETTERS, 98 (6), 066401 (2007). 
 Efficient and accurate Car-Parrinello-like approach to
 Born-Oppenheimer molecular dynamics.
 https://doi.org/10.1103/PhysRevLett.98.066401

 Krack, M. 
 THEORETICAL CHEMISTRY ACCOUNTS, 114 (1-3), 145-152 (2005). 
 Pseudopotentials for H to Kr optimized for gradient-corrected
 exchange-correlation functionals.
 https://doi.org/10.1007/s00214-005-0655-y

 VandeVondele, J; Krack, M; Mohamed, F; Parrinello, M; Chassaing, T;
 Hutter, J. COMPUTER PHYSICS COMMUNICATIONS, 167 (2), 103-128 (2005). 
 QUICKSTEP: Fast and accurate density functional calculations using a
 mixed Gaussian and plane waves approach.
 https://doi.org/10.1016/j.cpc.2004.12.014

 Frigo, M; Johnson, SG. 
 PROCEEDINGS OF THE IEEE, 93 (2), 216-231 (2005). 
 The design and implementation of FFTW3.
 https://doi.org/10.1109/JPROC.2004.840301

 Kolafa, J. 
 JOURNAL OF COMPUTATIONAL CHEMISTRY, 25 (3), 335-342 (2004). 
 Time-reversible always stable predictor-corrector method for
 molecular dynamics of polarizable molecules.
 https://doi.org/10.1002/jcc.10385

 VandeVondele, J; Hutter, J. 
 JOURNAL OF CHEMICAL PHYSICS, 118 (10), 4365-4369 (2003). 
 An efficient orbital transformation method for electronic structure
 calculations.
 https://doi.org/10.1063/1.1543154

 Hartwigsen, C; Goedecker, S; Hutter, J. 
 PHYSICAL REVIEW B, 58 (7), 3641-3662 (1998). 
 Relativistic separable dual-space Gaussian pseudopotentials from H to Rn.
 https://doi.org/10.1103/PhysRevB.58.3641

 Lippert, G; Hutter, J; Parrinello, M. 
 MOLECULAR PHYSICS, 92 (3), 477-487 (1997). 
 A hybrid Gaussian and plane wave density functional scheme.
 https://doi.org/10.1080/002689797170220

 Goedecker, S; Teter, M; Hutter, J. 
 PHYSICAL REVIEW B, 54 (3), 1703-1710 (1996). 
 Separable dual-space Gaussian pseudopotentials.
 https://doi.org/10.1103/PhysRevB.54.1703


 -------------------------------------------------------------------------------
 -                                                                             -
 -                                T I M I N G                                  -
 -                                                                             -
 -------------------------------------------------------------------------------
 SUBROUTINE                       CALLS  ASD         SELF TIME        TOTAL TIME
                                MAXIMUM       AVERAGE  MAXIMUM  AVERAGE  MAXIMUM
 CP2K                                 1  1.0    3.750    3.755  823.642  823.643
 qs_forces                          202  2.0    0.011    0.011  819.501  819.502
 qs_energies                        202  3.0    0.007    0.008  730.628  730.630
 scf_env_do_scf                     202  4.0    0.007    0.010  650.027  650.028
 scf_env_do_scf_inner_loop         1444  5.0    0.066    0.110  589.331  589.335
 pw_transfer                      14178  9.7    0.620    0.638  570.006  570.821
 fft_wrap_pw1pw2                  10886 10.7    0.083    0.084  555.829  556.184
 fft_wrap_pw1pw2_200               5544 11.3   97.825  100.495  491.924  494.868
 qs_rho_update_rho_low             1646  6.1    0.006    0.006  415.603  415.610
 calculate_rho_elec                1646  7.1    6.000    6.064  415.597  415.604
 density_rs2pw                     1646  8.1    0.060    0.061  387.579  387.913
 rebuild_ks_matrix                 1646  6.6    0.004    0.005  366.366  366.366
 qs_ks_build_kohn_sham_matrix      1646  7.6    0.153    0.155  366.361  366.362
 fft3d_ps                         10886 12.7  233.206  233.458  310.326  319.260
 qs_ks_update_qs_env               1646  6.0    0.009    0.009  277.978  278.005
 sum_up_and_integrate              1025  8.4    5.206    5.301  152.541  152.992
 integrate_v_rspace                1025  9.4    0.032    0.032  147.333  147.689
 potential_pw2rs                   1025 10.4    0.385    0.387  140.524  140.587
 pw_gather_p                       6165 12.4   94.328   96.140   94.328   96.140
 qs_ks_update_qs_env_forces         202  3.0    0.001    0.001   88.449   88.449
 rs_pw_transfer                    8417  9.9    0.089    0.092   68.904   69.522
 pw_poisson_solve                  1646  8.6    8.479    8.934   64.258   64.258
 init_scf_loop                      202  5.0    0.003    0.003   60.652   60.652
 fft_wrap_pw1pw2_70                2671 12.0    7.272    7.320   56.356   58.551
 init_scf_run                       202  4.0    0.004    0.006   52.739   52.739
 scf_env_initial_rho_setup          202  5.0    0.002    0.003   52.734   52.736
 wfi_extrapolate                    202  6.0    0.008    0.008   52.359   52.361
 pw_scatter_p                      4721 13.0   44.736   49.590   44.736   49.590
 mp_alltoall_z22v                 10886 14.7   36.025   45.835   36.025   45.835
 yz_to_x                           6165 13.4   22.725   23.069   41.099   44.608
 qs_vxc_create                     1646  8.6    0.019    0.019   42.781   42.964
 rs_pw_transfer_RS2PW_200          1848  9.9   32.280   32.584   41.728   42.160
 x_to_yz                           4721 14.0   18.220   18.505   35.872   41.544
 pw_integral_ab                    2858  8.5   31.190   32.139   33.678   35.010
 xc_rho_set_and_dset_create        1646 10.6    0.061    0.063   33.225   33.887
 pw_copy                          11290 10.6   32.351   33.043   32.351   33.043
 xc_functional_eval                1646 11.6   29.577   30.278   29.577   30.278
 xc_vxc_pw_create                  1025  9.4    3.740    3.779   28.819   29.002
 qs_energies_init_hamiltonians      202  4.0    0.003    0.003   27.630   27.631
 qs_env_update_s_mstruct            202  5.0    0.002    0.002   26.722   26.932
 calculate_rho_core                 202  6.0    0.794    0.825   26.617   26.822
 grid_collocate_task_list          1646  8.1   21.124   21.727   21.124   21.727
 rs_pw_transfer_PW2RS_200          1227 11.7   13.323   13.426   16.737   16.779
 pw_axpy                           6584  9.0   16.168   16.622   16.168   16.622
 -------------------------------------------------------------------------------

 The number of warnings for this run is : 1
 
 -------------------------------------------------------------------------------
  **** **** ******  **  PROGRAM ENDED AT                 2026-04-15 15:48:16.577
 ***** ** ***  *** **   PROGRAM RAN ON                   cbe-dt-319.che.ncsu.edu
 **    ****   ******    PROGRAM RAN BY                                   rverma7
 ***** **    ** ** **   PROGRAM PROCESS ID                               3125155
  **** **  *******  **  PROGRAM STOPPED IN /home/rverma7/My_Program/0.3_sparc/ex
                                           amples/CP2K/MD/NVT
