B  H  N 
 1.0000000000000000
    12.0000000000000000    0.0000000000000000    0.0000000000000000
     0.0000000000000000   12.0000000000000000    0.0000000000000000
     0.0000000000000000    0.0000000000000000   12.0000000000000000
 B   H   N  
   1   6   1
Cartesian
  7.0531607456192926  3.3030488942032648  5.5761865393973231
  4.8762674883030979  7.3820795155989529  7.4490886314698201
  5.1491933143920452  8.8410210425769691  6.4007487870458171
  3.7972410806942314  7.7593779738987223  6.2662612149449570
  6.2810106812671798  3.1724840259182798  4.5509113685301834
  6.3044599144659941  3.1589789574230376  6.6193000492183529
  8.2027589193057686  3.6518055611702418  5.2544176952655874
  4.6086516529599049  8.0278003942223890  6.6581342133908343
