B  H  N 
 1.0000000000000000
    12.0000000000000000    0.0000000000000000    0.0000000000000000
     0.0000000000000000   12.0000000000000000    0.0000000000000000
     0.0000000000000000    0.0000000000000000   12.0000000000000000
 B   H   N  
   1   6   1
Cartesian
  7.2194328752105035  4.0606630561168942  5.1748904653318633
  4.3526735275389985  8.9691759151095347  6.7310530711046095
  4.6112121390393579  7.4127241998527253  5.7886952306811263
  4.4115905276346634  7.3463072429957492  7.6471386150422669
  6.6003324655285533  3.0308240848904688  4.7945845159358687
  7.6473264724609997  4.1997358352867700  6.2729392897200871
  7.4416242085524704  4.8786953457191977  4.3528613849577305
  4.3859447056137482  7.9253545949907611  6.7686729107528691
