B  H  N 
 1.0000000000000000
    12.0000000000000000    0.0000000000000000    0.0000000000000000
     0.0000000000000000   12.0000000000000000    0.0000000000000000
     0.0000000000000000    0.0000000000000000   12.0000000000000000
 B   H   N  
   1   6   1
Cartesian
  5.3146422564216387  6.0834019261852648  5.7507654586704291
  7.6637988589422683  6.2196012969350631  6.1740517825923282
  6.3905549386937004  5.4257097038179030  6.9295246788662439
  6.9347677127342733  6.9678323014802537  7.4967897360359217
  5.5376935358224380  6.2310571752929080  4.5032102639640641
  5.4620771504620542  5.0321676985197463  6.4054561235155063
  4.3362011410577210  6.6398979665489275  6.1639074683411641
  6.7826544953611467  6.4507791118346542  6.6166885573436787
