B  H  N 
 1.0000000000000000
    12.0000000000000000    0.0000000000000000    0.0000000000000000
     0.0000000000000000   12.0000000000000000    0.0000000000000000
     0.0000000000000000    0.0000000000000000   12.0000000000000000
 B   H   N  
   1   6   1
Cartesian
  8.4840907386987006  5.2914803982690870  5.8316353007458659
  3.2081618784439812  6.2906382301653565  6.3398251020501561
  4.1088712000770791  7.7750659070844250  6.9303289430597630
  4.6552498920962897  6.0569638514327409  7.3716180579262982
  8.4348403098604869  5.4562462590763516  4.6283819420737018
  8.2062644008641819  4.2249340929155892  6.3515985020591543
  8.7918381215560188  6.1858684724228397  6.5715567063932800
  3.9873844131922347  6.6796824212228358  6.8555653742320288
