8
Properties=species:S:1:pos:R:3:momenta:R:3:forces:R:3 energy=-2219.3910411513307 pbc="F F F"
B        0.00000000       0.10750000      -0.70850000       0.13147491      -0.50870835      -0.31912073       0.00000000      -0.00440790     -10.53357791
H        0.00000000       1.05450000       1.10750000       0.16514338       0.29684843      -0.21460688       0.00000000       0.16821978      -0.02446801
H        0.82000000      -0.36550000       1.10750000       0.11740061      -0.16385058      -0.37330306       0.15765111      -0.09528386      -0.01563755
H       -0.82000000      -0.36550000       1.10750000       0.04736582       0.13515853      -0.11116989      -0.15765111      -0.09528386      -0.01563755
H       -1.00600000       0.68850000      -1.10750000      -0.08709754      -0.06927840      -0.08467047       1.46598986      -0.84832614       0.81602321
H        0.00000000      -1.05450000      -1.10750000       0.01723524      -0.12945975      -0.08714978       0.00000000       1.70051984       0.81737263
H        1.00600000       0.68850000      -1.10750000      -0.31549556      -0.03932704       0.13516459      -1.46598986      -0.84832614       0.81602321
N        0.00000000       0.10750000       0.69750000      -0.81341683       0.21786843       0.13332732       0.00000000       0.02288827       8.13990198
8
Properties=species:S:1:pos:R:3:momenta:R:3:forces:R:3 energy=-2219.4683849418707 pbc="F F F"
B        0.01837277       0.09493768      -0.69838949      -0.06451091      -0.35626323      -1.01314303      -0.89931451      -0.31740127      -9.92854099
H        0.03316265       1.06921037       1.10085800       0.12619497       0.17911471      -0.26137441      -0.06819240      -0.61683515      -0.03518128
H        0.84898470      -0.38476785       1.08320713       0.10066853      -0.10003494      -0.40800056      -0.06567868       0.03341025       0.26404578
H       -0.78947845      -0.36320256       1.10574050       0.12580192       0.07769604      -0.22163210      -1.46755983      -0.80017868       0.83220394
H       -0.99258872       0.67112009      -1.10574050      -0.02391742      -0.13759646      -0.16670087       1.53285742      -0.89509081       0.89155508
H        0.02008760      -1.06921037      -1.10167173       0.06676536       0.06992186      -0.10689903       0.03026698       1.77095522       0.90634468
H        0.99258872       0.67401294      -1.08629443      -0.32215420      -0.04011646       0.02581461      -0.75085844      -0.52173678       0.56891251
N        0.01216465       0.09835104       0.71906781      -0.67609515       0.07133308       1.31806549       1.68847952       1.34687722       6.50066022
8
Properties=species:S:1:pos:R:3:momenta:R:3:forces:R:3 energy=-2219.623790225979 pbc="F F F"
B        0.03218638       0.07331802      -0.69794513      -0.04712991      -0.19029130      -1.70603770      -1.69782013      -0.38031185      -8.32464342
H        0.06116998       1.07049687       1.09951636       0.15658405       0.18929522      -0.12367426      -0.17761372      -1.29255223      -0.00251151
H        0.87913257      -0.41764782       1.06771383       0.18486425      -0.13153650      -0.20352049      -0.66121764       0.36884252       0.34953024
H       -0.77268658      -0.38137546       1.10775133      -0.10027197      -0.03910387      -0.00581691      -2.21521688      -1.17379836       1.37263022
H       -0.97039830       0.63931497      -1.10775133       0.10648661      -0.20350247      -0.08488297       1.27452488      -0.76215350       0.86649124
H        0.03533150      -1.07049687      -1.09661825      -0.01793267       0.20083198      -0.10853527       0.07183704       1.25303046       0.79073610
H        0.97039830       0.64882886      -1.07030483      -0.36457771      -0.06075742      -0.02752844       0.20652948      -0.03663611       0.23782644
N        0.02142460       0.07918364       0.74375540      -0.52179871       0.02156289       1.50544669       3.19897698       2.02357908       4.70994073
8
Properties=species:S:1:pos:R:3:momenta:R:3:forces:R:3 energy=-2219.796456059596 pbc="F F F"
B        0.03055237       0.04705553      -0.71447270      -0.08639178      -0.16372913      -1.97280145      -1.68490851      -0.25151875      -6.42165742
H        0.07757275       1.06459670       1.08874381       0.15977175       0.10855610      -0.09914783      -0.37037623      -1.93288716      -0.02522057
H        0.89108921      -0.44273048       1.04841367       0.04348932       0.12021544      -0.22764231      -0.99313295       0.44242708       0.45801219
H       -0.78500505      -0.41211281       1.11158570      -0.17540043      -0.07269790       0.15689117      -1.75970494      -0.87533748       1.30648951
H       -0.94733410       0.58945816      -1.11158570       0.27905195      -0.31654421      -0.00262635       0.46235072      -0.26026698       0.55982649
H        0.03098321      -1.06459670      -1.10235538      -0.01478176       0.31096914      -0.03751134       0.15842604       0.30460576       0.50984481
H        0.94733410       0.62286369      -1.07587738      -0.12029094       0.01676278       0.00731945       0.81701154       0.28334191       0.04808411
N        0.01703203       0.05433037       0.75374812      -0.63179093      -0.19672470       1.49274466       3.37033428       2.28963557       3.56462094
8
Properties=species:S:1:pos:R:3:momenta:R:3:forces:R:3 energy=-2219.968306114908 pbc="F F F"
B        0.02326027       0.03319075      -0.75278900      -0.01277842       0.05530142      -2.63221799      -1.20496903      -0.07066796      -4.01211381
H        0.08069438       1.04916108       1.06725784      -0.04092814      -0.11124932      -0.02210116      -0.45017485      -1.74026406       0.09650251
H        0.87729986      -0.44460875       1.01912398      -0.07635127       0.11814235      -0.00564077      -0.33034729      -0.08426817       0.79869577
H       -0.82885463      -0.43717294       1.12326592      -0.44242143      -0.11307414       0.33456601       0.32642481       0.25311119       0.41143721
H       -0.93118583       0.54445432      -1.12326592       0.16830191      -0.27180272       0.09223389      -0.61945737       0.45310956       0.02984583
H        0.02111221      -1.04916108      -1.11262821      -0.06295105       0.22334928       0.06375023       0.29160991      -0.84895508       0.02965017
H        0.93118583       0.61426296      -1.08014392      -0.05643191       0.11793039       0.24685209       1.23079772       0.52388293      -0.22240718
N        0.00819435       0.03954350       0.74700096       0.02918749      -0.19341262       1.30473152       0.75611609       1.51405149       2.86838955
8
Properties=species:S:1:pos:R:3:momenta:R:3:forces:R:3 energy=-2219.9670383609237 pbc="F F F"
B        0.00863771       0.03333468      -0.80352327      -0.28247403       0.02136931      -2.56029191       0.03869171       0.10567281      -1.75125038
H        0.06291456       1.03312112       1.03666182      -0.00185779      -0.20639529      -0.02478751      -0.33404515      -0.83922156       0.35116330
H        0.86195501      -0.43464094       0.99307578       0.02621980       0.06212058       0.06492896       0.09604495      -0.39704989       0.94948050
H       -0.87492430      -0.44352118       1.13751505      -0.17496219       0.00407786       0.41311708       2.08151288       1.07758953      -0.48281788
H       -0.92350652       0.52164792      -1.13751505       0.13786625      -0.16890838       0.13722220      -1.88590503       1.18837605      -0.60860186
H        0.01197973      -1.03312112      -1.12689878       0.12280982       0.00359815       0.20657923       0.38186243      -1.75609984      -0.45108764
H        0.92350652       0.62829400      -1.08232927       0.11861128       0.15275690       0.25490215       1.17786976       0.48638066      -0.43400415
N       -0.00446975       0.03847660       0.72815876      -0.39355951      -0.02680545       0.94927337      -1.55603149       0.13435223       2.42711817
8
Properties=species:S:1:pos:R:3:momenta:R:3:forces:R:3 energy=-2219.9659267404295 pbc="F F F"
B       -0.00637196       0.04402445      -0.84235039      -0.29158648      -0.03100620      -2.43329050       1.17778743       0.49834174      -0.41078025
H        0.04717241       1.02402299       1.01826497      -0.07002809      -0.12671813       0.08901506      -0.22184534       0.45487307       0.66488033
H        0.84513843      -0.41420651       0.98406035      -0.00831271       0.08469512       0.06787718       0.34168668      -0.59396545       0.96546669
H       -0.90091985      -0.42452867       1.15672878      -0.04040872       0.15586571       0.32888431       2.69887778       1.28072865      -0.93523756
H       -0.92831884       0.53402435      -1.15672878       0.00666682       0.05947390      -0.07741716      -2.38780739       1.37538716      -0.90159282
H        0.01655149      -1.02402299      -1.12903081       0.11513831      -0.07033009       0.13570702       0.35542239      -2.02724450      -0.73247289
H        0.92831884       0.65903022      -1.07733331       0.20389433       0.19536822       0.19887958       0.63934511       0.12234446      -0.47455909
N       -0.01924319       0.05092426       0.71841694      -0.32015670      -0.41048762       1.18446744      -2.60346666      -1.11046520       1.82429558
8
Properties=species:S:1:pos:R:3:momenta:R:3:forces:R:3 energy=-2220.109518827157 pbc="F F F"
B       -0.01450181       0.05696669      -0.86427541      -0.14093917       0.18729142      -1.79260290       1.50995115       0.64447899       0.13655834
H        0.03856611       1.02831211       1.02357000       0.01916418      -0.12852802       0.09931271      -0.13604027       0.82287500       0.66935992
H        0.83884201      -0.40123347       0.99511064      -0.01252437      -0.08351735       0.20442194       0.15103705      -0.51927752       0.80927772
H       -0.89335497      -0.39094599       1.17652259       0.28206525       0.23991924       0.20191981       2.07416554       0.80999577      -0.79344429
H       -0.94234353       0.56005866      -1.17652259      -0.16355678       0.20126606      -0.23921544      -1.99797094       1.10585315      -0.80223593
H        0.01915958      -1.02831211      -1.12498417       0.05249407      -0.25949427       0.01895270       0.31554828      -1.56408928      -0.76320545
H        0.94234353       0.68876792      -1.06413035       0.25143663       0.14644701       0.10473228       0.05446924      -0.28957509      -0.48607527
N       -0.02896727       0.06147803       0.72284610      -0.65442773      -0.43290729       0.94472260      -1.97116009      -1.01026102       1.22976501
8
Properties=species:S:1:pos:R:3:momenta:R:3:forces:R:3 energy=-2220.2865703688403 pbc="F F F"
B       -0.00743164       0.08045006      -0.87576264       0.12900515       0.35464066      -1.55526199       0.60947424       0.29222251      -0.06646148
H        0.04474704       1.04096968       1.03839143       0.00796457       0.02438135       0.19619628      -0.02187680       0.98349748       0.61083435
H        0.84476610      -0.39193281       1.01769434      -0.01628338      -0.10487264       0.26055390      -0.26203256      -0.20746835       0.50316169
H       -0.84861823      -0.34501053       1.19815074       0.34620288       0.18486264       0.15597027       0.33874935      -0.13470633      -0.13696895
H       -0.96683986       0.60757810      -1.19815074      -0.41143567       0.34135881      -0.27232295      -0.60824021       0.32466304      -0.32561481
H        0.03038766      -1.04096968      -1.12641143      -0.00163156      -0.39708324      -0.08500049       0.22461246      -0.31823261      -0.55282095
H        0.96683986       0.71545042      -1.05295013       0.09968631      -0.00835653       0.07270783      -0.29458242      -0.48619091      -0.49265122
N       -0.02598856       0.07822621       0.73260771      -0.48495367      -0.51213357       0.81294421       0.01389589      -0.45378483       0.46052148
8
Properties=species:S:1:pos:R:3:momenta:R:3:forces:R:3 energy=-2220.2577482374736 pbc="F F F"
B        0.00260643       0.09997868      -0.87711871      -0.11823940       0.37523943      -1.11856256      -0.46966849      -0.42540746      -0.39196903
H        0.05579143       1.06647812       1.06824133       0.04952081       0.06888998       0.10766550      -0.06499693       0.13587541       0.25447393
H        0.86467726      -0.38540118       1.05783269       0.20749043      -0.13100101       0.21668085      -1.18019455       0.32811778       0.00546020
H       -0.80739476      -0.31229764       1.21976989       0.24692895       0.18557457       0.05769413      -1.48675008      -1.05637211       0.76202819
H       -0.98717596       0.65927664      -1.21976989      -0.15893997       0.34374118      -0.37713958       0.68136486      -0.44084503       0.19219676
H        0.03763139      -1.06647812      -1.12766027      -0.08893277      -0.37608064      -0.17954958       0.12004672       1.08281642      -0.25706395
H        0.98717596       0.72421638      -1.04039196       0.11059407      -0.13052737      -0.04438977      -0.32647382      -0.47080960      -0.50877872
N       -0.02085009       0.09131542       0.75124276      -0.54833927      -0.44188995       0.96278943       2.72667228       0.84662459      -0.05634738
8
Properties=species:S:1:pos:R:3:momenta:R:3:forces:R:3 energy=-2220.0743382955734 pbc="F F F"
B        0.00184090       0.11667255      -0.87806912      -0.16145443       0.37274465      -0.88779923      -0.90023029      -0.98501284      -0.63717968
H        0.05971287       1.08479545       1.08133760       0.02713165       0.02002163      -0.02566492      -0.12187544      -0.22177463       0.10436957
H        0.88027029      -0.37658147       1.09351433      -0.02073201       0.01264780       0.21046334      -2.09232766       0.77206711      -0.46915473
H       -0.78984053      -0.28598296       1.23799823       0.00111522       0.00018275       0.15046745      -2.69098028      -1.65705554       1.43683427
H       -1.00256002       0.70290065      -1.23799823      -0.09992353       0.22090770      -0.24295272       1.37560401      -0.87472916       0.52767227
H        0.02769018      -1.08479545      -1.13253055      -0.11913243      -0.26263014      -0.14596693       0.06350620       2.02231168      -0.04785415
H        1.00256002       0.72557744      -1.03591174       0.12596741      -0.17866256      -0.00615497      -0.48061656      -0.50559128      -0.46618937
N       -0.02404790       0.10213427       0.76503130      -0.02435987      -0.28117745       0.60844977       4.84692001       1.44978466      -0.44849823
8
Properties=species:S:1:pos:R:3:momenta:R:3:forces:R:3 energy=-2220.1160091672214 pbc="F F F"
B       -0.00717652       0.12737483      -0.88973329      -0.42579143       0.27776326      -0.82868392      -0.79878052      -1.50828610      -0.53957684
H        0.05447062       1.09195799       1.07600514       0.06620838      -0.09159295       0.01750664      -0.11926356      -0.08614086       0.21504261
H        0.86205346      -0.36963292       1.10285225      -0.24930676      -0.02636744       0.08356963      -1.58012299       0.64771853      -0.46602925
H       -0.80474378      -0.29590625       1.25794312      -0.11465328      -0.26556444       0.26269525      -1.34112890      -0.80631853       0.54101877
H       -1.00744141       0.72302129      -1.25794312       0.06827058       0.03940526      -0.15081604       1.46461555      -0.91906141       0.61874137
H        0.01596844      -1.09195799      -1.14472090      -0.05378570       0.01913008      -0.08061988       0.00762060       2.44320140       0.04634830
H        1.00744141       0.71479001      -1.03367134       0.01138971      -0.16712795       0.14944714      -0.50498486      -0.40381477      -0.52752325
N       -0.02673525       0.11000946       0.76526835       0.45209587       0.12751714       0.24000487       2.87204468       0.63270174       0.11197829
8
Properties=species:S:1:pos:R:3:momenta:R:3:forces:R:3 energy=-2220.1926792201702 pbc="F F F"
B       -0.01496039       0.13244950      -0.90533726      -0.30682556       0.28498794      -0.65560392      -0.69012281      -1.71222304      -0.12430344
H        0.05784928       1.07659856       1.06977600      -0.01000246      -0.19409104       0.00717502      -0.06155407       0.84696104       0.55832898
H        0.82649140      -0.37265083       1.08977446      -0.26796485      -0.05820988      -0.10786935      -0.16059394       0.07659697      -0.10951224
H       -0.82435639      -0.32173972       1.27561696      -0.11807429      -0.29331459       0.15730850       0.34094342       0.32915378      -0.63289499
H       -1.00125591       0.72198942      -1.27561696       0.13097553      -0.08245319      -0.09227767       1.19174518      -0.68839169       0.54861756
H        0.00476016      -1.07659856      -1.15457119      -0.08091694       0.23704832       0.01771316       0.01014177       2.17200970      -0.02385249
H        1.00125591       0.69912892      -1.02626784      -0.05898808      -0.19163924       0.17291476      -0.22211433      -0.14812337      -0.69753890
N       -0.02598340       0.11279839       0.75857017       0.48958374       0.21909488       0.22293622      -0.40844517      -0.87598340       0.48115561
8
Properties=species:S:1:pos:R:3:momenta:R:3:forces:R:3 energy=-2220.1780862164396 pbc="F F F"
B       -0.03018344       0.12863332      -0.91465014      -0.72925127       0.36145328      -0.62397845      -0.12070101      -1.60639216       0.51481238
H        0.05741334       1.04933892       1.07334607       0.23020978      -0.12890755       0.18795223      -0.03527795       1.95731511       0.95256947
H        0.78803300      -0.38245553       1.08102166      -0.22396183      -0.05922915      -0.06006999       1.20226336      -0.56929895       0.20926807
H       -0.83933816      -0.35587936       1.28769315       0.03085608      -0.18166796       0.14096664       1.15697882       1.08393177      -1.27937311
H       -0.98746674       0.70240661      -1.28769315       0.28881642      -0.14334104      -0.01117027       0.47044316      -0.19028556       0.32738430
H       -0.00840551      -1.04933892      -1.14870008       0.03891823       0.35668258       0.19946048      -0.01153927       1.28574868      -0.24873368
H        0.98746674       0.67231773      -1.01797002       0.01394545      -0.18641288       0.09514821       0.07420600       0.12630149      -0.82968395
N       -0.03342027       0.10755760       0.75588358       0.14939188      -0.08967958      -0.17959604      -2.73637311      -2.08732033       0.35375652
8
Properties=species:S:1:pos:R:3:momenta:R:3:forces:R:3 energy=-2220.1165724891716 pbc="F F F"
B       -0.05073486       0.12537481      -0.92226819      -0.57113721       0.55194244      -0.23989227       0.94588301      -1.88049707       1.25998946
H        0.05269336       1.02833335       1.08277990       0.00644027      -0.05887834       0.15359167       0.00270382       2.36695147       1.12037243
H        0.76050413      -0.40410673       1.06745677      -0.09749671      -0.19235239      -0.03776807       1.63151986      -0.69629012       0.21178399
H       -0.84437752      -0.37992289       1.29267723       0.15125793      -0.12472212       0.01861837       1.17139942       1.34101002      -1.45725310
H       -0.97050429       0.67509688      -1.29267723       0.25235279      -0.18207632      -0.03161568      -0.72767866       0.60528684      -0.12984159
H       -0.02276360      -1.02833335      -1.14166536      -0.01497211       0.21788015       0.00766076      -0.05857231       0.48261867      -0.45635917
H        0.97050429       0.64348464      -1.01215795      -0.00687611      -0.21403194       0.01460895       0.32450867       0.39305017      -0.93348227
N       -0.04803719       0.09970914       0.74985479       0.09848286      -0.06210028      -0.11258762      -3.28976382      -2.61212999       0.38479020
8
Properties=species:S:1:pos:R:3:momenta:R:3:forces:R:3 energy=-2220.134614691186 pbc="F F F"
B       -0.07157949       0.11373764      -0.91874443      -0.22895843       0.20228155      -0.04089525       2.07082043      -2.11078489       1.72716079
H        0.02801386       1.02240471       1.11380112      -0.13404853       0.19576521       0.30987781       0.04043687       1.29865680       0.73215670
H        0.74138502      -0.44305308       1.07593570       0.01613024      -0.25212162       0.01823328       1.15249338      -0.11933936      -0.08425305
H       -0.83775693      -0.39594392       1.29172087       0.30616334       0.00971998      -0.12010561       0.21804772       0.93148874      -1.01665324
H       -0.96393823       0.64478062      -1.29172087       0.23226219      -0.08885412      -0.04450462      -1.70011016       1.31510893      -0.49932966
H       -0.04550608      -1.02240471      -1.14072548      -0.08148421       0.13807183      -0.10330156      -0.09807201      -0.10054855      -0.48186771
H        0.96393823       0.60309304      -1.00915890       0.19930900      -0.30650678      -0.09960646       0.24751385       0.51770637      -0.92345023
N       -0.06650310       0.08466786       0.75572774      -0.47401434       0.04342529      -0.12545194      -1.93113007      -1.73228793       0.54623646
8
Properties=species:S:1:pos:R:3:momenta:R:3:forces:R:3 energy=-2220.1597615221417 pbc="F F F"
B       -0.07902609       0.10072578      -0.89988771       0.20711660       0.02710853       0.23983007       2.08585233      -1.67662426       1.55738137
H        0.00414684       1.02262093       1.15722544      -0.20200079       0.07273674       0.18139933       0.12512676       0.09837679       0.21525982
H        0.73793965      -0.48036185       1.09734661       0.07527773      -0.28170643      -0.04957770       0.36956983       0.64324044      -0.41629850
H       -0.81832421      -0.39779310       1.28526156       0.13730333       0.15979944      -0.29531644      -1.47784285      -0.07631575      -0.03072371
H       -0.97278477       0.63063254      -1.28526156      -0.22653315       0.10750000      -0.18427180      -1.48159666       1.30707767      -0.39143634
H       -0.06265450      -1.02262093      -1.12617494      -0.16250413       0.03136630       0.07020478      -0.13599100      -0.55929170      -0.46729947
H        0.97278477       0.56264378      -1.00635275       0.13860676      -0.24579224      -0.15785242       0.03261213       0.56481937      -0.82986547
N       -0.07637105       0.07162901       0.77207733      -0.11624589       0.07630695       0.00940191       0.48226952      -0.30128251       0.36298230
8
Properties=species:S:1:pos:R:3:momenta:R:3:forces:R:3 energy=-2220.1607517499215 pbc="F F F"
B       -0.06789296       0.09838029      -0.87299729       0.17832362      -0.37439809       0.49753052       0.88261710      -0.83267373       0.74925114
H        0.00316064       1.02787326       1.19778809      -0.01515457       0.02393743       0.12799054       0.29051236      -0.47992513      -0.09230878
H        0.75896398      -0.49911026       1.11275283       0.04065910      -0.02817587      -0.06727055      -0.34063052       1.11658756      -0.49576709
H       -0.80250839      -0.37557955       1.28395372      -0.02956663       0.32277665      -0.22736139      -2.72122550      -1.05711259       0.82072005
H       -0.99851567       0.64646517      -1.28395372      -0.35970377       0.21132993      -0.20500798       0.03638852       0.46640591       0.28720685
H       -0.06318649      -1.02787326      -1.09616264      -0.09678304      -0.09525523       0.05292296      -0.15894659      -0.51808103      -0.42269947
H        0.99851567       0.54482361      -0.99715045       0.18058583      -0.15140435      -0.15171109      -0.27619101       0.51003908      -0.73354669
N       -0.06559268       0.07041152       0.79625304      -0.03316863       0.04352000      -0.19556500       2.28747564       0.79475993      -0.11285601
8
Properties=species:S:1:pos:R:3:momenta:R:3:forces:R:3 energy=-2220.086789017633 pbc="F F F"
B       -0.06134665       0.10040050      -0.84606661      -0.22868957      -0.61491154       0.51833808       0.16591021      -0.22370384      -0.12230734
H        0.01158137       1.03606543       1.23460455       0.13997513       0.04613885       0.14671047       0.27170083      -0.72318057      -0.37529182
H        0.78038706      -0.48558614       1.13385548       0.18664547       0.14869723       0.02894013      -0.95433957       1.16998696      -0.54910509
H       -0.80328260      -0.34251900       1.28637297      -0.16708895       0.16575371      -0.11575284      -3.46462888      -1.76087608       1.40477245
H       -1.02250442       0.67796140      -1.28637297      -0.11909698       0.25824545      -0.29091866       1.25941348      -0.31487850       0.88970481
H       -0.06257724      -1.03606543      -1.07006812      -0.00775749      -0.17062467      -0.01655727      -0.22369777      -0.18433443      -0.31496407
H        1.02250442       0.53764537      -0.99005492       0.20060027      -0.11394084      -0.14105322      -0.71762786       0.36099340      -0.58395388
N       -0.06047367       0.07809771       0.81736419      -0.12657257       0.23750677      -0.28215305       3.66326954       1.67599306      -0.34885517
8
Properties=species:S:1:pos:R:3:momenta:R:3:forces:R:3 energy=-2220.127729029548 pbc="F F F"
B       -0.07360811       0.10158254      -0.82892364      -0.12943259      -0.86904772       0.43185859       0.42750461       0.11582317      -0.78117951
H        0.01884903       1.04339520       1.26019926       0.18410567      -0.04934316       0.09628862       0.03429446      -0.79279072      -0.58991848
H        0.78168835      -0.45399480       1.14167056       0.04941266       0.31769393      -0.05592534      -1.12496401       0.79883780      -0.49744479
H       -0.84292459      -0.33196687       1.30090429      -0.33384058      -0.10094996       0.11434177      -1.94986405      -1.08991791       0.68723474
H       -1.03002329       0.70463516      -1.30090429       0.14692041       0.09932838      -0.23179977       1.59772939      -0.67490486       1.20951320
H       -0.07634977      -1.04339520      -1.06025739      -0.04108279      -0.15912021      -0.02431800      -0.28581490       0.13339239      -0.17031133
H        1.03002329       0.53694888      -0.98756578       0.15670743      -0.10705034      -0.08198834      -1.21943997       0.12285220      -0.41219857
N       -0.07182592       0.08931733       0.82691762      -0.14317131       0.82945719      -0.38640267       2.52055443       1.38670793       0.55430474
8
Properties=species:S:1:pos:R:3:momenta:R:3:forces:R:3 energy=-2220.1822112856867 pbc="F F F"
B       -0.09383204       0.10265276      -0.82242506      -0.12166949      -1.06110208       0.32445319       1.00708653       0.31079538      -1.07127747
H        0.02340002       1.04500111       1.26486047       0.26003017      -0.04412333      -0.04776581      -0.33320522      -0.18915972      -0.41490173
H        0.76248270      -0.40247843       1.13599581      -0.01671412       0.46595159      -0.17719648      -0.42437861      -0.12615602      -0.19426285
H       -0.90157747      -0.34524395       1.31084563      -0.32458594      -0.28318969      -0.00910632       0.41655669       0.21603943      -0.43609245
H       -1.02417584       0.72457853      -1.31084563       0.30154008       0.05982731      -0.03178911       1.39612331      -0.72376734       1.24715528
H       -0.10158842      -1.04500111      -1.05977051      -0.10310217      -0.13746132      -0.02840167      -0.33333810       0.25988656      -0.05373318
H        1.02417584       0.53443125      -0.99478335       0.07996956      -0.13583191      -0.14097819      -1.52938874      -0.05723590      -0.25762085
N       -0.09046640       0.10567560       0.82956174      -0.17534936       1.10061039      -0.01403892      -0.19945586       0.30959761       1.18073324
8
Properties=species:S:1:pos:R:3:momenta:R:3:forces:R:3 energy=-2220.1396531514224 pbc="F F F"
B       -0.11109646       0.10606315      -0.82190285      -0.03668756      -0.73824280       0.07353450       1.46529402       0.02662856      -1.10250007
H        0.03070503       1.04900806       1.25861746       0.23484549      -0.11149994      -0.01770034      -0.60787260       0.71223954      -0.04657461
H        0.74094537      -0.35590954       1.11584070      -0.06419398       0.22463317      -0.13329301       0.40803472      -0.99488536       0.18406457
H       -0.94947451      -0.35055997       1.31046833      -0.14327056      -0.09860555      -0.09889604       1.87670357       1.10616245      -0.99371515
H       -1.00754911       0.73682731      -1.31046833       0.36923478      -0.07006179       0.08815948       0.85839515      -0.51101944       1.03940494
H       -0.12969365      -1.04900806      -1.06758384      -0.13014868      -0.24110357      -0.12750294      -0.33719578       0.55062117       0.12516141
H        1.00754911       0.53234501      -1.00968705      -0.00534103      -0.16188852      -0.14262562      -1.49950815      -0.13074940      -0.13674567
N       -0.10868975       0.12795619       0.82994266      -0.31481867       1.16480963       0.24537427      -2.16385097      -0.75899758       0.93090458
8
Properties=species:S:1:pos:R:3:momenta:R:3:forces:R:3 energy=-2220.1171935291927 pbc="F F F"
B       -0.12782037       0.11282728      -0.81001452       0.33544343      -0.64972413       0.05602526       1.89610429      -0.91918477      -1.07952685
H        0.03273596       1.05942016       1.27204159       0.13474529      -0.01156722       0.05196282      -0.85875952       1.06735196       0.12899287
H        0.73027955      -0.33005827       1.11214124       0.16852528       0.05306035      -0.16133246       0.17503686      -1.06614986       0.15775195
H       -0.97108030      -0.35240313       1.30233669       0.02744717      -0.16877675      -0.20784931       1.98762744       1.35957205      -0.81499132
H       -0.98322741       0.74062241      -1.30233669       0.39225792      -0.07663730      -0.01429646       0.06014263      -0.04176346       0.71860544
H       -0.16196510      -1.05942016      -1.06886006      -0.13700752      -0.14503268      -0.13745019      -0.30165136       1.12839185       0.39974363
H        0.98322741       0.52479721      -1.01344379      -0.16892312      -0.20739028      -0.08755458      -1.21155327      -0.08810225      -0.05139718
N       -0.13045938       0.14944942       0.84173611      -0.83427141       1.17714872       0.39828936      -1.74694713      -1.44011561       0.54082141
8
Properties=species:S:1:pos:R:3:momenta:R:3:forces:R:3 energy=-2220.1331335808873 pbc="F F F"
B       -0.12381938       0.11065310      -0.80389368       0.81419893      -0.53201493      -0.10899184       1.57692001      -1.70931296      -0.67633774
H        0.03880141       1.06381030       1.28501806      -0.01202024       0.03882188       0.08251789      -0.94714017       1.18560893       0.29091798
H        0.74320155      -0.33480565       1.09789130      -0.00727412      -0.07502963      -0.25983010      -0.74011987      -0.48329076       0.02313684
H       -0.96118568      -0.36476718       1.28373882       0.13687485      -0.17465872      -0.27607316       1.52535694       1.33511391      -0.39721454
H       -0.95530624       0.72742133      -1.28501806       0.23957461      -0.21150175       0.17772445      -0.66204394       0.51736940       0.28506527
H       -0.17977425      -1.06381030      -1.07025028      -0.16705169      -0.00611233      -0.04747146      -0.22928138       1.24031363       0.56110274
H        0.96118568       0.50037043      -1.01434871      -0.26110518      -0.33129254       0.01462161      -0.35305661       0.21216046      -0.14828474
N       -0.13687529       0.16154892       0.85096804      -0.81720064       1.26561963       0.32501921      -0.17063503      -2.29796260       0.06161423
8
Properties=species:S:1:pos:R:3:momenta:R:3:forces:R:3 energy=-2220.1223285054934 pbc="F F F"
B       -0.11945610       0.10553576      -0.81886854       0.34033366      -0.46683833      -0.05324197       0.99849889      -2.37716297      -0.00327697
H        0.03434486       1.06085781       1.28014718      -0.12679945      -0.06759452       0.12097314      -0.89902938       1.23962977       0.40489221
H        0.73116363      -0.34840946       1.06304391      -0.16242587      -0.12951023      -0.15179850      -0.52003743      -0.32212907       0.13642963
H       -0.93594125      -0.37728017       1.24404366       0.32455503      -0.06806852      -0.25657823       0.50470368       0.97837065       0.13109208
H       -0.93274754       0.71280543      -1.28014718       0.12697584      -0.01463888       0.17541825      -1.38496118       1.11929647      -0.21163523
H       -0.19701850      -1.06085781      -1.08344164      -0.15772922       0.10286068       0.08992639      -0.17937961       1.03878669       0.58020069
H        0.93594125       0.47005464      -1.02519502      -0.22626390      -0.25613778       0.10489587       0.81911275       0.63036343      -0.40168034
N       -0.14028083       0.16600422       0.83747317      -0.18561010       0.87624840      -0.11328100       0.66109222      -2.30715502      -0.63602212
8
Properties=species:S:1:pos:R:3:momenta:R:3:forces:R:3 energy=-2220.0896280849397 pbc="F F F"
B       -0.10827757       0.09591336      -0.83108353       0.01539495      -0.44231170      -0.24332930       0.01935686      -2.10490616       0.51637500
H        0.02764354       1.05104311       1.27680961      -0.21843729      -0.05492129       0.03966405      -0.70200892       1.53728265       0.57733432
H        0.72139284      -0.36011904       1.03821398      -0.17132457      -0.00215063      -0.06787044       0.29641376      -0.49801141       0.36045697
H       -0.90043331      -0.38065018       1.20760186       0.21301146       0.02740862      -0.22930642      -0.71858482       0.30244074       0.69206420
H       -0.92034589       0.70667948      -1.27680961      -0.05195365      -0.03039684       0.10053301      -1.51583707       1.23097728      -0.35835905
H       -0.20254326      -1.05104311      -1.07902385      -0.18170064       0.12578560       0.17844997      -0.15803143       0.43056540       0.40831003
H        0.92034589       0.45210267      -1.02945302      -0.26605036      -0.01570047       0.00592827       1.90659809       0.95065477      -0.70072949
N       -0.12871128       0.16505236       0.82656672       0.60046594       0.37085999       0.14020531       0.87209352      -1.84900332      -1.49545203
8
Properties=species:S:1:pos:R:3:momenta:R:3:forces:R:3 energy=-2220.0975177705304 pbc="F F F"
B       -0.09451766       0.08805392      -0.83666169       0.10799932      -0.37473739      -0.01411088      -0.98521107      -1.44856164       0.49691051
H        0.01445477       1.04857810       1.27939114      -0.27831735       0.05300934       0.11843469      -0.43296604       1.54626824       0.56188651
H        0.71979965      -0.37320793       1.03054886      -0.14666088      -0.24755693       0.06382880       0.85306237      -0.55782016       0.54625888
H       -0.87791908      -0.37182621       1.18502135      -0.00522317       0.16720349      -0.10449131      -1.44676834      -0.22785077       0.94427381
H       -0.91939519       0.70982999      -1.27939114      -0.13220321       0.12187759       0.01893659      -1.07595471       0.90407080      -0.14023224
H       -0.21332337      -1.04857810      -1.06773963      -0.25144358      -0.00169254       0.16918750      -0.05043877       0.08700933       0.27562290
H        0.91939519       0.45008542      -1.03869185       0.01731103      -0.02700438      -0.07362167       2.37832465       0.99134510      -0.85001901
N       -0.11119884       0.16446129       0.81965564       0.63370761       0.28951227      -0.24668602       0.75995192      -1.29446086      -1.83470140
8
Properties=species:S:1:pos:R:3:momenta:R:3:forces:R:3 energy=-2220.1986031443507 pbc="F F F"
B       -0.08874212       0.07962626      -0.84179405       0.02905641      -0.19395066       0.28035329      -1.40011567      -0.48219208      -0.06901196
H       -0.00300655       1.06005247       1.28883718      -0.26669477       0.17198295       0.18459543      -0.16750980       0.45496214       0.05411514
H        0.71029078      -0.41240572       1.02036527      -0.12890061      -0.48268909      -0.09109557       0.82529692      -0.15413790       0.67137134
H       -0.88259274      -0.36575506       1.16574893      -0.18683796       0.04124981      -0.16289188      -1.38474906      -0.20446021       0.80901701
H       -0.93317826       0.72919266      -1.28883718      -0.23116818       0.31755968      -0.05772944      -0.23830991       0.21036577       0.29530418
H       -0.23603627      -1.06005247      -1.05614775      -0.26906008      -0.10008950       0.25957178       0.08551731       0.19433114       0.20046991
H        0.93317826       0.45555538      -1.06226166       0.16129421       0.16735821      -0.23121229       1.79088862       0.61403913      -0.71799259
N       -0.10122034       0.16115015       0.81139162       0.84269639       0.06103436      -0.24359553       0.48898164      -0.63290800      -1.24327302
8
Properties=species:S:1:pos:R:3:momenta:R:3:forces:R:3 energy=-2220.207078522372 pbc="F F F"
B       -0.08788649       0.07764562      -0.83991778       0.13604684       0.10132994       0.52243757      -1.43723577       0.30403302      -0.83977013
H       -0.02653887       1.07439631       1.30267509      -0.18629537       0.08780633       0.11809899       0.11158928      -0.65032002      -0.40232980
H        0.69828593      -0.45162286       1.00228437      -0.09769379      -0.32252926      -0.16948987       0.70051917       0.26424936       0.86118927
H       -0.90879734      -0.37112372       1.14743970      -0.30039090      -0.02475971      -0.17141720      -0.41130943       0.37076113       0.38418938
H       -0.95425828       0.75263828      -1.30267509      -0.19668929       0.17221185      -0.17129819       0.58697323      -0.47075632       0.75759782
H       -0.26462699      -1.07439631      -1.03308691      -0.37805875      -0.07473185       0.21554624       0.27659123       0.57872621       0.12561100
H        0.95425828       0.46965965      -1.08401036       0.26834858       0.11755488      -0.27232927       0.77885359       0.08207893      -0.44544273
N       -0.09691690       0.15852455       0.80835229       0.70983760      -0.07275755      -0.12765444      -0.60598129      -0.47877230      -0.44104486
8
Properties=species:S:1:pos:R:3:momenta:R:3:forces:R:3 energy=-2220.115713357686 pbc="F F F"
B       -0.09525413       0.08239700      -0.83636438      -0.00316742       0.29484901       0.50490656      -1.03754536       0.70535865      -1.50927526
H       -0.04684997       1.08227525       1.31432620      -0.11000423      -0.00018344       0.14527971       0.34331573      -1.19694343      -0.65911633
H        0.68352971      -0.47714710       0.99002497      -0.10422227      -0.23901505      -0.05458228       0.52623343       0.56876000       0.96251368
H       -0.93970906      -0.36799220       1.13889206      -0.14720166       0.06456810      -0.03491127       0.49259204       0.82633231       0.01087170
H       -0.97383712       0.76941356      -1.31432620      -0.00983718       0.10799169      -0.04801675       1.00996580      -0.78889951       1.03943152
H       -0.30477846      -1.08227525      -1.00915673      -0.34176212      -0.04569570       0.23238092       0.52279638       0.97765249       0.04017601
H        0.97383712       0.49183504      -1.10549569       0.24878936       0.21914137      -0.12624312      -0.32109872      -0.48358505      -0.11287190
N       -0.09988744       0.15997034       0.80443496       0.42678100      -0.41602124      -0.66958291      -1.53625935      -0.60867545       0.22827063
8
Properties=species:S:1:pos:R:3:momenta:R:3:forces:R:3 energy=-2220.042111116398 pbc="F F F"
B       -0.10644716       0.08710998      -0.84516948       0.14066672       0.52987522       0.21991024      -0.52601083       0.94890580      -1.64875597
H       -0.07330481       1.07881654       1.31699017      -0.22986738      -0.04087829       0.14061171       0.55447186      -1.48923284      -0.91470442
H        0.66888298      -0.49560659       0.98112629      -0.04167325      -0.14809459       0.12272731       0.28690577       0.82178829       0.92855146
H       -0.96383760      -0.36075868       1.11868228      -0.13808342       0.05709752      -0.06661740       0.85743109       0.87499954      -0.18666838
H       -0.97971929       0.78190204      -1.31699017       0.09840070       0.07672522       0.18422664       0.94548130      -0.78379448       0.99591133
H       -0.34397492      -1.07881654      -0.99465593      -0.30349341       0.07344165       0.30330966       0.69891650       1.04505792      -0.16425355
H        0.97971929       0.51441174      -1.12284129       0.10017200       0.13561039       0.01924698      -0.93362486      -0.88881644       0.02367914
N       -0.10737456       0.15764213       0.78554247       0.33711787      -0.69677590      -0.96935495      -1.88357083      -0.52890779       0.96624049
8
Properties=species:S:1:pos:R:3:momenta:R:3:forces:R:3 energy=-2220.0363245008716 pbc="F F F"
B       -0.10635627       0.08873398      -0.85502901       0.38422783       0.36353109       0.42431546      -0.40818030       0.99253964      -1.55815553
H       -0.08916273       1.06845027       1.31233610      -0.11291779      -0.07761057       0.03275382       0.68832530      -1.54241076      -1.09473488
H        0.66948972      -0.50326798       0.98347113      -0.01425375      -0.02815980       0.19177124      -0.06336968       0.97455852       0.79709444
H       -0.97708935      -0.35058290       1.10009386      -0.01158376       0.13856146      -0.07070730       0.98246533       0.69524692      -0.29854521
H       -0.96707792       0.78863924      -1.31233610       0.18617250       0.08017730       0.19793195       0.67805163      -0.61878636       0.83547993
H       -0.37231164      -1.06845027      -0.98795493      -0.25106035       0.20891034       0.08606991       0.81685743       0.88010040      -0.36763214
H        0.97708935       0.52246778      -1.14117399      -0.02215774       0.04322554      -0.08345625      -0.93360224      -1.04167167       0.05395538
N       -0.10931474       0.15092410       0.76539550      -0.19169035      -0.74039766      -0.82024869      -1.76054754      -0.33957668       1.63253802
8
Properties=species:S:1:pos:R:3:momenta:R:3:forces:R:3 energy=-2220.0814708896555 pbc="F F F"
B       -0.09658793       0.08348756      -0.86236512       0.21248862       0.38319654       0.19875130      -0.31496690       0.99921083      -1.25173632
H       -0.08142703       1.05546538       1.29954652       0.03983586      -0.10925546      -0.15737176       0.71405001      -1.54096596      -1.18371819
H        0.67712620      -0.51295305       0.99845722       0.00097684       0.01606767       0.26611715      -0.28995798       0.98272574       0.61413596
H       -0.97476277      -0.33888656       1.08922009      -0.06426567       0.26533083      -0.00194620       0.74972803       0.35405872      -0.27072962
H       -0.94282498       0.78260537      -1.29954652       0.18596123       0.08215525       0.25815681       0.26511485      -0.29975666       0.60226229
H       -0.38247665      -1.05546538      -0.98742785      -0.14483534       0.23923738       0.20561301       0.83282902       0.43689633      -0.54887056
H        0.97476277       0.51902890      -1.15309648      -0.13310644       0.08736673      -0.01098513      -0.65689197      -1.04752469       0.00864544
N       -0.10186088       0.13661439       0.75117278      -0.12715437      -0.97474236      -0.79595078      -1.29990502       0.11535569       2.03001095
8
Properties=species:S:1:pos:R:3:momenta:R:3:forces:R:3 energy=-2220.1448945841084 pbc="F F F"
B       -0.08652833       0.09135044      -0.85801358      -0.00505985       0.48229112      -0.09386287      -0.07092666       0.78845188      -0.77246682
H       -0.05690263       1.02864459       1.27950466       0.24617857      -0.36408792      -0.25673480       0.66539368      -0.10362261      -0.44409012
H        0.68884118      -0.50889982       1.03382012      -0.00858910       0.05779075       0.36814527      -0.76703027       1.05631267       0.25252261
H       -0.97059483      -0.30797396       1.08530873       0.02913378       0.25959339       0.00583147       0.28222919      -0.08637257      -0.09349648
H       -0.91350137       0.78294535      -1.27950466       0.28059809      -0.08532017       0.16982239      -0.32166724       0.17732036       0.33332895
H       -0.38698674      -1.02864459      -0.96662525      -0.10473840       0.25632483       0.13155867       0.78541165      -0.10424035      -0.80043950
H        0.97059483       0.52337632      -1.15041346      -0.09128619      -0.08835879       0.05069962      -0.25353301      -0.98079936      -0.08389042
N       -0.09402065       0.13496501       0.75090997      -0.37347306      -0.52786419      -0.40949722      -0.31987740      -0.74705002       1.60853178
8
Properties=species:S:1:pos:R:3:momenta:R:3:forces:R:3 energy=-2220.111854138238 pbc="F F F"
B       -0.09132223       0.09881314      -0.85480101      -0.22803520       0.04196164      -0.30405379       0.81364283       0.40765389      -0.09990701
H       -0.02724263       1.00173543       1.26099466       0.42518918      -0.11427046      -0.20688461       0.54379736       1.69623263       0.40652800
H        0.68598763      -0.48949163       1.06892704       0.01428523       0.24480797       0.22036850      -0.95793130       0.78018990      -0.09389916
H       -0.96428531      -0.27369938       1.09591819       0.13460426       0.27786740       0.15248139      -0.80907023      -0.69922369       0.29020604
H       -0.88612295       0.78142372      -1.26099466       0.30485959      -0.03323789       0.06048637      -1.23384998       0.93224351      -0.10344027
H       -0.39392728      -1.00173543      -0.95338018       0.01655129       0.19076904       0.06656050       0.60092589      -0.74224118      -0.99151156
H        0.96428531       0.51659579      -1.14254470       0.07758642      -0.13789900       0.06208028      -0.04446919      -0.89955265      -0.13440576
N       -0.10093649       0.13563317       0.75416630      -0.76968612      -0.47871355      -0.08183834       1.08695451      -1.47530245       0.72642967
8
Properties=species:S:1:pos:R:3:momenta:R:3:forces:R:3 energy=-2220.006903803368 pbc="F F F"
B       -0.10054196       0.09664539      -0.85693801      -0.01669131       0.35303466      -0.97115665       1.52766528      -0.09463861       0.69475491
H        0.00348455       0.99236459       1.24939743       0.43607099       0.02883766      -0.10998299       0.27444821       2.01287290       0.39321077
H        0.67583006      -0.46696958       1.10393529      -0.07938498       0.22376413       0.42334004      -0.85133541       0.20880805      -0.34079749
H       -0.95632021      -0.24834338       1.11685056       0.03125543       0.28232929       0.21498204      -2.26522952      -1.35468248       0.86201495
H       -0.87197694       0.77292646      -1.24939743       0.10893419      -0.00699421       0.11536656      -1.98042254       1.56990172      -0.50309258
H       -0.39830555      -0.99236459      -0.93653349       0.07041947      -0.02407163       0.16147080       0.40890123      -1.23662620      -1.21263580
H        0.95632021       0.49878550      -1.12964687      -0.00176246      -0.11945724       0.16168788       0.15899801      -0.78024410      -0.22897228
N       -0.11431805       0.12648714       0.75738904      -0.57114233      -0.74532854      -0.02357762       2.72697475      -0.32539133       0.33551747
8
Properties=species:S:1:pos:R:3:momenta:R:3:forces:R:3 energy=-2220.0401144292464 pbc="F F F"
B       -0.09622068       0.10462060      -0.86820674       0.04874039       0.75504834      -1.02832882       1.61097721      -1.38000167       1.28503890
H        0.05333071       1.00402184       1.24552107       0.47223069       0.10290942      -0.02141256      -0.17717118       1.16920987      -0.15919737
H        0.66143448      -0.45635206       1.14434608      -0.24904150      -0.08771363       0.44452457      -0.58120115      -0.28878530      -0.56524051
H       -0.96579838      -0.22827156       1.13476955      -0.26760736       0.13068878       0.18052539      -1.82205908      -0.95831362       0.67886971
H       -0.86302375       0.77983349      -1.24552107      -0.05587681       0.06687703      -0.04137779      -2.22460193       1.82648364      -0.69495201
H       -0.38693006      -1.00402184      -0.93663430       0.10076816      -0.22264224      -0.12140037       0.43073659      -0.62176165      -1.27046048
H        0.96579838       0.48174959      -1.11763721       0.02625869      -0.23080606       0.08985677       0.36382033      -0.54664033      -0.39479369
N       -0.11177956       0.12369289       0.75617116      -0.09565193      -0.52149737       0.47239395       2.39949923       0.79980911       1.12073547
8
Properties=species:S:1:pos:R:3:momenta:R:3:forces:R:3 energy=-2220.1308442679333 pbc="F F F"
B       -0.07976819       0.11419300      -0.87579634       0.26206630       0.83448233      -0.82496936       0.91237032      -2.08290050       1.34546877
H        0.11464140       1.01952688       1.24549495       0.42226443       0.11527773       0.03741972      -0.72586531       0.18938835      -0.63862556
H        0.64712263      -0.45871940       1.18551546      -0.33562989      -0.03270866       0.45584466      -0.23702374      -0.68301068      -0.68657628
H       -0.99026623      -0.22438870       1.14746834      -0.46817989      -0.04390074       0.10393406      -0.00290874       0.06942123      -0.04084974
H       -0.86770687       0.79795261      -1.24549495      -0.30788778       0.20585153       0.07062647      -1.55638523       1.35821137      -0.47550093
H       -0.35607094      -1.01952688      -0.94830930       0.17862502      -0.12573031      -0.18904930       0.41353945       0.11788879      -1.20089239
H        0.99026623       0.45593095      -1.10477129       0.12727809      -0.30401144       0.14631690       0.52151834      -0.20790914      -0.54825349
N       -0.09717190       0.12238178       0.75882326       0.10320361      -0.65571740       0.17705690       0.67475491       1.23891053       2.24522963
8
Properties=species:S:1:pos:R:3:momenta:R:3:forces:R:3 energy=-2220.1049013814854 pbc="F F F"
B       -0.06537709       0.11596245      -0.88517034       0.20756603       0.65670057      -0.47543594       0.21052914      -2.03515084       1.02107019
H        0.15587666       1.03613209       1.24649609       0.19887848       0.24404788      -0.05113918      -1.14359355      -1.02215844      -1.18960885
H        0.62596813      -0.47516755       1.22151271      -0.33861702      -0.19852005       0.34241172       0.10219113      -0.90839766      -0.70439819
H       -1.02197306      -0.22506541       1.14967527      -0.36355802       0.12434400       0.06938495       1.66280936       0.84405117      -0.68496991
H       -0.89158853       0.81631944      -1.24649609      -0.34835607       0.21017823       0.00495956      -0.41660791       0.54343514      -0.08200802
H       -0.32794133      -1.03613209      -0.97406462       0.13325762      -0.05417421      -0.30447954       0.35128908       0.63881973      -1.06097614
H        1.02197306       0.42750160      -1.10101949       0.17814944      -0.25613354       0.07243715       0.25644756       0.01641907      -0.59700732
N       -0.08281492       0.11363597       0.75726359       0.31615640      -0.73228563       0.32121204      -1.02306480       1.92298183       3.29789822
8
Properties=species:S:1:pos:R:3:momenta:R:3:forces:R:3 energy=-2220.0305879923917 pbc="F F F"
B       -0.05756472       0.10690848      -0.89246607       0.21732214       0.04066915      -0.41759884      -0.45300779      -1.45661166       0.67592261
H        0.17532542       1.04502836       1.22859123       0.03137040       0.18727634      -0.27150525      -1.22462116      -1.83724546      -1.33114510
H        0.60067597      -0.51114717       1.24687667      -0.33162202      -0.26027257       0.20431060       0.22999641      -0.76671099      -0.69928041
H       -1.04768158      -0.22037291       1.14936323      -0.26464674       0.34733131       0.01465381       2.51955145       1.14146843      -1.00699824
H       -0.92776059       0.82697161      -1.24687667      -0.38726429       0.25562885       0.02200634       0.76763052      -0.24585075       0.29523188
H       -0.31320822      -1.04502836      -1.00318788       0.09386206       0.09169877      -0.20224443       0.24682016       0.65993111      -0.94101005
H        1.04768158       0.39309479      -1.09780085       0.27838671      -0.22916176       0.04049565      -0.09436011       0.18496399      -0.61053451
N       -0.07496612       0.09650512       0.75731829       0.34764035      -0.43845707       0.59119710      -1.99200943       2.32005532       3.61781383
8
Properties=species:S:1:pos:R:3:momenta:R:3:forces:R:3 energy=-2220.0130828805513 pbc="F F F"
B       -0.05269162       0.08937871      -0.90208760       0.55818176      -0.33128196      -0.65026052      -0.78627740      -0.34351406       0.51660090
H        0.17130534       1.04424856       1.20050044      -0.06942140       0.10213458      -0.22081964      -0.97206630      -2.07372135      -1.17709015
H        0.58243691      -0.54300646       1.25338009      -0.12469194      -0.13518333       0.07806902       0.21216447      -0.62387823      -0.52410404
H       -1.06789646      -0.19188355       1.14273724      -0.15200019       0.46704501      -0.01186052       2.75031358       0.87982817      -1.02799824
H       -0.95749813       0.83146916      -1.25338009      -0.18227090       0.09617401      -0.03953851       1.65057040      -0.86507199       0.55969907
H       -0.30315729      -1.04424856      -1.02639701       0.15480304       0.10096118      -0.13214747       0.07588601       0.12792031      -0.91988632
H        1.06789646       0.36490234      -1.10478734       0.18938787      -0.06571246      -0.06860054      -0.49842906       0.22456587      -0.52985689
N       -0.07480552       0.07965400       0.75916081      -0.38751742      -0.23892109       1.02825056      -2.43216165       2.67387128       3.10263573
8
Properties=species:S:1:pos:R:3:momenta:R:3:forces:R:3 energy=-2220.040603752553 pbc="F F F"
B       -0.05394750       0.07836222      -0.90987510       0.28751999      -0.52422788      -0.70420514      -0.71045453       0.35071526       0.54828203
H        0.15500088       1.04506425       1.16927557      -0.20487913       0.03013864      -0.42356036      -0.61504479      -2.06477397      -0.89494770
H        0.56459682      -0.56536236       1.25570348      -0.08834189      -0.07627534       0.01900839       0.19007308      -0.47465355      -0.32345632
H       -1.07788841      -0.15542621       1.14244865       0.01181761       0.50778203       0.05495768       2.44011443       0.43878347      -0.89914436
H       -0.97672274       0.83075622      -1.25570348      -0.04310946       0.05247426       0.02844914       2.01056148      -1.14417606       0.64855372
H       -0.29210270      -1.04506425      -1.04554701       0.14526364       0.12654909      -0.19412742      -0.03212383      -0.22251439      -0.91432616
H        1.07788841       0.36355489      -1.10856074       0.16104110       0.11046366       0.00525120      -0.88396904       0.16076626      -0.42601804
N       -0.08245287       0.06883035       0.76537388      -0.28155409      -0.23123344       1.19892720      -2.39915681       2.95585303       2.26105683
8
Properties=species:S:1:pos:R:3:momenta:R:3:forces:R:3 energy=-2220.162216609581 pbc="F F F"
B       -0.06846927       0.07759670      -0.92175973      -0.10192502      -0.11477344      -0.59296894      -0.14973911       0.71374960       0.76297590
H        0.12348701       1.03561745       1.11731538      -0.16272849      -0.19996435      -0.45427382      -0.01727427      -0.87475122      -0.25807764
H        0.54555155      -0.56089167       1.25474520      -0.04426054       0.05538379       0.09594477       0.17180473      -0.45390881      -0.14857568
H       -1.07341673      -0.10349008       1.13714356       0.30835062       0.41903860       0.03049209       1.09407415      -0.22096864      -0.42573466
H       -0.98174577       0.83396813      -1.25474520       0.21975064      -0.00614669       0.10714602       1.83468022      -1.07682010       0.54783692
H       -0.29109276      -1.03561745      -1.06880664       0.16772964       0.03416803      -0.17501652      -0.17379584      -0.59064435      -0.92841509
H        1.07341673       0.37085581      -1.11388524       0.09096014       0.00407387       0.02347849      -1.18846435       0.09561121      -0.33900651
N       -0.10163700       0.07033802       0.76737610      -0.48895468      -0.19569701       0.95135392      -1.57128549       2.40773231       0.78899680
8
Properties=species:S:1:pos:R:3:momenta:R:3:forces:R:3 energy=-2220.1772793090463 pbc="F F F"
B       -0.08733991       0.08606916      -0.94193599      -0.08279069      -0.22281682      -0.69887954       0.37485864       0.51087495       1.11073244
H        0.09554956       1.02165437       1.06620857       0.00933730      -0.22500655      -0.24124406       0.64607873       0.92050910       0.32175867
H        0.52034268      -0.54293143       1.25650486      -0.06844916       0.11929697       0.21442701       0.21873939      -0.50660254      -0.11806008
H       -1.05397200      -0.05003106       1.12986793       0.29756792       0.33180438       0.14499020      -1.23102917      -0.85757327       0.32286672
H       -0.97630777       0.83864277      -1.25650486       0.25218416      -0.02468746       0.17371956       1.30354920      -0.71747755       0.32432217
H       -0.30034174      -1.02165437      -1.09961909       0.00875116       0.00648347      -0.13134879      -0.25840154      -0.76210219      -0.93035318
H        1.05397200       0.38251139      -1.12247230      -0.09359525       0.01326122       0.06386521      -1.14185328       0.10506115      -0.34611525
N       -0.12325651       0.07896357       0.75873942      -0.33302938      -0.00187978       0.46194332       0.08805803       1.30731046      -0.68515148
8
Properties=species:S:1:pos:R:3:momenta:R:3:forces:R:3 energy=-2220.1079838791306 pbc="F F F"
B       -0.09666894       0.09903403      -0.96899819      -0.31407688      -0.31366965      -0.51266016       1.10037305      -0.40969977       1.59299691
H        0.09791907       1.01311757       1.02468929       0.17451825      -0.16021811      -0.20786212       1.05057037       2.58732614       0.68211357
H        0.51313304      -0.51676309       1.26382895      -0.00617284       0.12435071       0.32454169      -0.05964512      -0.35741191      -0.47190386
H       -1.03760439      -0.01044070       1.12719047       0.14946868       0.21788928       0.29599258      -2.55784603      -1.04380842       0.76929032
H       -0.94455009       0.84138698      -1.26382895       0.45365179      -0.16604604       0.14940842       0.29603180       0.02491949      -0.04123407
H       -0.31031991      -1.01311757      -1.13295387      -0.13986389      -0.13606832      -0.17578429      -0.20892338      -0.53232412      -0.89924756
H        1.03760439       0.40413822      -1.12965359      -0.11032733       0.10323307       0.20471628      -0.90357638       0.06593337      -0.44624322
N       -0.13253513       0.09403259       0.74011689      -0.21626820       0.32732167      -0.08968788       1.28301575      -0.33493481      -1.18577214
8
Properties=species:S:1:pos:R:3:momenta:R:3:forces:R:3 energy=-2220.1035719147985 pbc="F F F"
B       -0.08716472       0.10859038      -0.99206231      -0.05384214      -0.08525704      -0.20693554       1.49181577      -2.12418836       1.99422166
H        0.13355662       1.02231921       0.99385098       0.26453862       0.14454857      -0.04301804       0.96962005       2.61806337       0.59389366
H        0.52179341      -0.50029017       1.27239108      -0.05111102       0.03523518       0.26729902      -0.34879280      -0.12083306      -0.93024088
H       -1.02734197       0.01510531       1.14248574      -0.10951456       0.04324058       0.38775632      -1.82585809      -0.79061320       0.36552173
H       -0.89119958       0.84110125      -1.27239108       0.33252010      -0.05974573       0.06965069      -0.90072096       0.95131359      -0.44843621
H       -0.30766087      -1.02231921      -1.16766705      -0.01185695      -0.25650254      -0.11788696      -0.04627019       0.23294587      -0.75949164
H        1.02734197       0.41983725      -1.13397883      -0.26567507       0.05263280       0.08583697      -0.25115088       0.10688030      -0.59479982
N       -0.12219640       0.10602512       0.71874582      -0.11326659       0.12294589      -0.45295967       0.91135715      -0.87356846      -0.22066854
8
Properties=species:S:1:pos:R:3:momenta:R:3:forces:R:3 energy=-2220.1065036450386 pbc="F F F"
B       -0.06225395       0.11261565      -1.00008572       0.13662971      -0.40696508       0.16821120       1.04703201      -3.56480107       2.05087062
H        0.18556473       1.04534555       0.98664718       0.31770725       0.18052525       0.03894572       0.51615275       1.37274401       0.27759982
H        0.53765442      -0.50589100       1.27884478      -0.11715200      -0.19375105       0.05248365      -0.62124717       0.29544477      -1.35403939
H       -1.02711122       0.02576027       1.17218511      -0.26634299       0.08183775       0.31688555       0.07364483      -0.35364863      -0.63868547
H       -0.84934657       0.83631049      -1.27884478       0.11467109      -0.10388911      -0.04927289      -1.50923767       1.41918570      -0.65020761
H       -0.29091159      -1.04534555      -1.19111965      -0.10516837      -0.25361079      -0.15601970       0.19111921       1.16635743      -0.52182959
H        1.02711122       0.43400560      -1.13652975      -0.17074354       0.10117720      -0.00242542       0.53019787       0.20221332      -0.69195554
N       -0.09974232       0.11606631       0.70758225       0.08297199       0.59204962      -0.37808962      -0.22766189      -0.53749558       1.52824722
8
Properties=species:S:1:pos:R:3:momenta:R:3:forces:R:3 energy=-2220.0776594343533 pbc="F F F"
B       -0.04859114       0.10784438      -0.99155252      -0.04932322      -0.48243464       0.28449390       0.79385084      -3.79080378       1.74640884
H        0.22794783       1.06576804       1.00023694       0.24281359       0.15599237       0.17325303       0.00650690       0.03122158      -0.03937496
H        0.53951969      -0.52129731       1.28085274      -0.14613919      -0.17560332      -0.12023606      -0.55311596       0.45385754      -1.41107587
H       -1.03680848       0.02304388       1.20474737      -0.15827591      -0.11300654       0.16378630       1.56937763       0.03279077      -1.44733131
H       -0.83265248       0.83500942      -1.28085274      -0.04614252       0.10512288      -0.09335278      -1.46556547       1.32687548      -0.59434839
H       -0.28869668      -1.06576804      -1.20154837      -0.09703109      -0.14978047      -0.15098453       0.38401408       1.71186082      -0.27981991
H        1.03680848       0.44480043      -1.13347350      -0.01658268       0.09189979       0.01062240       0.52983046       0.07432546      -0.65353318
N       -0.08453009       0.12095143       0.71131101       0.26396061       0.56543352      -0.27598087      -1.26489842       0.15987208       2.67907478
8
Properties=species:S:1:pos:R:3:momenta:R:3:forces:R:3 energy=-2220.1181836399633 pbc="F F F"
B       -0.04637538       0.10356268      -0.97298205       0.11119849      -0.73708306       0.41351803       0.37983429      -3.04947781       1.27030370
H        0.25874901       1.07178676       1.02086078       0.32871887       0.01684934      -0.01217314      -0.38740938      -0.61809973      -0.19587740
H        0.53857196      -0.53369674       1.27275187      -0.02542863      -0.09086694      -0.32200818      -0.49933131       0.41070764      -1.24623323
H       -1.04183521       0.01854462       1.22730014       0.07611367      -0.03606166       0.02464223       1.92769065       0.23646941      -1.57745603
H       -0.83008099       0.85766531      -1.27275187       0.05067053       0.31810581      -0.03551530      -0.93901117       0.71549163      -0.36660777
H       -0.28984927      -1.07178676      -1.20491876       0.01333451       0.00786120      -0.17186516       0.40440602       1.87545627      -0.09609864
H        1.04183521       0.45127252      -1.12495529       0.20468254       0.07284796      -0.13233483       0.33695250      -0.08440434      -0.53427528
N       -0.08461692       0.12445909       0.72619389      -0.76537112       0.44619700       0.22813664      -1.22313166       0.51385691       2.74624465
8
Properties=species:S:1:pos:R:3:momenta:R:3:forces:R:3 energy=-2220.2138951079064 pbc="F F F"
B       -0.06392878       0.09088727      -0.94583749      -0.30463575      -1.07580761       0.85515345       0.60690776      -1.34414383       0.65528760
H        0.27632826       1.06879839       1.04439903       0.31189013      -0.00690150      -0.02631286      -0.82594582      -1.08581654      -0.34096533
H        0.52113040      -0.54325996       1.25465615      -0.02611434      -0.07294956      -0.42543163      -0.28405982       0.08579139      -0.86181189
H       -1.04496668       0.01093180       1.24732792       0.18133739      -0.01902228      -0.03539677       1.34770969       0.33425398      -1.22263565
H       -0.84131751       0.89070852      -1.25465615       0.13971103       0.43991104       0.00045356      -0.32261778      -0.13754776      -0.11083816
H       -0.29818356      -1.06879839      -1.20290224       0.12289014       0.14056995      -0.16240486       0.24021906       1.58444476       0.01676010
H        1.04496668       0.45595102      -1.11511890       0.20930415       0.08465305      -0.11018729      -0.45529972      -0.44611795      -0.26125372
N       -0.10604545       0.12498027       0.74701882      -0.63988543       0.50760110      -0.10275040      -0.30691338       1.00913601       2.12545704
8
Properties=species:S:1:pos:R:3:momenta:R:3:forces:R:3 energy=-2220.2519717336986 pbc="F F F"
B       -0.08607248       0.07383309      -0.92240746      -0.38960190      -1.54738905       1.19441362       0.84011023       0.97684393      -0.05499883
H        0.28188493       1.05440692       1.04776749       0.23388912      -0.16130017      -0.19150561      -0.92543348      -0.86272118      -0.26427662
H        0.50495168      -0.55308879       1.21912787       0.08783964      -0.02935068      -0.56293196      -0.13815212      -0.21397103      -0.43303299
H       -1.03862399       0.01352251       1.24855749       0.28161359       0.12519041      -0.16087807      -0.04190991       0.20945391      -0.38289463
H       -0.85131983       0.93156735      -1.24855749       0.06421243       0.41468324      -0.05800549       0.25502188      -1.15355550       0.21330984
H       -0.29689004      -1.05440692      -1.21527963       0.26386075       0.12598755      -0.33827231      -0.08296220       0.85734681       0.08863102
H        1.03862399       0.45936830      -1.11353231       0.09426380       0.07167079      -0.10277149      -1.04547284      -0.76929413       0.04709649
N       -0.13075825       0.12625133       0.76063059      -0.64105668       0.99874719       0.21372865       1.13879845       0.95589715       0.78616571
8
Properties=species:S:1:pos:R:3:momenta:R:3:forces:R:3 energy=-2220.154043898364 pbc="F F F"
B       -0.09580981       0.06210616      -0.89925783       0.10397780      -1.48014149       0.96721566       0.86725311       2.99534024      -0.63748620
H        0.28281348       1.03372522       1.03469295      -0.00580476      -0.14355771      -0.34157188      -0.45340791       0.37221586       0.17260398
H        0.49753626      -0.55379781       1.17742278      -0.01266116      -0.03159604      -0.50573983       0.17521761      -0.70269165       0.18365114
H       -1.02865356       0.02946884       1.24331163       0.00275541       0.16031236      -0.11881757      -1.49552927      -0.01375509       0.56298123
H       -0.85167590       0.96482000      -1.24331163       0.04312388       0.17972371      -0.08838998       0.58670614      -1.92762267       0.48378683
H       -0.27856814      -1.03372522      -1.23401124       0.30769327       0.19469339      -0.37532388      -0.38358677       0.07400823       0.15624425
H        1.02865356       0.46971362      -1.11242716      -0.11493828       0.07042617      -0.13081627      -1.20650444      -0.95723016       0.31701180
N       -0.14311727       0.13428277       0.77810875      -0.32865176       1.04854638       0.58781301       1.90985152       0.15973525      -1.23879303
8
Properties=species:S:1:pos:R:3:momenta:R:3:forces:R:3 energy=-2220.056979254453 pbc="F F F"
B       -0.08214531       0.05089551      -0.87771308       0.08484248      -0.85719090       0.79236096       0.51122122       4.03964776      -0.95559838
H        0.29778248       1.01989441       1.02558063      -0.03172849      -0.03916475      -0.12780110       0.13374067       1.41641744       0.55306819
H        0.50856086      -0.56818261       1.14440108       0.00066617      -0.15973610      -0.41512573       0.20510247      -0.73298454       0.55753543
H       -1.02011664       0.04594632       1.24933193      -0.16099941       0.15494461      -0.03977972      -1.56518632      -0.10348732       0.73667104
H       -0.83297110       0.96835177      -1.23669095       0.07251626      -0.01724654      -0.05817985       0.63346443      -2.21982626       0.60941912
H       -0.23316099      -1.01989441      -1.24933193       0.34339173       0.14728904      -0.23044788      -0.62583057      -0.55565611       0.21630451
H        1.02011664       0.46792687      -1.10660947      -0.25140619      -0.08503378      -0.01725628      -0.74805059      -0.83799211       0.44000870
N       -0.13209717       0.14000155       0.79490780      -0.06135958       0.85469674       0.09113447       1.45553863      -1.00611887      -2.15740861
8
Properties=species:S:1:pos:R:3:momenta:R:3:forces:R:3 energy=-2220.03322246273 pbc="F F F"
B       -0.06078534       0.03614053      -0.85861373      -0.13216441      -0.45562296       0.64243118       0.12373353       4.20495166      -1.06370994
H        0.32733279       1.01944700       1.02476837       0.16261044       0.19900012      -0.15772909       0.09409770       1.11395578       0.61431198
H        0.53021231      -0.59544969       1.11174526      -0.02835711      -0.18815535      -0.48810367       0.07955374      -0.49590434       0.80268772
H       -1.01747583       0.04334240       1.25956846      -0.17502803       0.06271432      -0.05569183      -0.62492996      -0.04796090       0.41983614
H       -0.80308930       0.94749958      -1.22870813       0.11632564      -0.21420166      -0.06617041       0.47312518      -2.13310782       0.59469019
H       -0.18143009      -1.01944700      -1.25956846       0.32909516       0.04615527      -0.29149301      -0.80335734      -0.90513076       0.29677151
H        1.01747583       0.44846756      -1.08896083      -0.28459134      -0.10226134       0.07084861      -0.06262226      -0.53338578       0.40316181
N       -0.11118168       0.13625632       0.80871862       0.00842045       0.65106706       0.34129776       0.72039940      -1.20341788      -2.06774945
8
Properties=species:S:1:pos:R:3:momenta:R:3:forces:R:3 energy=-2220.0124832912657 pbc="F F F"
B       -0.03737987       0.02340370      -0.83728872      -0.08191314       0.26821298       0.46746337      -0.25615245       3.24283799      -1.20557679
H        0.37340652       1.03080310       1.03330537       0.16149040       0.17585605      -0.04800459      -0.48778885      -0.25730810       0.45389467
H        0.55209685      -0.63040752       1.08925977      -0.08601232      -0.31176099      -0.33939590      -0.08755162      -0.15705960       0.98731382
H       -1.01440856       0.03751615       1.27320212      -0.23129442       0.05040283      -0.00988034       0.44227945       0.05000842       0.06097212
H       -0.76765577       0.90739314      -1.21456073       0.07404202      -0.42837330       0.02586376       0.04617820      -1.63340597       0.46044913
H       -0.13422636      -1.03080310      -1.27320212       0.11662482      -0.01981256      -0.32143349      -0.86782539      -0.67606664       0.59876364
H        1.01440856       0.42600458      -1.07059330      -0.21738297      -0.03073549      -0.01689921       0.79137769      -0.13472417       0.31607875
N       -0.08481704       0.12754771       0.82631493       0.26110734       0.29503003       0.23811450       0.41948297      -0.43428188      -1.67189533
8
Properties=species:S:1:pos:R:3:momenta:R:3:forces:R:3 energy=-2219.939734812656 pbc="F F F"
B       -0.02282555       0.02156385      -0.81960143      -0.14088415       0.31235728       0.76042347      -0.01171806       1.65213419      -1.43031251
H        0.40771591       1.04515993       1.03979730       0.18817730       0.13968605      -0.06942789      -0.92805606      -1.34490575       0.34977563
H        0.56013765      -0.66232952       1.07203973      -0.02915025      -0.21557884      -0.23800622      -0.35717516       0.38486430       1.05346651
H       -1.01671660       0.04105794       1.28578471      -0.12288859       0.06959732      -0.01684289       1.28192673       0.11912102      -0.26569977
H       -0.74158004       0.86271017      -1.19799669       0.06183136      -0.37832303       0.01971290      -0.63639292      -0.77487764       0.14958304
H       -0.10161187      -1.04515993      -1.28578471       0.20754437      -0.10624654      -0.15732148      -0.83880149      -0.05345041       1.01755560
H        1.01671660       0.42113816      -1.05955561      -0.00620175       0.00824569       0.03862756       1.15500961       0.08078808       0.30094251
N       -0.06849211       0.12505718       0.83687324      -0.16144901       0.16919391      -0.34094051       0.33520734      -0.06367379      -1.17531099
8
Properties=species:S:1:pos:R:3:momenta:R:3:forces:R:3 energy=-2219.8469681690717 pbc="F F F"
B       -0.02471106       0.02595836      -0.80292909      -0.09218139       0.55394794       0.99311931       1.13650718       0.18224521      -1.70702427
H        0.41605057       1.05192922       1.03571369       0.02414591      -0.07401166      -0.19520373      -1.10244973      -1.62031283       0.43211593
H        0.56055086      -0.67807513       1.06313054       0.06772214      -0.09613533      -0.14078803      -0.72856692       0.96963712       0.99514771
H       -1.02390998       0.03777208       1.29028206       0.00325151      -0.04345074      -0.08314424       1.46751437       0.21593890      -0.29891797
H       -0.73202040       0.81639145      -1.19273950       0.05717627      -0.50059047      -0.03546122      -1.46814881       0.28365811      -0.21770129
H       -0.08654983      -1.05192922      -1.29028206       0.15088758      -0.06275147      -0.11672024      -0.81329018       0.37992809       1.34655188
H        1.02390998       0.42459448      -1.05581927       0.14515552       0.04785122      -0.12887538       0.77444374       0.06079914       0.45515405
N       -0.07117050       0.12818131       0.84313889      -0.35889092       0.17417396      -0.29634243       0.73399036      -0.47189373      -1.00532609
8
Properties=species:S:1:pos:R:3:momenta:R:3:forces:R:3 energy=-2219.7989010461683 pbc="F F F"
B       -0.03226308       0.03302023      -0.78682721       0.22548456       0.30350321       0.61786547       2.38010586      -0.81858953      -1.90613776
H        0.40240763       1.04625651       1.03169068      -0.05500154      -0.08097492      -0.07232107      -0.86104117      -1.13006652       0.62132749
H        0.55270715      -0.67947240       1.07092619      -0.07324630       0.05140566       0.01374930      -0.86473765       1.17283718       0.93592944
H       -1.03014579       0.03944379       1.28755086       0.04182353       0.01474524      -0.16756812       1.18652445       0.21982322      -0.14581092
H       -0.74520663       0.77009234      -1.18623345      -0.23222131      -0.43160498      -0.00007783      -2.16948215       1.22132372      -0.54480811
H       -0.08335586      -1.04625651      -1.28755086       0.02960873       0.12890873      -0.05321845      -0.75225219       0.45644381       1.52777574
H        1.03014579       0.43653810      -1.06186230       0.09088912       0.04768032      -0.12549297       0.12808208      -0.02347165       0.68397463
N       -0.08035539       0.13118135       0.84992800      -0.02981016      -0.03453788      -0.21602736       0.95280082      -1.09830017      -1.17225056
8
Properties=species:S:1:pos:R:3:momenta:R:3:forces:R:3 energy=-2219.8635941789908 pbc="F F F"
B       -0.04179147       0.03318232      -0.77954613       0.30134089       0.34699729       0.30763817       2.53019890      -0.70363529      -2.20270250
H        0.38739109       1.03751680       1.03116934      -0.10550482      -0.09496224       0.00262090      -0.76094066      -0.89629697       0.64390687
H        0.53553891      -0.66917673       1.09126062      -0.06707831       0.12489574       0.30986398      -0.59791471       0.73189167       0.93358449
H       -1.02926432       0.04671459       1.28343465       0.19415809       0.15324437      -0.02828315       0.40988427       0.10205738       0.16332219
H       -0.78530540       0.73602103      -1.19218070      -0.33623868      -0.19631679      -0.16116669      -1.97289908       1.27229034      -0.41190577
H       -0.09067630      -1.03751680      -1.28343465       0.06690322       0.14880206       0.12428626      -0.66393206       0.18671928       1.52558433
H        1.02926432       0.44125658      -1.06945180       0.14269038       0.10560343      -0.07410246      -0.31884839      -0.03036560       0.81345056
N       -0.09309671       0.12637180       0.85161022      -0.19850886      -0.58905527      -0.48365401       1.37445179      -0.66266075      -1.46524023
8
Properties=species:S:1:pos:R:3:momenta:R:3:forces:R:3 energy=-2219.95529252805 pbc="F F F"
B       -0.05677874       0.03672419      -0.77684184       0.43391621       0.15798924       0.55047957       1.96696950       0.36462776      -2.85238515
H        0.35970521       1.02076526       1.02856248      -0.02749257      -0.19936416      -0.03110952      -0.37050042      -0.15232404       0.67546042
H        0.51312552      -0.65131443       1.12218120      -0.01715806       0.24894957       0.33630255      -0.40953074       0.28292411       0.84465425
H       -1.02509833       0.06950650       1.27651098       0.21760477       0.28048512      -0.10216732      -0.93963188      -0.12223982       0.67112986
H       -0.84331311       0.73315488      -1.20958775      -0.40524422       0.07050358      -0.13647342      -0.95903137       0.54242321       0.16077109
H       -0.10129397      -1.02076526      -1.27651098       0.02465484       0.09719246       0.08540833      -0.63841139      -0.26965249       1.37002482
H        1.02509833       0.45125431      -1.08303638       0.19692844       0.08632207      -0.10990017      -0.79947106      -0.07920166       0.98192761
N       -0.11292697       0.12300438       0.84618641      -0.42523460      -0.74279400      -0.59507097       2.14960737      -0.56655707      -1.85158291
8
Properties=species:S:1:pos:R:3:momenta:R:3:forces:R:3 energy=-2219.924874514201 pbc="F F F"
B       -0.06686477       0.04633718      -0.77250683       0.58545308       0.37063859       0.58918792       1.35899057       1.21469906      -3.35428915
H        0.34541971       1.00162525       1.03380445      -0.01597728      -0.22961845       0.16395530      -0.06981224       0.76245052       0.66005453
H        0.50285400      -0.62136324       1.15187521       0.05748933       0.14977310       0.29290686      -0.49480488      -0.15804937       0.73153639
H       -1.02242705       0.10138766       1.26104710       0.05827441       0.22029559      -0.19413709      -2.47556763      -0.31889313       1.35774795
H       -0.89225932       0.74089872      -1.22267280      -0.27457137      -0.11574307      -0.06161983      -0.05602779      -0.05721955       0.62543066
H       -0.10806773      -1.00162525      -1.26104710       0.11545660       0.11859855       0.18377360      -0.64277928      -0.69902927       1.16442165
H        1.02242705       0.46000112      -1.08980369       0.07684598      -0.02539632       0.00310829      -1.08187334      -0.05488390       1.08162158
N       -0.13182303       0.12590709       0.84011366      -0.60480329      -0.48919601      -0.97946524       3.46187461      -0.68907442      -2.26652361
8
Properties=species:S:1:pos:R:3:momenta:R:3:forces:R:3 energy=-2219.937446326928 pbc="F F F"
B       -0.05896798       0.05312065      -0.77058599       0.65985167       0.40389091       0.07008622       0.90145753       1.50932262      -3.34358205
H        0.34778521       0.98844934       1.05198251      -0.06931294      -0.14001324       0.18196917       0.01822048       1.20351667       0.54097156
H        0.50738152      -0.60411704       1.18327990      -0.02084108       0.11559431       0.27920627      -0.78303410      -0.26678884       0.49755236
H       -1.02724597       0.12283901       1.24534592      -0.17180034       0.14012994      -0.09388190      -2.49603305      -0.40657804       1.34804677
H       -0.91197524       0.73810160      -1.22440926      -0.15429103      -0.01075097       0.00745309       0.40457967      -0.26813559       0.77395245
H       -0.09068961      -0.98844934      -1.24534592       0.03370038       0.04562123       0.16862853      -0.69058371      -1.08385577       0.94782352
H        1.02724597       0.45703473      -1.08075012       0.01361922      -0.05866597       0.22659675      -0.95433674       0.16105962       0.96491282
N       -0.13228425       0.12639460       0.83217912      -0.29258411      -0.49639259      -0.84213047       3.59972987      -0.84854078      -1.72967739
8
Properties=species:S:1:pos:R:3:momenta:R:3:forces:R:3 energy=-2220.0578770097795 pbc="F F F"
B       -0.03403679       0.06591168      -0.78215420       0.85483989       0.50148622      -0.29466399       0.15440648       1.00117875      -2.92613324
H        0.35684634       0.98411307       1.06361104      -0.07156095      -0.02628972       0.21891197       0.32360133       1.77226648       0.51356802
H        0.51021666      -0.58528374       1.20660118      -0.23494073       0.04560567       0.37489094      -0.68369135      -0.54231152       0.37005813
H       -1.03738698       0.14764767       1.23514441      -0.34415876       0.14156117       0.05525592      -0.80626592      -0.46661335       0.49438281
H       -0.90506006       0.73612471      -1.22854688      -0.14673367      -0.23765758       0.19953677       0.58186686      -0.20054478       0.71278148
H       -0.07594416      -0.98411307      -1.23514441      -0.23365934      -0.14668464       0.26988791      -0.62713731      -1.04982588       0.82980175
H        1.03738698       0.45116823      -1.06510758      -0.22674731      -0.14238379       0.31163495      -0.31960522       0.49543120       0.58640471
N       -0.11391350       0.13425934       0.81519855       0.40146035      -0.13616793      -1.13732969       1.37682508      -1.00958096      -0.58086367
8
Properties=species:S:1:pos:R:3:momenta:R:3:forces:R:3 energy=-2220.118090277698 pbc="F F F"
B        0.00839512       0.07629284      -0.79944931       1.08289210       0.32933732      -0.35638596      -1.41023749      -0.31546204      -2.31698902
H        0.38157268       0.99904243       1.06689712      -0.01786564       0.17353504       0.14546935       0.24625087       1.35797750       0.34718097
H        0.51743875      -0.57489683       1.22225880      -0.28952927      -0.03667361       0.27673452      -0.35661939      -0.82461471       0.42072183
H       -1.04772396       0.17253166       1.22546781      -0.39318310       0.11650432      -0.02932007       1.45147434      -0.57176664      -0.58024059
H       -0.88798576       0.72368492      -1.22224410      -0.21204198      -0.11253087       0.16449276       0.70971328      -0.01733566       0.51736184
H       -0.06285649      -0.99904243      -1.22546781      -0.25342390      -0.28566445       0.27471179      -0.40621787      -0.47906916       0.85344310
H        1.04772396       0.44254547      -1.05255667      -0.18213486      -0.15940853       0.12757055       0.96916908       0.98243052       0.01613316
N       -0.07806126       0.14057279       0.79657177       0.26392889      -0.02557935      -0.60496977      -1.20353276      -0.13215970       0.74238876
8
Properties=species:S:1:pos:R:3:momenta:R:3:forces:R:3 energy=-2220.094316658454 pbc="F F F"
B        0.03529614       0.07730983      -0.82052674       0.72365654      -0.03221706      -0.54142388      -2.82373560      -1.12512753      -1.95872403
H        0.39717771       1.02299379       1.04901096      -0.01044267       0.25271135      -0.14148086      -0.18503819       0.26754866       0.17197185
H        0.51989101      -0.58653001       1.22580933      -0.08779597      -0.14815730       0.21051000      -0.50014527      -0.34943485       0.19944224
H       -1.05606812       0.17655166       1.19978731      -0.17381425       0.02567902      -0.14605421       2.35789456      -0.55364047      -0.93683247
H       -0.89185028       0.71456257      -1.22580933      -0.19351892      -0.03339102       0.12742777       1.11033098      -0.13029354       0.47095116
H       -0.05785749      -1.02299379      -1.21504270      -0.12196743      -0.17016859       0.26822321      -0.22425462       0.04144372       0.80796512
H        1.05606812       0.43484168      -1.06088039       0.01532428       0.03365520       0.01760100       1.77400511       1.26482879      -0.31891915
N       -0.05997753       0.14063100       0.77751472      -0.15267020       0.07145394       0.20366156      -1.50905697       0.58467518       1.56414528
8
Properties=species:S:1:pos:R:3:momenta:R:3:forces:R:3 energy=-2220.1295034051172 pbc="F F F"
B        0.04207128       0.07448337      -0.85020710       0.29263717      -0.16688240      -0.93279243      -3.02178234      -1.33891745      -1.39965879
H        0.40146649       1.03916268       1.01445489       0.09643449       0.14197248      -0.06532914      -0.49113005      -0.44152324       0.18636072
H        0.51016848      -0.60715437       1.22731377      -0.17613192      -0.20881956       0.25663411      -0.88098173       0.47279922      -0.23847868
H       -1.06315058       0.17276583       1.15585845       0.04384719      -0.07527417      -0.32309811       2.34586282      -0.42639055      -0.80123073
H       -0.90270359       0.70401171      -1.22731377      -0.06415244      -0.08925243       0.20566363       1.20278416      -0.10151086       0.28107148
H       -0.06752735      -1.03916268      -1.21134190      -0.09595801      -0.09924938       0.27893934      -0.05193480       0.23155331       0.61471898
H        1.06315058       0.44466395      -1.07336352       0.13321935       0.18487746       0.19915551       1.70628076       1.16660776      -0.46936654
N       -0.05896443       0.13938850       0.75672110      -0.23100759       0.31223486       0.37943772      -0.80909892       0.43738181       1.82658356
8
Properties=species:S:1:pos:R:3:momenta:R:3:forces:R:3 energy=-2220.2230195999355 pbc="F F F"
B        0.02930826       0.07480090      -0.88195809       0.37930511      -0.03138656      -1.34426876      -2.23175648      -1.06512934      -0.72280904
H        0.38296049       1.04438873       0.99255493      -0.14045878      -0.04735984       0.06637791      -0.45078584      -0.50613779       0.31813110
H        0.46873268      -0.63530318       1.22967219      -0.35369868      -0.34339531       0.31772799      -1.15229093       1.41199191      -0.78010814
H       -1.06458298       0.16514447       1.10004376       0.08996726      -0.12133650      -0.34474235       1.15589587      -0.18580063      -0.27063460
H       -0.92008582       0.69654808      -1.22967219      -0.02187540      -0.16883448       0.15480323       1.02359713       0.05601046       0.01657071
H       -0.09367533      -1.04438873      -1.20656187      -0.13452435      -0.03739546       0.30705347       0.11762330       0.18856040       0.34618169
H        1.06458298       0.47368977      -1.07847573       0.23468739       0.26691739       0.12920265       1.01058703       0.76498887      -0.54306161
N       -0.07559598       0.14412367       0.73730331      -0.05440855       0.48243503       0.71258866       0.52712992      -0.66448387       1.63572994
8
Properties=species:S:1:pos:R:3:momenta:R:3:forces:R:3 energy=-2220.2460397848813 pbc="F F F"
B        0.01062387       0.08572263      -0.91025700       0.15615813       0.23486966      -0.91609209      -0.89169335      -1.07046649      -0.05314522
H        0.33892177       1.04281559       0.98268236      -0.26755692      -0.17320799       0.11502208       0.18736720       0.49007189       0.73547610
H        0.40525308      -0.65015013       1.23377757      -0.49903053      -0.13697844       0.12267033      -0.91006435       1.92399685      -1.05753682
H       -1.07131708       0.15569495       1.05029421       0.16982425      -0.31115157      -0.25863964      -0.19831280       0.08795981       0.16590024
H       -0.93569220       0.68724980      -1.23377757       0.14515000      -0.23098762       0.10458307       0.56838883       0.46684285      -0.27430464
H       -0.13150112      -1.04281559      -1.19782891      -0.16718310      -0.12680861       0.25704563       0.33026208       0.27042274       0.15659310
H        1.07131708       0.50899781      -1.08835101       0.29446783       0.19268896      -0.02876045       0.00188292       0.25168808      -0.52955638
N       -0.09642656       0.15777724       0.72659645       0.16726004       0.55125372       0.60303347       0.91216952      -2.42051573       0.85657357
8
Properties=species:S:1:pos:R:3:momenta:R:3:forces:R:3 energy=-2220.1775940713114 pbc="F F F"
B       -0.01100037       0.09354247      -0.92690570      -0.06111830      -0.13362962      -1.11863485       0.89113589      -1.05814309       0.51338244
H        0.29192736       1.03671476       0.98771530      -0.19548794      -0.06278582       0.18471127       0.88891178       1.83314378       1.23673907
H        0.33059238      -0.64482936       1.23709531      -0.50550491       0.01196345       0.01922690      -0.02328006       1.52531694      -0.84584631
H       -1.08251939       0.13166963       1.02256658       0.01982998      -0.33064108      -0.17262878      -1.08636372       0.43958859       0.27503278
H       -0.94189142       0.67355588      -1.23709531       0.11024690      -0.20765044       0.03165161      -0.17939395       1.02674277      -0.57420734
H       -0.16401414      -1.03671476      -1.17736230      -0.12048873       0.12665301       0.27054067       0.42166717       0.10286763      -0.03488951
H        1.08251939       0.52941564      -1.10565153       0.33282838       0.15053390      -0.17537414      -1.05901443      -0.21237638      -0.39707791
N       -0.11532020       0.16967688       0.72455378       0.41887091       0.44526533       0.95947792       0.14633728      -3.65714014      -0.17313316
8
Properties=species:S:1:pos:R:3:momenta:R:3:forces:R:3 energy=-2220.10665700841 pbc="F F F"
B       -0.01317037       0.08373493      -0.93665245       0.11939985      -0.42849387      -1.00673252       1.50797629      -0.41817597       0.93032907
H        0.27453977       1.03498596       1.01624820      -0.11506674       0.20543433       0.40020964       0.88890705       1.75984111       1.31248512
H        0.27442596      -0.64978336       1.24222224      -0.47629790       0.05823216       0.12167423       1.01810587       0.71415347      -0.32524385
H       -1.09106046       0.09445574       1.00986902      -0.11490958      -0.25472099      -0.10305170      -0.73384067       0.82828645       0.00145679
H       -0.94725780       0.64960634      -1.24222224      -0.17829430      -0.13556782      -0.05639837      -0.34777124       1.20480196      -0.61209394
H       -0.18068115      -1.03498596      -1.15496146      -0.16968791       0.09974292       0.21605847       0.50868575      -0.44700936      -0.23090334
H        1.09106046       0.53693843      -1.12196605      -0.08667360       0.11801223      -0.21706186      -1.51653374      -0.49761278      -0.33802743
N       -0.11182100       0.16568891       0.73031146       1.02078483       0.33709748       0.64437063      -1.32552935      -3.14428488      -0.73800246
8
Properties=species:S:1:pos:R:3:momenta:R:3:forces:R:3 energy=-2220.100281603798 pbc="F F F"
B        0.00496980       0.06392293      -0.94565354       0.18257296      -0.35376854      -0.82739983       0.57071933       0.50847631       1.01807974
H        0.28523406       1.03912599       1.05511698      -0.06223329       0.25314011       0.37321681       0.29856459       0.41981006       0.85633837
H        0.25557210      -0.65784475       1.25402467      -0.25451181       0.07782514       0.08525224       1.72725145      -0.13865343       0.19296604
H       -1.08593816       0.05817678       0.99465457      -0.21405867      -0.11983415      -0.16310139      -0.08898522       1.09820268      -0.24724594
H       -0.95397340       0.62689695      -1.25402467      -0.24335481      -0.02560377      -0.18924964       0.23240717       0.87472443      -0.33853399
H       -0.17691048      -1.03912599      -1.13838133      -0.14948508       0.13612395       0.08713592       0.54463292      -1.11977115      -0.38808892
H        1.08593816       0.52792104      -1.15736995      -0.28752425       0.07389356      -0.43822518      -1.16098517      -0.46708165      -0.28343000
N       -0.08865512       0.14938355       0.73568389       1.02792048      -0.04201480       1.07152820      -2.12360508      -1.17570725      -0.81008530
8
Properties=species:S:1:pos:R:3:momenta:R:3:forces:R:3 energy=-2220.0465135948407 pbc="F F F"
B        0.03292561       0.04344027      -0.95194355       0.19882386      -0.03471980      -0.73191953      -0.79612482       1.07421480       0.95571640
H        0.30497087       1.05237446       1.09252291      -0.09931854       0.22376446       0.35251757      -0.25820557      -1.18094690       0.22717045
H        0.26557022      -0.66872027       1.26802559      -0.07222206      -0.01363769       0.21533046       1.96445939      -0.63944256       0.56898882
H       -1.08084139       0.04234009       0.97910092      -0.11879208       0.11671617      -0.17135389       0.99939682       1.11310166      -0.44590980
H       -0.95460484       0.60900733      -1.26802559      -0.27876505      -0.04971828      -0.10779360       0.94013212       0.45144975       0.00088256
H       -0.16754181      -1.05237446      -1.11981374      -0.15579446      -0.06523881       0.20585831       0.61159597      -1.45774598      -0.47779091
H        1.08084139       0.51564556      -1.19885060      -0.39336455       0.06138258      -0.47101254      -0.56196128      -0.35199171      -0.23752408
N       -0.05570538       0.13160347       0.74250614       0.91882257      -0.23876443       0.70761051      -2.89929266       0.99136094      -0.59153344
8
Properties=species:S:1:pos:R:3:momenta:R:3:forces:R:3 energy=-2219.965751632439 pbc="F F F"
B        0.06055627       0.03752443      -0.97134793       0.19968632      -0.17086332      -0.81858960      -2.23809240       0.79203225       1.08341086
H        0.31834119       1.06662010       1.11566380      -0.09879050       0.10994399       0.38063601      -0.44976157      -2.13154063      -0.27143143
H        0.28210890      -0.66894341       1.27726726      -0.05300702       0.07636152       0.18177905       1.87722540      -0.74394577       0.63793975
H       -1.06997379       0.05502177       0.95365350      -0.17823700       0.25640114      -0.10147402       1.68262532       0.90226038      -0.54286101
H       -0.95169203       0.60656295      -1.27726726      -0.16777137       0.04951471       0.14067614       1.40425283       0.13422111       0.14138585
H       -0.15439525      -1.06662010      -1.10932577      -0.11127685      -0.15848237       0.15883666       0.71336327      -1.21181701      -0.54889066
H        1.06997379       0.51345548      -1.24987965      -0.31556939      -0.00035828      -0.33243933       0.26317552      -0.09570572      -0.30343149
N       -0.02499189       0.12508415       0.73481712       0.72441354      -0.16271265       0.38988493      -3.25278832       2.35449540      -0.19612186
8
Properties=species:S:1:pos:R:3:momenta:R:3:forces:R:3 energy=-2219.8944171826192 pbc="F F F"
B        0.08090941       0.03803106      -0.98593218       0.15156290      -0.26524360      -0.67407458      -3.08634933       0.16555052       1.26635381
H        0.33082714       1.08109346       1.14712973      -0.01980828       0.04210946       0.38611978      -0.58037480      -2.88241075      -0.83743017
H        0.29796727      -0.66185909       1.29135844       0.00170042       0.02026206       0.23993808       1.56929417      -0.67918045       0.52372460
H       -1.06252528       0.09018142       0.93676178      -0.01067106       0.40585038      -0.13706477       2.08718015       0.52969959      -0.55720551
H       -0.94232795       0.60661350      -1.27341583       0.03034356      -0.02821690       0.12093096       1.49188817       0.03404948       0.10672845
H       -0.14371797      -1.08109346      -1.10450364      -0.07730836      -0.17436245       0.12469017       0.83715963      -0.69164531      -0.54966878
H        1.06252528       0.51820477      -1.29135844      -0.20445676       0.09247609      -0.42286371       0.82296560       0.08458364      -0.35133932
N       -0.00486212       0.12607097       0.73048247       0.12813786      -0.09305174       0.36169958      -3.14176365       3.43935323       0.39883696
8
Properties=species:S:1:pos:R:3:momenta:R:3:forces:R:3 energy=-2219.916838110259 pbc="F F F"
B        0.08986644       0.04971447      -0.98401447       0.05019610      -0.51176202      -0.54857466      -3.03197990      -0.44638386       1.29338907
H        0.32205131       1.08816866       1.19444906      -0.27838933      -0.14991593       0.38190777      -0.30763370      -2.77709224      -1.17388305
H        0.30542884      -0.64169438       1.32545961      -0.07013107       0.08804330       0.26023978       1.08584308      -0.39571703       0.17226824
H       -1.05034147       0.15259894       0.92940144       0.08433753       0.54246728      -0.10212772       1.81024157      -0.00618021      -0.45426223
H       -0.92288871       0.61811059      -1.25780896       0.14179345      -0.02891156       0.08336292       1.11422590       0.10240782       0.02814474
H       -0.14243534      -1.08816866      -1.08786477      -0.11364602      -0.25267293       0.07997222       0.97418191      -0.05428072      -0.51522931
H        1.05034147       0.54572580      -1.32545961      -0.19412728       0.14120189      -0.44002530       0.95873827      -0.00464141      -0.23214739
N        0.00461202       0.14203617       0.74132961       0.37951443       0.17139008       0.28467990      -2.60361706       3.58188764       0.88171999
8
Properties=species:S:1:pos:R:3:momenta:R:3:forces:R:3 energy=-2219.931454205572 pbc="F F F"
B        0.09359713       0.06976843      -0.98564183       0.16308398      -0.34653640      -0.80286083      -2.61580055      -0.95032829       1.40174596
H        0.30057778       1.08372216       1.23564319      -0.23762106      -0.33123064       0.36287232       0.24859134      -1.92708742      -1.24626871
H        0.30965100      -0.60691315       1.35897278       0.04075323       0.09434955       0.30222590       0.62219580      -0.25262638      -0.22219645
H       -1.03616052       0.22440892       0.92765623       0.15716048       0.40586031      -0.02151915       1.20722255      -0.55876365      -0.41192572
H       -0.89782815       0.64167313      -1.24349354       0.30475476       0.05942161       0.13647644       0.49134916       0.25437766      -0.11476089
H       -0.14309446      -1.08372216      -1.06894324       0.02427898      -0.16928306       0.17138602       1.04889488       0.43015438      -0.55421074
H        1.03616052       0.58078719      -1.35897278      -0.16661522       0.08646547      -0.41816389       1.02529483      -0.14337362      -0.09478912
N        0.00714395       0.16654230       0.74845864      -0.28620433       0.20080847       0.26907186      -2.02774797       3.14764731       1.24240568
8
Properties=species:S:1:pos:R:3:momenta:R:3:forces:R:3 energy=-2219.9016578276733 pbc="F F F"
B        0.08627814       0.08541741      -0.98952470       0.04750347      -0.76050455      -0.43814045      -1.68214663      -0.94153460       1.43997832
H        0.27493011       1.07341037       1.25812159      -0.18915850      -0.25525483       0.08504047       0.81435698      -0.83204314      -1.12937803
H        0.30925781      -0.57281983       1.39627198       0.09421032       0.20563448       0.29333307       0.04211169       0.06385423      -0.86240499
H       -1.01760289       0.28950456       0.92262130       0.30276698       0.45017111      -0.04937865      -0.36189925      -0.97598765      -0.23045386
H       -0.87739190       0.67258358      -1.22443092       0.22266586       0.18040851       0.12378371      -0.23853838       0.35548142      -0.30657173
H       -0.13255044      -1.07341037      -1.05913538       0.27962021       0.02318639       0.02585863       0.89702238       0.53525147      -0.62289766
H        1.01760289       0.61138507      -1.39627198      -0.01044358       0.18082277      -0.33059704       0.87043527      -0.35681459       0.15579909
N       -0.00486622       0.18721706       0.75164414      -0.74753500      -0.02459480       0.28963757      -0.34134210       2.15179291       1.55592885
8
Properties=species:S:1:pos:R:3:momenta:R:3:forces:R:3 energy=-2219.7782844837675 pbc="F F F"
B        0.05992415       0.09340621      -0.99250667      -0.14721747      -0.54340020      -0.04148623      -0.18496291      -0.03704147       1.03732646
H        0.23918939       1.05997905       1.25841642       0.02922888      -0.23335396      -0.01375946       1.45877056       0.50349809      -0.74169791
H        0.29390854      -0.54338879       1.42533696       0.13154022       0.13639564       0.28175184      -0.45915998       0.29908319      -1.42238312
H       -1.01098943       0.34214941       0.91774947       0.20732496       0.28754062       0.01874242      -2.43348340      -1.16202029       0.03426921
H       -0.88472686       0.70003277      -1.21663518       0.08542245       0.07656903       0.05927308      -0.59505086       0.30098035      -0.38986108
H       -0.12946954      -1.05997905      -1.06242263       0.28321596      -0.01727665      -0.05365600       0.65183846       0.27780139      -0.64465773
H        1.01098943       0.64216650      -1.42533696       0.22476443       0.12809271      -0.25102640      -0.07379380      -0.92044379       0.67941211
N       -0.03450558       0.20272431       0.75143331      -0.81461447       0.16531434      -0.00025793       1.63584188       0.73814259       1.44759212
8
Properties=species:S:1:pos:R:3:momenta:R:3:forces:R:3 energy=-2219.676134045414 pbc="F F F"
B        0.04353517       0.10539901      -0.98969233      -0.19318913      -0.42218022       0.19481719       0.90159164       0.08931797       0.64167237
H        0.23163746       1.05305518       1.25407314       0.09440096      -0.11595056      -0.08303886       1.79765252       1.62655634      -0.38562565
H        0.28521934      -0.50774961       1.44503035       0.09399148       0.26951327       0.09601697      -0.68133956       0.06726803      -1.56668095
H       -1.01761487       0.37890490       0.92272416      -0.02051448       0.14081954       0.00102821      -3.13729230      -1.16014976       0.17429679
H       -0.88754678       0.72029949      -1.21122497       0.07183995       0.04656738      -0.10376066      -0.86551700       0.34342891      -0.45701259
H       -0.11683298      -1.05305518      -1.07676741       0.32128851      -0.12264650      -0.23692582       0.45620270       0.39110020      -0.52590325
H        1.01761487       0.65464569      -1.44503035       0.19086837      -0.15509237      -0.21142618      -0.74204748      -1.16690858       1.08247771
N       -0.05478377       0.21898301       0.75487617      -0.55898883       0.35886227       0.34291030       2.27074948      -0.19061307       1.03677552
8
Properties=species:S:1:pos:R:3:momenta:R:3:forces:R:3 energy=-2219.7538773807355 pbc="F F F"
B        0.04246345       0.11065418      -0.98436736      -0.18871690       0.03456849       0.04449160       1.27442410      -0.08719882       0.32747711
H        0.24890129       1.05641330       1.25162842       0.30375006      -0.00120508      -0.08697367       1.65700356       1.92952220      -0.35318522
H        0.28589734      -0.47594985       1.45004246      -0.04827225       0.13996689      -0.05307559      -0.51678889      -0.66297643      -1.09888150
H       -1.03468341       0.39135568       0.92988949      -0.32716599      -0.10804087      -0.04444368      -2.07775711      -1.16794941       0.12635780
H       -0.88554316       0.73490994      -1.21832358      -0.00299379       0.05435519      -0.11767712      -0.72054446       0.16900176      -0.39106112
H       -0.07993598      -1.05641330      -1.09281857       0.34052436      -0.06174266      -0.11998460       0.18936552       0.61115024      -0.33547577
H        1.03468341       0.63442831      -1.45004246       0.19703759      -0.38643549       0.01690878      -0.98058401      -1.00810834       1.25582340
N       -0.05742459       0.22880756       0.76250695      -0.27443741       0.32843654       0.36041146       1.17488131       0.21655879       0.46894524
8
Properties=species:S:1:pos:R:3:momenta:R:3:forces:R:3 energy=-2219.92293912886 pbc="F F F"
B        0.05136826       0.10876695      -0.98645605      -0.06728921      -0.15609991      -0.12879863       1.15440443      -0.33762557       0.35807273
H        0.29592997       1.06152451       1.24568368       0.47587674       0.04456751      -0.08437047       0.90735220       1.34926748      -0.64066419
H        0.28978886      -0.46791349       1.43889449      -0.04549359      -0.00088547      -0.10185227      -0.23011786      -1.21367463      -0.63100723
H       -1.05864937       0.36995119       0.93119619      -0.33856266      -0.27996554       0.10371123      -0.28636846      -0.91724596       0.04103625
H       -0.88179897       0.73915531      -1.22793167      -0.05606224       0.08309700      -0.14594328      -0.39023888      -0.02021720      -0.36380603
H       -0.03903688      -1.06152451      -1.10775687       0.33584331      -0.01747558      -0.17831448      -0.08305677       0.65998043      -0.20613343
H        1.05864937       0.59080685      -1.43889449       0.14991091      -0.39404524       0.26432086      -0.90141593      -0.58648271       1.14794566
N       -0.05092501       0.23130567       0.76418076      -0.45447149       0.72071946       0.27093684      -0.17055867       1.06599812       0.29455619
8
Properties=species:S:1:pos:R:3:momenta:R:3:forces:R:3 energy=-2220.016777794929 pbc="F F F"
B        0.06655719       0.09910599      -0.99175973       0.49106341      -0.17151944       0.31333696       0.54641068      -0.22423348       0.32669113
H        0.35500904       1.06692449       1.23161523       0.45756417       0.15275537      -0.13745747      -0.05967459       0.37744913      -1.01528639
H        0.29059318      -0.47725972       1.42033273      -0.20000007      -0.03536749      -0.11477248       0.05718129      -1.45042949      -0.35333403
H       -1.08123992       0.33181237       0.92856686      -0.26892417      -0.33992579       0.04335446       1.32902595      -0.45957043      -0.05743068
H       -0.88224559       0.73665461      -1.25048031      -0.20738404      -0.00542110      -0.18003450       0.23793479      -0.38531892      -0.22167282
H        0.00779682      -1.06692449      -1.13827739       0.32373327      -0.00331627      -0.25379647      -0.33696474       0.52486231      -0.03392093
H        1.08123992       0.54753285      -1.42033273       0.04267591      -0.37078169       0.27497549      -0.63609904      -0.12506813       0.94987573
N       -0.04166015       0.22848073       0.75864718      -0.63895309       0.77349700       0.05411331      -1.13781423       1.74230901       0.40507790
8
Properties=species:S:1:pos:R:3:momenta:R:3:forces:R:3 energy=-2220.0206814260805 pbc="F F F"
B        0.07676444       0.08204554      -0.99345366       0.16149491      -0.48210957       0.47038958      -0.19451538      -0.16599146       0.29690999
H        0.40366766       1.07907920       1.20827253       0.35567954       0.26500699      -0.22298105      -1.01550741      -0.76387861      -1.27515033
H        0.28283987      -0.49567628       1.40150310      -0.12844797      -0.11702032      -0.22268755       0.43257302      -1.52450853      -0.08763189
H       -1.08890144       0.27976055       0.92289822      -0.04650892      -0.41551425      -0.06069732       1.77654413       0.14942363      -0.03919904
H       -0.88740699       0.72151587      -1.27581823      -0.04889344      -0.05975491      -0.25654303       0.76483388      -0.68016184      -0.03492145
H        0.04329773      -1.07907920      -1.16153519       0.19395789       0.00517963      -0.12622752      -0.52047118       0.38609956       0.11496169
H        1.08890144       0.50634915      -1.40150310       0.00255768      -0.14983805       0.24370513      -0.20705846       0.30479191       0.73266650
N       -0.03779710       0.22092667       0.75485660      -0.49004293       0.95397861       0.17478774      -1.03639865       2.29422535       0.29236448
8
Properties=species:S:1:pos:R:3:momenta:R:3:forces:R:3 energy=-2220.0428587546708 pbc="F F F"
B        0.07590809       0.06996643      -0.99662923       0.53395079      -0.64446213       0.47778915      -0.76024235      -0.45340467       0.33294806
H        0.42320652       1.09061462       1.17041080       0.15589029       0.13231470      -0.38451646      -1.51912006      -1.25891880      -1.07228205
H        0.26227881      -0.52199479       1.37678474      -0.22322247      -0.28936113      -0.21092278       0.68972974      -1.04284646      -0.17168733
H       -1.08410636       0.22770118       0.90244364       0.14125614      -0.39986846      -0.15752779       0.95110970       0.80171399       0.15172631
H       -0.88871031       0.70439860      -1.30589345       0.07522335      -0.10998363      -0.15447236       0.90440967      -0.67853423       0.09392194
H        0.04436401      -1.09061462      -1.18870647      -0.00599429      -0.03908082      -0.23028875      -0.54148517       0.45116215       0.29202669
H        1.08410636       0.47784142      -1.37678474       0.06235722      -0.19092729       0.43008470       0.30580606       0.62075439       0.47098371
N       -0.04648322       0.22140336       0.74857061      -0.73964493       1.54130373       0.22962443      -0.03020748       1.56007368      -0.09763734
8
Properties=species:S:1:pos:R:3:momenta:R:3:forces:R:3 energy=-2220.0544100315765 pbc="F F F"
B        0.06982381       0.06175591      -1.00872641       0.15644780      -0.84844352       0.61225422      -1.24477876      -0.67416125       0.56893277
H        0.42434977       1.09602564       1.11663805      -0.00171547      -0.02553132      -0.37714738      -1.44330501      -1.02699319      -0.53024332
H        0.23730860      -0.56158484       1.34584404      -0.17061730      -0.40242081      -0.08685030       0.61385895       0.36562391      -0.83889518
H       -1.07304009       0.20045615       0.86803098       0.17291102      -0.12844333      -0.15106797      -0.37744507       1.25326793       0.37926160
H       -0.88867635       0.69059149      -1.33228907       0.10532244      -0.20274625      -0.05260464       0.84291438      -0.54956897       0.07564525
H        0.03171548      -1.09602564      -1.21937740      -0.03158525      -0.05190675      -0.16679458      -0.48347285       0.45980373       0.40411512
H        1.07304009       0.46478892      -1.34584404      -0.09663655      -0.09084969       0.49417328       0.89563444       0.86115944       0.10700968
N       -0.05750750       0.23117335       0.73121623      -0.13429310       1.75028283      -0.27217062       1.19659387      -0.68913155      -0.16582593
8
Properties=species:S:1:pos:R:3:momenta:R:3:forces:R:3 energy=-2219.9851354238135 pbc="F F F"
B        0.06574399       0.05722424      -1.00761718       0.26625110      -0.63491460       0.61880030      -1.15413343      -1.15871863       0.83397980
H        0.40835616       1.10121851       1.08021762      -0.07927851       0.07030056      -0.22656933      -0.98377310      -0.43785551       0.04459718
H        0.21221450      -0.59707912       1.33485674      -0.21860510      -0.23331484      -0.13106236       0.56382085       1.76940772      -1.44600827
H       -1.06165450       0.19011334       0.84952298       0.12492057      -0.05782169      -0.17336534      -1.61853172       1.47975555       0.50875605
H       -0.87129460       0.67318558      -1.33485674       0.23144727      -0.23330101       0.02444109       0.26390730      -0.12322244      -0.13246150
H        0.01705062      -1.10121851      -1.24035698      -0.12844800      -0.01008423      -0.16067296      -0.33393614       0.62392996       0.53028205
H        1.06165450       0.47383467      -1.30278636      -0.03221956       0.21673141       0.53730361       1.35297423       0.92974337      -0.18748990
N       -0.06521567       0.24240686       0.72483022      -0.16421834       0.88235116      -0.48906320       1.90967200      -3.08303996      -0.15165540
8
Properties=species:S:1:pos:R:3:momenta:R:3:forces:R:3 energy=-2219.96308274514 pbc="F F F"
B        0.05707172       0.04596909      -0.99684632      -0.07835687      -0.47166942       0.12268786      -0.00982388      -0.99625725       1.10633986
H        0.39534406       1.10075811       1.07034660       0.05719069       0.01715428      -0.13648249      -0.79538296      -0.35577864       0.25307483
H        0.18457085      -0.61829702       1.32583429      -0.15182585      -0.11909837      -0.25942784       0.76065085       2.04002026      -1.33384744
H       -1.06512353       0.18459762       0.84875733      -0.11396795       0.13871570      -0.05018713      -2.08705875       1.57564947       0.55373925
H       -0.85540399       0.64444738      -1.32583429       0.15967987      -0.17847177      -0.00229872      -0.51935012       0.48202069      -0.42169278
H       -0.00843014      -1.10075811      -1.24259068      -0.14059222       0.04850637      -0.02413779      -0.10414372       0.37885573       0.51913647
H        1.06512353       0.49560368      -1.24267090       0.30473669       0.38780013       0.54908238       0.93247594       0.55114434      -0.30458195
N       -0.07506320       0.24011922       0.73097272      -0.03700063       0.17701492      -0.19940657       1.82263265      -3.67565455      -0.37216824
8
Properties=species:S:1:pos:R:3:momenta:R:3:forces:R:3 energy=-2220.0215736547743 pbc="F F F"
B        0.04619906       0.04261623      -0.98136088      -0.45686342      -0.33808353      -0.31096130       1.89385653      -0.31014376       1.33882643
H        0.39234497       1.09444708       1.07770873       0.05996849      -0.09123961      -0.05766021      -0.49685647      -0.06291351       0.43110734
H        0.16849788      -0.62122812       1.31509433      -0.05124319       0.01035402      -0.30586356       0.84449947       1.69574036      -0.88367038
H       -1.09437624       0.21065534       0.86596234      -0.16142338       0.33743931       0.05044416      -0.66521262       1.49328834       0.47157481
H       -0.84775108       0.62954590      -1.31509433       0.13053416      -0.13073987      -0.03604021      -1.09445355       0.95180200      -0.66595778
H       -0.02849818      -1.09444708      -1.22322348      -0.09794870       0.02324911       0.06540993       0.05854803       0.07220795       0.41556414
H        1.09437624       0.52877042      -1.17935456       0.38987474       0.24543451       0.48791466      -0.38467805      -0.20480864      -0.30947553
N       -0.08212467       0.24230521       0.74690640       0.18697799      -0.05645752       0.10660244      -0.15570335      -3.63517273      -0.79796908
8
Properties=species:S:1:pos:R:3:momenta:R:3:forces:R:3 energy=-2220.0343360614916 pbc="F F F"
B        0.03611127       0.04488601      -0.96412318      -0.33909847      -0.40778357       0.03862199       3.04539757      -0.00304660       1.48118220
H        0.38177675       1.09662001       1.09377701      -0.09697817       0.09797584       0.01477130      -0.13275054       0.10509452       0.49917720
H        0.17093363      -0.61380000       1.30426999       0.14286450       0.07647879      -0.30784063       0.79971290       1.11290337      -0.31601745
H       -1.11993799       0.25539612       0.89223292      -0.15528048       0.42163606       0.08857219       0.66531552       1.08081976       0.39901894
H       -0.85339747       0.62511649      -1.30426999      -0.04337449      -0.06163864      -0.10673272      -1.22321517       1.11005480      -0.75701243
H       -0.03676495      -1.09662001      -1.20344905      -0.01775557      -0.15101694      -0.03301497       0.14482742       0.19803430       0.40856858
H        1.11993799       0.55526942      -1.11817610       0.21785315       0.12699592       0.38979221      -1.34247323      -0.71053953      -0.44997476
N       -0.08618328       0.24656195       0.76568340       0.29165797      -0.10268688      -0.08430883      -1.95681447      -2.89332056      -1.26494228
8
Properties=species:S:1:pos:R:3:momenta:R:3:forces:R:3 energy=-2220.0555499437482 pbc="F F F"
B        0.03689478       0.04008570      -0.93856827       0.15091050      -0.48681579       0.29623771       2.97077340       0.40262491       1.37971273
H        0.37373467       1.10632153       1.12224211      -0.09804921       0.19397894       0.09499009      -0.08817085      -0.35586714       0.22633752
H        0.19483376      -0.59245854       1.29577629       0.34015074       0.20061714      -0.27428579       0.88568499      -0.25091557       0.64070445
H       -1.13176253       0.29715991       0.92553299      -0.10710098       0.47184810       0.11299089       1.55544204       0.46245629       0.34472819
H       -0.85821605       0.62545900      -1.29577629      -0.11738309       0.03313692      -0.21290761      -0.81293753       0.84988747      -0.59185416
H       -0.03444776      -1.10632153      -1.17935675       0.04248871      -0.00161057       0.02055085       0.20250375       0.36096507       0.44065698
H        1.13176253       0.56722232      -1.05863936      -0.03714566       0.08776213       0.32141629      -1.61583371      -0.93487077      -0.64455509
N       -0.08422062       0.24384211       0.78790240      -0.17397197      -0.49895255      -0.35911862      -3.09746210      -0.53428027      -1.79573068
8
Properties=species:S:1:pos:R:3:momenta:R:3:forces:R:3 energy=-2220.062116029427 pbc="F F F"
B        0.04375606       0.02751508      -0.91631480       0.27118075      -0.41938310       0.24071862       2.21580289       0.94724970       1.20209664
H        0.36866829       1.11483492       1.15329628      -0.14515524       0.09452442       0.19042603      -0.24368475      -1.17734294      -0.29123443
H        0.22868075      -0.57490435       1.29790054       0.29785759       0.19138433      -0.05576121       0.90696931      -1.41941293       1.37239866
H       -1.12798290       0.33422154       0.95545684       0.01775789       0.45288067       0.06308834       1.73525010      -0.20931584       0.33609011
H       -0.86121864       0.62162158      -1.29790054      -0.03345081       0.09281941      -0.17132352      -0.21875935       0.43087398      -0.29668028
H       -0.01932730      -1.11483492      -1.16067659       0.18126838       0.02935372      -0.02521330       0.19371402       0.24085577       0.43931456
H        1.12798290       0.56111845      -1.00833823      -0.10823535      -0.08618899       0.21275691      -1.33805253      -0.87582903      -0.85346552
N       -0.08151254       0.23313604       0.80342889      -0.48131454      -0.35542276      -0.45480604      -3.25123969       2.06292128      -1.90851974
8
Properties=species:S:1:pos:R:3:momenta:R:3:forces:R:3 energy=-2220.078514062354 pbc="F F F"
B        0.04876587       0.02044298      -0.90008330       0.29428916      -0.11502993       0.41157007       1.24094874       1.56962389       0.97298912
H        0.34974993       1.11332924       1.19041529      -0.27083382      -0.07155148       0.29322994      -0.10809813      -1.44622949      -0.70589236
H        0.26512822      -0.56818089       1.30418635       0.39694954       0.15259618      -0.03732995       0.57264149      -1.58289037       1.43958499
H       -1.11676045       0.36521431       0.97437012       0.17752359       0.42098696       0.01827157       1.30033362      -0.80175055       0.40187019
H       -0.86493783       0.63503364      -1.30418635       0.03663015       0.23822137      -0.16723542       0.41688893      -0.10027133       0.03859838
H       -0.00040629      -1.11332924      -1.14364979       0.16173842       0.07016573       0.08293368       0.07618632      -0.05356374       0.37787023
H        1.11676045       0.54565389      -0.97971325      -0.18457984      -0.13868277       0.10169908      -0.81903510      -0.62310844      -0.95682094
N       -0.08320063       0.22502501       0.81270687      -0.61179986      -0.55673527      -0.70324229      -2.67986581       3.03818999      -1.56819955
8
Properties=species:S:1:pos:R:3:momenta:R:3:forces:R:3 energy=-2220.0644257019403 pbc="F F F"
B        0.05519953       0.01966162      -0.89145781       0.56688850      -0.24298930       0.59042342       0.08367126       1.93597182       0.76913060
H        0.31921404       1.10519199       1.21811591      -0.37212062      -0.19175158       0.18237364       0.43435094      -1.00950887      -0.94872115
H        0.30559750      -0.55441261       1.31628343       0.33344683       0.08205149       0.10853957      -0.06587825      -1.15436951       1.04115365
H       -1.09392648       0.40327187       0.98358942       0.17217081       0.34414039       0.10846550       0.29418585      -1.34256517       0.48691720
H       -0.85906719       0.65680930      -1.31628343       0.07717003       0.18622878      -0.15930851       0.80576507      -0.55063726       0.30280944
H        0.02044292      -1.10519199      -1.13172035       0.17296151       0.04227679       0.09250303      -0.05902127      -0.37667435       0.29326689
H        1.09392648       0.53248688      -0.96953449      -0.18653696      -0.05452213       0.02401636       0.12853136      -0.18602776      -1.02591462
N       -0.08439394       0.22441070       0.80935971      -0.76405490      -0.16546087      -0.94710650      -1.62160496       2.68381112      -0.91864201
8
Properties=species:S:1:pos:R:3:momenta:R:3:forces:R:3 energy=-2220.0140498181054 pbc="F F F"
B        0.05687972       0.03187994      -0.88566322       0.20303710       0.18198175       0.82288259      -0.45959959       1.99400640       0.67303135
H        0.28467269       1.08686601       1.22650569      -0.21758597      -0.30501126       0.07560928       1.40555222       0.51044310      -0.60793939
H        0.33233968      -0.54616804       1.32679597       0.21023284      -0.07670141       0.15502887      -0.90916107      -0.04854505       0.13556070
H       -1.07380542       0.43428593       0.99958213       0.14714624       0.06659602       0.21270910      -0.94748342      -1.58697488       0.50981226
H       -0.84276965       0.67888769      -1.32679597       0.28751309       0.06776252      -0.04026473       0.70579934      -0.68292696       0.34690679
H        0.04099889      -1.08686601      -1.11791065       0.36250412       0.06172238       0.20364711      -0.18458496      -0.64301001       0.19666231
H        1.07380542       0.53771272      -0.97132478      -0.10139916      -0.07230353       0.05464371       0.86848678       0.15206086      -1.00575228
N       -0.09147026       0.23709496       0.79886732      -0.89151594       0.07592959      -1.48434052      -0.47900926       0.30494654      -0.24828173
8
Properties=species:S:1:pos:R:3:momenta:R:3:forces:R:3 energy=-2219.920047113638 pbc="F F F"
B        0.05268444       0.04193332      -0.88318653       0.12533046       0.34845880       0.91606198      -0.20809780       1.82511731       0.67854837
H        0.26336240       1.07367308       1.21796220       0.00655441      -0.10370085      -0.09860306       1.96624327       1.50754707      -0.32821780
H        0.34824814      -0.55107918       1.33316932       0.24961599      -0.08326730       0.03205711      -1.63549139       1.08546415      -0.79325439
H       -1.06417315       0.44190496       1.01910792       0.12265667      -0.10193312       0.31720997      -1.95349157      -1.58929566       0.53722788
H       -0.81847353       0.69593443      -1.33316932       0.33999221       0.09319581      -0.02021042       0.27007080      -0.61276880       0.18265416
H        0.06980058      -1.07367308      -1.10561036       0.33017876       0.01669158       0.20290415      -0.39461562      -0.81370521       0.08213580
H        1.06417315       0.53706455      -0.97846838       0.07563592      -0.02474353      -0.02185797       1.17685386       0.35946154      -0.90158362
N       -0.10455555       0.24388111       0.78264291      -1.25002566      -0.14472304      -1.32763832       0.77852845      -1.76182039       0.54248959
8
Properties=species:S:1:pos:R:3:momenta:R:3:forces:R:3 energy=-2219.9388151140674 pbc="F F F"
B        0.04999459       0.04834922      -0.87160146       0.20483226       0.50992182       0.75750761       0.51095542       1.43029251       0.63805848
H        0.27438852       1.07209825       1.21161572       0.25334802      -0.00396721      -0.12306831       1.65381693       1.30737747      -0.51785307
H        0.36285529      -0.55194446       1.33498942       0.09108666       0.03014363      -0.11628825      -1.94669476       1.50279078      -1.20986945
H       -1.06580679       0.42923326       1.05388433      -0.11073543      -0.16369766       0.34243213      -2.03440260      -1.44527268       0.50661170
H       -0.79131050       0.69923993      -1.33498942       0.28932376      -0.04904954      -0.10137259      -0.27793319      -0.38744234      -0.02773012
H        0.09113161      -1.07209825      -1.08314562       0.20418321       0.02845474       0.18047022      -0.50438620      -0.68238050       0.01054008
H        1.06580679       0.54552014      -0.97347803       0.05972907       0.02615445       0.05565930       1.01758059       0.27741958      -0.75580416
N       -0.11558877       0.24475687       0.77738742      -0.99182296      -0.37797982      -0.99540938       1.58106381      -2.00278487       1.35604660
8
Properties=species:S:1:pos:R:3:momenta:R:3:forces:R:3 energy=-2220.0809998932173 pbc="F F F"
B        0.05953780       0.05772362      -0.84968167       0.29578568       1.03433685       0.89449896       1.06578194       0.52548771       0.45125116
H        0.30488847       1.07758881       1.21733013       0.19090119       0.04325001      -0.09750008       0.94965893       0.52607294      -0.81744812
H        0.36548350      -0.54855027       1.33328702      -0.13466422       0.00063894      -0.28060096      -1.64693609       1.16005710      -1.02085875
H       -1.08080486       0.40813619       1.10004210      -0.26576453      -0.28611363       0.29171338      -0.56734507      -1.36303928       0.02693596
H       -0.75844016       0.69477725      -1.33328702       0.27967815      -0.06877981      -0.15733018      -0.75766857      -0.07635678      -0.18286366
H        0.10741145      -1.07758881      -1.05638678       0.06747465      -0.12507171       0.10456450      -0.53173168      -0.18394671       0.04375113
H        1.08080486       0.55206271      -0.96552111       0.07598701       0.02067286      -0.15746876       0.85877577       0.19779678      -0.57011723
N       -0.11337650       0.24224690       0.78596450      -0.50944808      -0.61895124      -0.59793953       0.62946477      -0.78607176       2.06934950
8
Properties=species:S:1:pos:R:3:momenta:R:3:forces:R:3 energy=-2220.180876216175 pbc="F F F"
B        0.06603544       0.07103305      -0.80932583       0.14590447       0.86884849       0.88887120       1.97577291      -0.31677197       0.11573261
H        0.33600499       1.08459022       1.23876814       0.32542494      -0.07353914      -0.12501208       0.29459677      -0.16214915      -0.89561593
H        0.34303623      -0.54061534       1.32332187      -0.33836213       0.02210146      -0.54184899      -0.64974811      -0.04435215      -0.12089025
H       -1.10289303       0.38027201       1.15993520      -0.21175383      -0.31332536       0.23761892       0.97952548      -1.11449113      -0.54988727
H       -0.72119239       0.69613642      -1.32332187       0.27189794      -0.07719962      -0.32302378      -1.27333960       0.23021896      -0.30731709
H        0.11470105      -1.08459022      -1.00930215      -0.07790567      -0.05113859       0.14818448      -0.54663179       0.43978270       0.10164698
H        1.10289303       0.56470174      -0.95220459       0.20812658       0.06382762      -0.11041683       0.35337723      -0.08371034      -0.24878798
N       -0.11126791       0.24346140       0.81503377      -0.32337767      -0.43959090      -0.17442963      -1.13355288       1.05147313       1.90511899
8
Properties=species:S:1:pos:R:3:momenta:R:3:forces:R:3 energy=-2220.173180887909 pbc="F F F"
B        0.06607868       0.07933942      -0.76408591       0.47133804       0.61386019       0.82350168       2.13768619      -0.37200821      -0.35162276
H        0.36426895       1.08082553       1.25502326       0.32215606      -0.12782283      -0.30357999      -0.18320999      -0.48266912      -0.74497473
H        0.31184174      -0.53280233       1.31084395      -0.15810975      -0.02326744      -0.39584421       0.62303362      -1.83898707       1.04730604
H       -1.11664654       0.34804015       1.22083613       0.06037417      -0.34325359       0.27552304       1.65114812      -0.70774690      -0.86965545
H       -0.71106647       0.69253167      -1.31084395       0.03324617      -0.00455762      -0.25870889      -1.25039698       0.26291923      -0.17189543
H        0.09992615      -1.08082553      -0.95639259      -0.19646226       0.04190065       0.09427187      -0.44441758       0.51625765       0.07688221
H        1.11664654       0.57218721      -0.92508281       0.13321100       0.05741678      -0.07823757      -0.06475745      -0.30879378      -0.01725462
N       -0.11703229       0.24236440       0.85057673      -0.66579449      -0.21429067      -0.15697725      -2.46908588       2.93102815       1.03121469
8
Properties=species:S:1:pos:R:3:momenta:R:3:forces:R:3 energy=-2220.199822949152 pbc="F F F"
B        0.05485811       0.09140840      -0.72881235       0.20167532       0.53452617       0.46861239       1.71941416      -0.14147311      -0.96363360
H        0.37974224       1.06925836       1.24790424       0.31949027      -0.21621489      -0.40915027      -0.28877054      -0.07128744      -0.25372507
H        0.28930910      -0.53430121       1.30823418       0.05039779      -0.15735048      -0.28531655       1.02281068      -2.25157234       1.25902535
H       -1.11838597       0.32302515       1.26894294       0.17054306      -0.31126973       0.16297077       1.12705339      -0.22439685      -0.74667130
H       -0.72621369       0.69930319      -1.30823418       0.03582704       0.01202815      -0.29651061      -0.82445031       0.04677218       0.20193194
H        0.06455466      -1.06925836      -0.90905596      -0.18552647       0.02936049       0.22143111      -0.31234226       0.44661577      -0.00410898
H        1.11838597       0.57741275      -0.90668438       0.18484145      -0.09748841      -0.06385084      -0.39552990      -0.45513358       0.19137720
N       -0.13756012       0.24853521       0.87985404      -0.77728560       0.20639556       0.20176756      -2.04818526       2.65047542       0.31580446
8
Properties=species:S:1:pos:R:3:momenta:R:3:forces:R:3 energy=-2220.222100437412 pbc="F F F"
B        0.03607837       0.10555262      -0.69952572       0.14595184       0.44533441       0.17477253       1.26945163       0.05677742      -1.58758526
H        0.39232139       1.05680115       1.22528702       0.35629953      -0.25034242      -0.52811917      -0.17739646       0.65370071       0.39780461
H        0.28093461      -0.55558413       1.31408787       0.11481215      -0.38101093      -0.17413329       0.32257839      -0.78715404       0.54590314
H       -1.11952565       0.30887885       1.30511461       0.16432000      -0.23117699       0.06691037       0.14917711       0.21476154      -0.28952352
H       -0.75343345       0.71248457      -1.31408787      -0.11665610      -0.01036711      -0.30292695      -0.23281619      -0.24756167       0.68459329
H        0.02537387      -1.05680115      -0.86750711      -0.24102638       0.03753092       0.10180170      -0.23579856       0.42269464      -0.08625949
H        1.11952565       0.57507900      -0.88417260       0.25110442      -0.11749588      -0.00804598      -0.78254328      -0.53008278       0.33381509
N       -0.16417873       0.26076627       0.90774363      -0.67483907       0.50751612       0.66969876      -0.31265270       0.21686419       0.00125218
