
     Program PWSCF v.7.0 starts on 15Apr2026 at 16:15:16 

     This program is part of the open-source Quantum ESPRESSO suite
     for quantum simulation of materials; please cite
         "P. Giannozzi et al., J. Phys.:Condens. Matter 21 395502 (2009);
         "P. Giannozzi et al., J. Phys.:Condens. Matter 29 465901 (2017);
         "P. Giannozzi et al., J. Chem. Phys. 152 154105 (2020);
          URL http://www.quantum-espresso.org", 
     in publications or presentations arising from this work. More details at
     http://www.quantum-espresso.org/quote

     Parallel version (MPI), running on     4 processors

     MPI processes distributed on     1 nodes
     R & G space division:  proc/nbgrp/npool/nimage =       4
     32481 MiB available memory on the printing compute node when the environment starts

     Reading input from espresso.pwi
Warning: card &CELL ignored
Warning: card / ignored
Warning: card &FCP ignored
Warning: card / ignored
Warning: card &RISM ignored
Warning: card / ignored

     Current dimensions of program PWSCF are:
     Max number of different atomic species (ntypx) = 10
     Max number of k-points (npk) =  40000
     Max angular momentum in pseudopotentials (lmaxx) =  4

     gamma-point specific algorithms are used

     Subspace diagonalization in iterative solution of the eigenvalue problem:
     a serial algorithm will be used


     Parallelization info
     --------------------
     sticks:   dense  smooth     PW     G-vecs:    dense   smooth      PW
     Min        3278    1637    409               281776    99671   12484
     Max        3281    1640    412               281778    99672   12486
     Sum       13117    6557   1641              1127109   398687   49941

     Using Slab Decomposition



     bravais-lattice index     =            0
     lattice parameter (alat)  =      22.6767  a.u.
     unit-cell volume          =   11661.1220 (a.u.)^3
     number of atoms/cell      =            8
     number of atomic types    =            3
     number of electrons       =        14.00
     number of Kohn-Sham states=            7
     kinetic-energy cutoff     =      40.0000  Ry
     charge density cutoff     =     320.0000  Ry
     scf convergence threshold =      1.0E-05
     mixing beta               =       0.3000
     number of iterations used =            8  plain     mixing
     Exchange-correlation= PBE
                           (   1   4   3   4   0   0   0)

     celldm(1)=  22.676713  celldm(2)=   0.000000  celldm(3)=   0.000000
     celldm(4)=   0.000000  celldm(5)=   0.000000  celldm(6)=   0.000000

     crystal axes: (cart. coord. in units of alat)
               a(1) = (   1.000000   0.000000   0.000000 )  
               a(2) = (   0.000000   1.000000   0.000000 )  
               a(3) = (   0.000000   0.000000   1.000000 )  

     reciprocal axes: (cart. coord. in units 2 pi/alat)
               b(1) = (  1.000000  0.000000  0.000000 )  
               b(2) = (  0.000000  1.000000  0.000000 )  
               b(3) = (  0.000000  0.000000  1.000000 )  


     PseudoPot. # 1 for B  read from file:
     /home/rverma7/Softwares/qe-7.0/pseudo/SSSP_1.3.0_PBE/b_pbe_v1.4.uspp.F.UPF
     MD5 check sum: cc6de2960df11db49a60e589f9ebb39b
     Pseudo is Ultrasoft + core correction, Zval =  3.0
     Generated by new atomic code, or converted to UPF format
     Using radial grid of  781 points,  4 beta functions with: 
                l(1) =   0
                l(2) =   0
                l(3) =   1
                l(4) =   1
     Q(r) pseudized with  8 coefficients,  rinner =    1.100   1.100   1.100


     PseudoPot. # 2 for H  read from file:
     /home/rverma7/Softwares/qe-7.0/pseudo/SSSP_1.3.0_PBE/H.pbe-rrkjus_psl.1.0.0.UPF
     MD5 check sum: f52b6d4d1c606e5624b1dc7b2218f220
     Pseudo is Ultrasoft, Zval =  1.0
     Generated using "atomic" code by A. Dal Corso  v.5.1
     Using radial grid of  929 points,  2 beta functions with: 
                l(1) =   0
                l(2) =   0
     Q(r) pseudized with 0 coefficients 


     PseudoPot. # 3 for N  read from file:
     /home/rverma7/Softwares/qe-7.0/pseudo/SSSP_1.3.0_PBE/N.pbe-n-radius_5.UPF
     MD5 check sum: 16739722b17309cd8fe442a2ace49922
     Pseudo is Ultrasoft + core correction, Zval =  5.0
     Generated using "atomic" code by A. Dal Corso  v.5.1
     Using radial grid of 1085 points,  4 beta functions with: 
                l(1) =   0
                l(2) =   0
                l(3) =   1
                l(4) =   1
     Q(r) pseudized with 0 coefficients 


     atomic species   valence    mass     pseudopotential
        B              3.00    10.81000     B ( 1.00)
        H              1.00     1.00800     H ( 1.00)
        N              5.00    14.00700     N ( 1.00)

     No symmetry found



   Cartesian axes

     site n.     atom                  positions (alat units)
         1           B   tau(   1) = (   0.4770568   0.5003615   0.4295197  )
         2           H   tau(   2) = (   0.4505529   0.5531272   0.6118739  )
         3           H   tau(   3) = (   0.5617470   0.4872684   0.5799248  )
         4           H   tau(   4) = (   0.4370569   0.4190455   0.6096297  )
         5           H   tau(   5) = (   0.4273114   0.5809545   0.4147937  )
         6           H   tau(   6) = (   0.4250421   0.4295533   0.3881261  )
         7           H   tau(   7) = (   0.5749579   0.5135568   0.4144642  )
         8           N   tau(   8) = (   0.4793207   0.4847305   0.5733683  )

     number of k points=     1
                       cart. coord. in units 2pi/alat
        k(    1) = (   0.0000000   0.0000000   0.0000000), wk =   2.0000000

     Dense  grid:   563555 G-vectors     FFT dimensions: ( 135, 135, 135)

     Smooth grid:   199344 G-vectors     FFT dimensions: (  96,  96,  96)

     Estimated max dynamical RAM per process >     241.51 MB

     Estimated total dynamical RAM >     966.03 MB

     Initial potential from superposition of free atoms

     starting charge      13.9997, renormalised to      14.0000

     negative rho (up, down):  1.943E-04 0.000E+00
     Starting wfcs are   14 randomized atomic wfcs

     total cpu time spent up to now is        1.2 secs

     Self-consistent Calculation

     iteration #  1     ecut=    40.00 Ry     beta= 0.30
     Davidson diagonalization with overlap
     ethr =  1.00E-02,  avg # of iterations =  2.0

     negative rho (up, down):  3.198E-04 0.000E+00

     total cpu time spent up to now is        1.8 secs

     total energy              =     -33.70338096 Ry
     estimated scf accuracy    <       0.99663190 Ry

     iteration #  2     ecut=    40.00 Ry     beta= 0.30
     Davidson diagonalization with overlap
     ethr =  7.12E-03,  avg # of iterations =  1.0

     negative rho (up, down):  7.557E-04 0.000E+00

     total cpu time spent up to now is        2.3 secs

     total energy              =     -33.62426295 Ry
     estimated scf accuracy    <       0.25495716 Ry

     iteration #  3     ecut=    40.00 Ry     beta= 0.30
     Davidson diagonalization with overlap
     ethr =  1.82E-03,  avg # of iterations =  2.0

     negative rho (up, down):  7.577E-04 0.000E+00

     total cpu time spent up to now is        2.9 secs

     total energy              =     -33.66454148 Ry
     estimated scf accuracy    <       0.02991161 Ry

     iteration #  4     ecut=    40.00 Ry     beta= 0.30
     Davidson diagonalization with overlap
     ethr =  2.14E-04,  avg # of iterations =  2.0

     negative rho (up, down):  1.032E-03 0.000E+00

     total cpu time spent up to now is        3.5 secs

     total energy              =     -33.66397397 Ry
     estimated scf accuracy    <       0.00762583 Ry

     iteration #  5     ecut=    40.00 Ry     beta= 0.30
     Davidson diagonalization with overlap
     ethr =  5.45E-05,  avg # of iterations =  2.0

     negative rho (up, down):  8.604E-04 0.000E+00

     total cpu time spent up to now is        4.0 secs

     total energy              =     -33.66466269 Ry
     estimated scf accuracy    <       0.00092199 Ry

     iteration #  6     ecut=    40.00 Ry     beta= 0.30
     Davidson diagonalization with overlap
     ethr =  6.59E-06,  avg # of iterations =  3.0

     negative rho (up, down):  8.353E-04 0.000E+00

     total cpu time spent up to now is        4.6 secs

     total energy              =     -33.66473494 Ry
     estimated scf accuracy    <       0.00064374 Ry

     iteration #  7     ecut=    40.00 Ry     beta= 0.30
     Davidson diagonalization with overlap
     ethr =  4.60E-06,  avg # of iterations =  2.0

     negative rho (up, down):  8.087E-04 0.000E+00

     total cpu time spent up to now is        5.2 secs

     total energy              =     -33.66481364 Ry
     estimated scf accuracy    <       0.00005740 Ry

     iteration #  8     ecut=    40.00 Ry     beta= 0.30
     Davidson diagonalization with overlap
     ethr =  4.10E-07,  avg # of iterations =  3.0

     negative rho (up, down):  7.895E-04 0.000E+00

     total cpu time spent up to now is        5.7 secs

     total energy              =     -33.66483085 Ry
     estimated scf accuracy    <       0.00006027 Ry

     iteration #  9     ecut=    40.00 Ry     beta= 0.30
     Davidson diagonalization with overlap
     ethr =  4.10E-07,  avg # of iterations =  2.0

     negative rho (up, down):  7.827E-04 0.000E+00

     total cpu time spent up to now is        6.3 secs

     total energy              =     -33.66483408 Ry
     estimated scf accuracy    <       0.00001030 Ry

     iteration # 10     ecut=    40.00 Ry     beta= 0.30
     Davidson diagonalization with overlap
     ethr =  7.35E-08,  avg # of iterations =  2.0

     negative rho (up, down):  7.889E-04 0.000E+00

     total cpu time spent up to now is        6.8 secs

     End of self-consistent calculation

          k = 0.0000 0.0000 0.0000 ( 24971 PWs)   bands (ev):

   -23.3572 -13.9167 -13.0038 -11.8859  -8.3686  -6.7608  -6.1191

     highest occupied level (ev):    -6.1191

!    total energy              =     -33.66483408 Ry
     estimated scf accuracy    <       0.00000206 Ry

     The total energy is the sum of the following terms:
     one-electron contribution =     -98.69231939 Ry
     hartree contribution      =      50.79477390 Ry
     xc contribution           =     -12.73655214 Ry
     ewald contribution        =      26.96926356 Ry

     convergence has been achieved in  10 iterations

     negative rho (up, down):  7.889E-04 0.000E+00

     Forces acting on atoms (cartesian axes, Ry/au):

     atom    1 type  1   force =     0.01207624    0.00137007    0.04305297
     atom    2 type  2   force =    -0.01397426    0.03028927    0.00652095
     atom    3 type  2   force =     0.04295287   -0.02724397    0.02966937
     atom    4 type  2   force =     0.03209884    0.00283556   -0.01435248
     atom    5 type  2   force =    -0.02658006    0.05966200   -0.00424587
     atom    6 type  2   force =    -0.00333819   -0.04734121   -0.01164901
     atom    7 type  2   force =     0.01262495   -0.01049464   -0.01700223
     atom    8 type  3   force =    -0.05586039   -0.00907706   -0.03199371

     Total force =     0.139016     Total SCF correction =     0.001482


     Computing stress (Cartesian axis) and pressure


     negative rho (up, down):  7.889E-04 0.000E+00
          total   stress  (Ry/bohr**3)                   (kbar)     P=        1.20
   0.00000934  -0.00000926   0.00000383            1.37       -1.36        0.56
  -0.00000926   0.00001820   0.00000364           -1.36        2.68        0.54
   0.00000383   0.00000364  -0.00000312            0.56        0.54       -0.46


     Writing all to output data dir ./qe_out/pwscf.save/

     init_run     :      0.98s CPU      1.13s WALL (       1 calls)
     electrons    :      4.04s CPU      5.71s WALL (       1 calls)
     forces       :      0.44s CPU      0.54s WALL (       1 calls)
     stress       :      0.87s CPU      1.12s WALL (       1 calls)

     Called by init_run:
     wfcinit      :      0.03s CPU      0.03s WALL (       1 calls)
     potinit      :      0.58s CPU      0.64s WALL (       1 calls)
     hinit0       :      0.22s CPU      0.24s WALL (       1 calls)

     Called by electrons:
     c_bands      :      0.42s CPU      0.45s WALL (      10 calls)
     sum_band     :      1.14s CPU      1.80s WALL (      10 calls)
     v_of_rho     :      1.40s CPU      1.77s WALL (      11 calls)
     newd         :      0.78s CPU      1.42s WALL (      11 calls)
     mix_rho      :      0.26s CPU      0.29s WALL (      10 calls)

     Called by c_bands:
     init_us_2    :      0.02s CPU      0.02s WALL (      21 calls)
     init_us_2:cp :      0.02s CPU      0.02s WALL (      21 calls)
     regterg      :      0.40s CPU      0.43s WALL (      10 calls)

     Called by *egterg:
     rdiaghg      :      0.00s CPU      0.00s WALL (      31 calls)
     h_psi        :      0.38s CPU      0.42s WALL (      32 calls)
     s_psi        :      0.01s CPU      0.01s WALL (      32 calls)
     g_psi        :      0.00s CPU      0.00s WALL (      21 calls)

     Called by h_psi:
     h_psi:calbec :      0.01s CPU      0.01s WALL (      32 calls)
     vloc_psi     :      0.36s CPU      0.39s WALL (      32 calls)
     add_vuspsi   :      0.01s CPU      0.01s WALL (      32 calls)

     General routines
     calbec       :      0.02s CPU      0.02s WALL (      47 calls)
     fft          :      1.50s CPU      1.74s WALL (     139 calls)
     ffts         :      0.43s CPU      0.43s WALL (      21 calls)
     fftw         :      0.28s CPU      0.31s WALL (     272 calls)
     interpolate  :      0.54s CPU      0.55s WALL (      11 calls)

     Parallel routines

     PWSCF        :      6.39s CPU      8.68s WALL


   This run was terminated on:  16:15:24  15Apr2026            

=------------------------------------------------------------------------------=
   JOB DONE.
=------------------------------------------------------------------------------=
