B  H  N 
 1.0000000000000000
    12.0000000000000000    0.0000000000000000    0.0000000000000000
     0.0000000000000000   12.0000000000000000    0.0000000000000000
     0.0000000000000000    0.0000000000000000   12.0000000000000000
 B   H   N  
   1   6   1
Cartesian
  4.4997734079124241  6.0736113819886848  7.1219753118808899
  7.5061453384535888  4.9057745280628211  3.8289291655807425
  6.2589034200206051  6.3078865795578745  4.0838480298260773
  7.9952076442811828  6.2942578712737873  4.8772730657227275
  4.9334283920648803  5.9566887439061844  8.1710708344192540
  4.4859619985793566  7.0942254719371807  6.4991135453960984
  4.0047923557188154  5.1902573895650672  6.4495000833502498
  7.2017806392548858  5.7000502652422984  4.5035302606616678
