8
Properties=species:S:1:pos:R:3:momenta:R:3:forces:R:3:charge:R:1 energy=-194.7063141262554 free_energy=-194.7063141262554 dipole="-0.2848455822932611 0.3534362092339494 -0.06307555276234773" pbc="F F F"
B       -1.46514088      -0.47024481      -1.57677620       0.47951032      -0.28661404      -0.05197627       0.15625201      -0.26372421       1.28951107       0.24830467
H        1.74445881       0.96488537       2.69041989      -0.29017869       0.11130784       0.05698565       0.60773597      -0.09387751       0.14687214       0.14159683
H        1.02549567       0.32802995       1.48178501       0.18384909      -0.02695988      -0.12008582       0.18253774      -0.45346925      -0.41554475       0.14157587
H        2.30859742       1.27103759       1.19405918       0.04840540      -0.23469277       0.03228708      -0.00312212      -0.61013561       0.38091716       0.14070003
H       -1.07364421      -0.18513462      -2.69041989      -0.12853317      -0.02956989      -0.07068153      -0.48417407      -0.27648954       1.18515226      -0.06891928
H       -2.30859742      -1.27103759      -1.24454568      -0.14096838      -0.08871354       0.12267123       0.42674543       0.50435442      -0.97399583      -0.08261638
H       -0.99529827      -0.06873218      -0.50236334      -0.10256708       0.10809356       0.24520393      -0.09491181       0.03954860      -1.49303765      -0.09647267
N        1.97674083       0.50520995       1.80683447      -1.76061853       0.09210988      -0.49468947      -0.79106315       1.15379311      -0.11987441      -0.42416907
8
Properties=species:S:1:pos:R:3:momenta:R:3:forces:R:3:charge:R:1 energy=-194.75602133637 free_energy=-194.75602133637 dipole="-0.20773480722620766 0.3752203672659792 -0.07182401794485847" pbc="F F F"
B       -1.61492875      -0.28867071      -1.56530434       0.36341383      -0.28889867      -0.08758760       0.66880750      -1.15563621       0.31223677       0.24487016
H        1.19430810       1.02558224       2.67230183      -0.20305476       0.07986819       0.10083823       0.50081513       0.12696171      -0.43522806       0.13917160
H        0.87027874       0.50718869       1.17840874       0.10905003       0.07412313       0.03434942      -0.61121135       0.05736834      -1.05961326       0.14681283
H        2.38896718       1.17358184       1.46623563      -0.04095150      -0.16773660       0.19974688      -0.37052703       0.23230024      -0.00768305       0.14757139
H       -1.27211695      -0.30793295      -2.67230183       0.24351787      -0.01756649      -0.19036591       0.16133140       0.63324502      -0.24075924      -0.08054211
H       -2.38896718      -1.17358184      -1.40509685       0.21436641       0.14514702       0.20457826       0.01225767       0.66028404       0.51447916      -0.08162528
H       -0.90213374       0.16258547      -0.70754344      -0.10459019      -0.36008024      -0.17875263      -0.84218337      -0.13435830      -0.58500330      -0.08211231
N        1.60376701       0.65000173       1.81634288      -0.81352449       0.48705280      -0.12077195       0.48071005      -0.42016485       1.50157098      -0.43414629
8
Properties=species:S:1:pos:R:3:momenta:R:3:forces:R:3:charge:R:1 energy=-194.88616954106107 free_energy=-194.88616954106107 dipole="-0.1462676437385046 0.29200408846547643 -0.1583655635538311" pbc="F F F"
B       -1.39103386      -0.65842474      -1.50735092      -0.11908164       0.71575542       0.46638004      -0.56420503       0.23992226       0.81224735       0.24644088
H        1.11350347       0.90387237       2.60286167      -0.27054564      -0.04721805      -0.23527423       1.09674396      -0.52909985      -0.35324467       0.13470309
H        1.16939488       0.31011790       1.16746086       0.22500727      -0.01248499       0.03271801      -0.53821775      -0.47310617      -1.48803417       0.14784580
H        2.46354657       1.09675664       1.68950566       0.01904082      -0.13095099       0.01002180       0.70283061       0.61387113      -0.22805958       0.14874866
H       -1.02562875      -0.53104641      -2.60286167       0.00568362      -0.15465395      -0.07911504      -0.00981026      -0.12489738       0.03253768      -0.07330518
H       -2.46354657      -1.09675664      -1.21573901      -0.12806606      -0.04394228      -0.18172890       0.60086193       0.09609636      -0.39629888      -0.08277518
H       -0.78739976      -0.20176082      -0.59515229       0.07172830       0.04193289       0.18076159      -0.02346524      -0.20862861      -0.44292863      -0.08985753
N        1.77321312       0.42830856       1.93490472       0.16483915      -0.37495207      -0.19890577      -1.26473824       0.38584226       2.06378090      -0.43180053
8
Properties=species:S:1:pos:R:3:momenta:R:3:forces:R:3:charge:R:1 energy=-194.86939115519158 free_energy=-194.86939115519158 dipole="-0.06954986549931977 0.37206421343534035 -0.15086964584201107" pbc="F F F"
B       -1.54863904      -0.44287984      -1.44999425       0.49485596      -0.27512918      -0.51013950       0.16524415      -0.78725526      -0.83753970       0.24553942
H        0.84599951       1.21312079       2.52173505       0.13044398       0.06376990      -0.10549899       0.71375912      -0.00440316      -0.01970180       0.14307776
H        1.34088229       0.59630937       1.12827858      -0.11869333       0.17972440       0.08216163      -0.42749352      -0.29281392      -1.35673099       0.14440936
H        2.48327495       1.11414614       2.08316865       0.40686589       0.20348529      -0.04549293       0.39017861       0.57908788       0.41629171       0.14779304
H       -1.06568770      -0.20922928      -2.52173505       0.02879334       0.11056166       0.14403390      -0.41770623       0.02108219       0.55065054      -0.08821992
H       -2.48327495      -1.21312079      -1.44039303       0.11867477      -0.15111474      -0.05267785       0.71455851       0.82784216       0.26286833      -0.07981998
H       -0.90913862      -0.10839221      -0.52718947      -0.33053918       0.13931698       0.01344166      -0.45884005      -0.06028139       0.03039311      -0.07727878
N        1.59093980       0.67087017       2.07692749      -0.73465384      -0.27149666       0.47347552      -0.67970059      -0.28325851       0.95376879      -0.43550090
8
Properties=species:S:1:pos:R:3:momenta:R:3:forces:R:3:charge:R:1 energy=-194.45983579947708 free_energy=-194.45983579947708 dipole="0.04370099824730328 0.24698084251334146 -0.11552408473740264" pbc="F F F"
B       -1.72073089      -0.45441737      -1.45815594      -1.09082836      -0.22107594      -0.00565917      -0.67755661      -0.11251669      -0.30005383       0.24362597
H        0.95121682       1.28666055       2.60386192       0.21078513      -0.17904865      -0.34705221       0.11800143       1.10215056       0.95240287       0.15144947
H        0.94694798       0.72662851       1.12849724       0.15729013       0.24497871       0.23169888      -0.68900695       0.04880528      -1.97986414       0.14616990
H        2.54157668       0.92611902       1.78851483       0.27356502       0.19305591      -0.11679255      -3.57782569      -0.02078435       0.67230849       0.12937156
H       -1.45308828      -0.13675623      -2.60386192       0.02883838      -0.17346939      -0.22700297       0.06641334      -0.08692673       1.34483170      -0.07724461
H       -2.54157668      -1.28666055      -1.31550650       0.05473201      -0.38154217       0.41826396       0.15364117      -0.06584529      -0.32780501      -0.08832145
H       -1.45961896      -0.00183663      -0.39832990       0.12159640      -0.14998079       0.16704408       0.46329033       0.26752055      -0.70842669      -0.07783479
N        1.44388647       0.73992712       1.95762111       0.24344530       0.66696280      -0.12059437       4.14304299      -1.13240333       0.34660662      -0.42721605
8
Properties=species:S:1:pos:R:3:momenta:R:3:forces:R:3:charge:R:1 energy=-194.818637547002 free_energy=-194.818637547002 dipole="-0.026173612162265405 0.3555246485888642 -0.10913771584542051" pbc="F F F"
B       -1.83050012      -0.51758899      -1.43033493       0.54137203      -0.57511123      -0.33092739       0.57729111      -0.54805924       0.62660173       0.24143584
H        1.07016976       1.45790024       2.51088737      -0.09971737      -0.20056127      -0.01792571       0.29639045      -0.22869621      -0.22240336       0.13780609
H        0.95997188       0.82546927       1.03484410       0.03624741       0.08714522       0.02373829      -0.47920836       0.18889313      -1.77474232       0.15180217
H        2.47992773       0.88571002       1.79902204      -0.21323560      -0.03456796       0.14914347      -1.43298770      -0.00125288      -0.24720880       0.13975164
H       -1.64298230      -0.25948754      -2.51088737      -0.40754489       0.11433933      -0.00392902      -0.17443609       0.31872724      -1.24250045      -0.08072778
H       -2.47992773      -1.45790024      -1.17802919      -0.15083530       0.19774859       0.11170716      -0.00307276       0.34653672       0.23322121      -0.07610224
H       -1.07233634       0.01270754      -0.71501930      -0.14348289       0.20140298       0.10947134      -0.39818756      -0.11496086       0.38482697      -0.08428783
N        1.44675099       0.75570923       1.87187088       0.43711859       0.20958815      -0.04129093       1.61421090       0.03881210       2.24220502      -0.42967788
8
Properties=species:S:1:pos:R:3:momenta:R:3:forces:R:3:charge:R:1 energy=-194.72443022026485 free_energy=-194.72443022026485 dipole="0.17849209249677486 0.3252361452350015 -0.11052353157595668" pbc="F F F"
B       -1.76603218      -0.56430866      -1.46921451      -0.58469728       0.87672700       0.14186576      -0.42539290       1.33253729      -0.33416276       0.24294701
H        1.11039619       1.33312835       2.56625230      -0.03084327       0.18186259       0.03091690       0.56219249      -1.36859108      -0.92135465       0.13441031
H        1.29037802       0.93487503       1.00301590       0.15929799      -0.07692683      -0.02598891      -0.69794667      -0.01010175      -1.01100328       0.14729777
H        2.58201533       0.91676771       1.90750674       0.17980704       0.02263756       0.18345661      -1.59270194      -0.87319718       0.32348718       0.13081241
H       -1.79207238      -0.08783958      -2.56625230       0.15209019      -0.04617304      -0.07264220       0.32835188      -0.41597258       0.53068892      -0.08653932
H       -2.58201533      -1.33312835      -1.21712812      -0.04774045       0.26472933      -0.41203344      -0.03274164      -0.53495259       0.10220232      -0.07597652
H       -1.26987052       0.05454538      -0.59638258      -0.02450385      -0.03670291      -0.18934029       0.13408563      -0.37976987      -0.29262684      -0.08034233
N        1.54795218       0.61032326       1.90737266       0.19657907      -1.18615590       0.34376385       1.72415315       2.25004777       1.60276910      -0.41260933
8
Properties=species:S:1:pos:R:3:momenta:R:3:forces:R:3:charge:R:1 energy=-194.8597169775181 free_energy=-194.8597169775181 dipole="0.03717602157562739 0.403907026814273 -0.1681824256210421" pbc="F F F"
B       -1.77302134      -0.45859968      -1.46295520       0.84759680       0.72047736       0.13714527       0.01166785      -0.96546637       0.34271165       0.24185506
H        1.05249512       1.33603138       2.48697952       0.34811816       0.30088229      -0.07778082       0.57268468      -0.07109697       0.30782458       0.14445172
H        1.17749875       0.65761900       1.03877917      -0.06967802       0.25440562      -0.04977879       0.58229946      -0.48811702       1.37995735       0.13071261
H        2.56039848       0.68052289       1.97405735      -0.21982095       0.13110247       0.05192587      -1.47037905       0.11757781       0.36639630       0.13966945
H       -1.44693397      -0.05414305      -2.48697952       0.10185646      -0.13909542       0.07995320       0.06008115       0.37883278      -0.28938691      -0.07772615
H       -2.56039848      -1.33603138      -1.43678150      -0.22518100      -0.04231293      -0.00773461       0.03458978       0.36443591       0.02175578      -0.08418971
H       -1.17420936      -0.24400601      -0.48456340      -0.20093165      -0.26858126       0.35985626      -0.10086845       0.22394789      -0.06802292      -0.07969766
N        1.51862931       0.54801101       2.04177290      -0.58196124      -0.95687843      -0.49358661       0.30992457       0.43988597      -2.06123581      -0.41507533
8
Properties=species:S:1:pos:R:3:momenta:R:3:forces:R:3:charge:R:1 energy=-194.71217065373352 free_energy=-194.71217065373352 dipole="0.09068047943816607 0.09237051025228966 -0.06035714356331794" pbc="F F F"
B       -1.62735335      -0.55375664      -1.51037559      -0.12883179       0.48208084       0.38003862       1.06810555       1.95930812      -1.03236326       0.24046510
H        0.99832436       1.19651108       2.38374481      -0.06388538       0.13299025      -0.13770091      -0.24004290       0.28404377      -0.32528657       0.14137928
H        1.35488984       0.28759201       0.96779303       0.07728378      -0.28660447      -0.02112589       0.35029181       0.44035662       0.25963009       0.15021332
H        2.48353067       0.52378667       2.26430815      -0.02750811      -0.22401005       0.02115369       0.98724740       0.01702528      -0.26278151       0.14689691
H       -1.22145776       0.17711472      -2.38374481       0.46309086       0.12149260      -0.41417009      -0.07397802      -0.56443423       0.55400035      -0.09646696
H       -2.48353067      -1.19651108      -1.79905001       0.25792116      -0.16204427      -0.16919326      -1.16747801      -1.20428663      -0.15549466      -0.07024617
H       -1.25375414      -0.33673052      -0.45560365       0.34562032      -0.57888437       0.12378426       0.18122911      -0.18925524       0.64284102      -0.07357413
N        1.56350225       0.51715097       1.92307109      -0.92369103       0.51497943       0.21721355      -1.10537494      -0.74275767       0.31945453      -0.43866736
8
Properties=species:S:1:pos:R:3:momenta:R:3:forces:R:3:charge:R:1 energy=-194.6794661377523 free_energy=-194.6794661377523 dipole="0.12708244818140488 0.3472161035941816 -0.2239015269362492" pbc="F F F"
B       -1.68274506      -0.61814569      -1.56966983       0.07992427      -0.77658092       0.19393295       0.20217032      -2.07325564       1.09329538       0.24210049
H        1.19331335       1.40419294       2.10811828       0.26260406       0.26928085       0.22426488       0.17416299      -2.03082343      -0.12053918       0.12693639
H        1.18788739       0.37688442       0.90805210      -0.12318386       0.14340035      -0.38397732      -0.60893777      -0.48583073      -2.46004566       0.15436725
H        2.41363204       0.39837866       1.90189226       0.08637683       0.08061634      -0.10133204       1.59493858      -0.39788701       0.06601022       0.14924964
H       -1.26936070       0.34846909      -1.96298028      -0.10400504       0.11870253       0.15904080       0.01568025       1.04239798      -0.71459179      -0.07214922
H       -2.41363204      -1.40419294      -2.10811828      -0.05144248       0.21110978      -0.21685309       0.39442834       0.83094415       0.25415028      -0.07924141
H       -1.12788059      -0.99957769      -0.56046226      -0.17397807       0.36485311      -0.37011630      -0.60220021       0.20504895      -0.62706180      -0.09056009
N        1.43344651       0.37660000       1.84141656       0.02370427      -0.41138204       0.49504012      -1.17024250       2.90940572       2.50878254      -0.43070304
8
Properties=species:S:1:pos:R:3:momenta:R:3:forces:R:3:charge:R:1 energy=-194.7391304040613 free_energy=-194.7391304040613 dipole="0.17214195179046898 0.25107662747883147 -0.2580272571290068" pbc="F F F"
B       -1.69166593      -0.69550870      -1.52645550       0.88529289       0.53692562       0.24784300       1.59163606      -0.44468224       2.83120553       0.24383062
H        1.36701142       1.23272130       2.16111193       0.07463369       0.38734125       0.15889213      -0.11015281       0.19908606       0.23241884       0.14155187
H        1.17658716       0.27476306       0.91826816      -0.01387538      -0.14272478      -0.40863788      -0.62080210      -0.20484493      -2.08987554       0.15271922
H        2.44197518       0.06371269       1.88973619       0.03772720       0.03874871       0.08472951       0.05348687      -0.15048373      -0.03442313       0.14209438
H       -1.23111667       0.32516943      -1.78414765      -0.13878595      -0.05996177       0.31014929       0.04916969       0.36101389      -0.27035070      -0.07862923
H       -2.44197518      -1.23272130      -2.16111193      -0.10702957      -0.17035827       0.06369069      -0.75983280      -0.57706963      -0.61502617      -0.06595004
H       -1.25052214      -1.19326805      -0.39667856       0.13725739       0.00341577       0.22885886      -0.86918926       0.66694116      -1.94144699      -0.09911120
N        1.45376755       0.27771768       1.84660557      -0.87522026      -0.59338654      -0.68552560       0.66568435       0.15003942       1.88749816      -0.43650560
8
Properties=species:S:1:pos:R:3:momenta:R:3:forces:R:3:charge:R:1 energy=-194.7525825776425 free_energy=-194.7525825776425 dipole="0.20240793181249228 0.2549753255581185 -0.18860722810357658" pbc="F F F"
B       -1.58249969      -0.72876359      -1.36836669      -0.31815196      -0.61465340       0.49886472       0.29653385       0.19972049      -0.33322828       0.24050944
H        1.10324459       1.23613899       2.00342430      -0.00228379       0.06449967       0.01675067       0.06681179       1.12434283       0.68770815       0.15222059
H        1.50930500       0.22619798       0.90677708      -0.07905633      -0.01442255      -0.30814635      -0.89199749      -0.48956145      -2.24494014       0.14695015
H        2.43519205       0.19877517       2.01909268      -0.10908681       0.23917199       0.01954137       0.75190846       0.48947133       1.35560016       0.15026419
H       -1.14968971       0.26985781      -1.79640964       0.23649989       0.01203532      -0.18189207       0.07989320       0.05929793       0.20861807      -0.08868065
H       -2.43519205      -1.18037190      -2.01909268       0.20125283       0.13583532      -0.09804383      -0.10007305      -0.26838382       0.27509677      -0.08020963
H       -1.07217046      -1.23613899      -0.44576151       0.25404286      -0.00435851      -0.31812333      -0.26526628       0.01531810      -0.14539461      -0.07154298
N        1.45510494       0.32256312       1.87827678      -0.18321669       0.18189216       0.37104882       0.06218952      -1.13020541       0.19653989      -0.44951110
8
Properties=species:S:1:pos:R:3:momenta:R:3:forces:R:3:charge:R:1 energy=-194.88016395798576 free_energy=-194.88016395798576 dipole="0.3182135588415208 0.22816545862082574 -0.23042639710737986" pbc="F F F"
B       -1.63835293      -0.65582869      -1.56339193       0.38837631       0.48882765       0.33180432      -0.58473015       0.45077979       1.01252203       0.24092900
H        1.15128855       1.41240177       2.03517023       0.20727146      -0.21692013      -0.16895848       0.07016036       0.20474631       0.19204392       0.14710006
H        1.33228231       0.49975938       0.70234371       0.03127683      -0.24079629      -0.25920198      -0.56530377      -0.01237477       0.21793142       0.13992949
H        2.38426007       0.32952588       1.83049225      -0.05685724      -0.16570663      -0.17886525       0.05693332       0.10362480       0.64800059       0.14222738
H       -1.47347274       0.41604789      -2.03517023      -0.15114937      -0.23219875       0.05353620       0.18603684      -0.52401494       0.06103481      -0.08149131
H       -2.38426007      -1.41240177      -2.03423306       0.13831130      -0.34212140       0.04337398       0.17476279      -0.08575217      -0.34451324      -0.07977568
H       -1.39868315      -0.85208453      -0.40704671      -0.32663215       0.05123531      -0.00333651       0.23357850       0.16396583      -0.72647980      -0.07956325
N        1.38685930       0.48356995       1.72535658      -0.23059714       0.65768025       0.18164773       0.42856210      -0.30097484      -1.06053973      -0.42935569
8
Properties=species:S:1:pos:R:3:momenta:R:3:forces:R:3:charge:R:1 energy=-194.87775078449772 free_energy=-194.87775078449772 dipole="0.20576673398346046 0.1638159595464647 -0.14884921861384598" pbc="F F F"
B       -1.66832412      -0.53426372      -1.40991590       0.20035175       0.75865618       0.12567921       0.54926910      -0.30447541      -1.15187758       0.24119971
H        1.47833330       1.49285379       2.01876068      -0.06685809      -0.28796898       0.08444411       0.12349406       0.91311107       0.18737188       0.14773269
H        1.17199786       0.42893661       0.81193568      -0.15860645      -0.18942313       0.13755245      -0.10672805       0.20854578       1.14223248       0.13696418
H        2.13592446       0.01972847       2.03926327      -0.08433912      -0.32426204      -0.08912716       0.12155530      -0.10037406       0.27767721       0.14234025
H       -1.37856166       0.41930320      -2.03926327      -0.09630969      -0.01545426      -0.36745570      -0.47617478      -0.14516056       0.01928584      -0.08655544
H       -2.13592446      -1.49285379      -1.94345682      -0.07151306      -0.26206339       0.13861101      -0.00502620       0.63659036       0.39746702      -0.08100412
H       -1.09300011      -0.62238133      -0.42614633      -0.17309265      -0.01763507      -0.18358522      -0.05983146      -0.18520069       0.74011333      -0.07321089
N        1.28671326       0.53397801       1.84871776       0.45036732       0.33815070       0.15388130      -0.14655797      -1.02303650      -1.61227017      -0.42746638
8
Properties=species:S:1:pos:R:3:momenta:R:3:forces:R:3:charge:R:1 energy=-194.9185427220578 free_energy=-194.9185427220578 dipole="0.24099260767109976 0.09871885237736622 -0.18459845348794535" pbc="F F F"
B       -1.50545607      -0.54738929      -1.31456911      -0.47903133      -0.33718264       0.68607847      -0.10247853      -0.35231325      -0.25980647       0.23959041
H        1.67641420       1.37345636       1.99596682      -0.00428287       0.13688380      -0.11054834       0.59166959       0.90800769       0.23131641       0.14966603
H        1.25308932       0.24019227       0.90492395      -0.04077711      -0.11877802       0.01498921       0.19567859       0.14231950       0.90188916       0.13585804
H        2.27058437      -0.20785318       2.13426350       0.26393765      -0.06038370      -0.05788212      -0.45243155       0.84406306      -0.11385704       0.14105121
H       -1.34761845       0.22537190      -2.13426350      -0.01514708      -0.16351716      -0.30006119       0.17106689       0.74094243      -0.49994604      -0.08405591
H       -2.27058437      -1.37345636      -1.58509850      -0.00062699       0.33653076      -0.00220762      -0.12256398      -0.26046012       0.33116856      -0.08059368
H       -0.83492088      -0.52453701      -0.38340174       0.23761520       0.33373005      -0.11367653       0.05373958      -0.13031444       0.43222120      -0.07405208
N        1.47891111       0.41172258       1.90376896       0.03831253      -0.12728310      -0.11669188      -0.33468060      -1.89224488      -1.02298578      -0.42746403
8
Properties=species:S:1:pos:R:3:momenta:R:3:forces:R:3:charge:R:1 energy=-194.8474321496079 free_energy=-194.8474321496079 dipole="0.2698060651017045 0.004404039929847686 -0.2438289045829119" pbc="F F F"
B       -1.44232131      -0.58736748      -1.29934526       0.95490663      -1.10274443       0.37799202       0.47004990       0.25323748      -0.69506564       0.24411542
H        1.85269689       1.45051099       1.67348811      -0.37034124       0.18255454       0.06212001       0.37883957       0.48057476       0.39490987       0.14718219
H        1.30477208       0.16971325       0.92302782       0.11749765       0.14801398      -0.05305268      -0.35490243       0.35453660       1.11601673       0.13326462
H        2.24037754      -0.08451108       2.16936746      -0.08560577       0.00908582       0.01560794       0.05638021       0.43353227       0.43391562       0.14373774
H       -1.15164761       0.18576754      -2.16936746      -0.06128526      -0.07065723      -0.12415072      -0.48180009      -0.48147956       0.32332433      -0.08968910
H       -2.24037754      -1.45051099      -1.47977594      -0.16746389      -0.37514019      -0.07209067       0.42828543       0.53768110       0.25746717      -0.07480253
H       -0.72711934      -0.47552933      -0.37650170      -0.10461930       0.05168700      -0.08319167      -0.41909908      -0.31177950       0.11505966      -0.07851053
N        1.48523306       0.54240889       1.89433218      -0.28308883       1.15720050      -0.12323423      -0.07775351      -1.26630314      -1.94562774      -0.42529781
8
Properties=species:S:1:pos:R:3:momenta:R:3:forces:R:3:charge:R:1 energy=-194.7533507086647 free_energy=-194.7533507086647 dipole="0.2685555251496588 0.0905210753236022 -0.3362859797722273" pbc="F F F"
B       -1.48528063      -0.75908938      -1.29278060      -0.61265927      -1.38062156      -0.03883571       0.37584098      -1.76296722       2.91540455       0.24012199
H        1.79760969       1.60449431       1.91862641      -0.06906820       0.06668258      -0.18921167      -0.74358943      -1.27549251       0.45128371       0.13423329
H        1.13521539       0.41638523       1.04525753       0.10148636       0.06861917      -0.29542404      -0.51830639       0.04149383       0.29817412       0.14226737
H        2.25466636       0.04367577       2.08316434      -0.00410137       0.05544938      -0.22326763      -0.55490972       0.25346370       0.49021428       0.13882708
H       -1.24041570      -0.06363131      -2.08316434       0.29470041       0.13824736       0.08886734       0.50655815       1.80038176      -1.99898509      -0.06697549
H       -2.25466636      -1.60449431      -1.38360586       0.10064605       0.08763508      -0.13479582      -0.46797994      -0.23940498      -0.21722327      -0.07934732
H       -0.84253203      -0.78686131      -0.26969766       0.26505166      -0.00985451      -0.09206802      -0.40766513       0.20302568      -0.69451510      -0.09309461
N        1.39664793       0.62251275       2.01621100      -0.07605565       0.97384251       0.88473554       1.81005150       0.97949974      -1.24435320      -0.41603231
8
Properties=species:S:1:pos:R:3:momenta:R:3:forces:R:3:charge:R:1 energy=-194.7845072736943 free_energy=-194.7845072736943 dipole="0.22914580318221062 -0.060152188175826224 -0.17853634998483844" pbc="F F F"
B       -1.29016330      -0.87324459      -1.44663699       0.11348415       0.32231451      -0.32366619      -1.38100671       1.24426873      -1.60368003       0.24506189
H        2.04699450       1.67524451       1.82239881       0.13314944      -0.03073293      -0.12381855      -0.24908202      -1.82618073       0.02679974       0.13789851
H        1.16948153       0.53958221       0.93539768      -0.10516365       0.06638842      -0.07717904       0.35664581      -0.06824963       0.15348338       0.14018747
H        2.14539392      -0.04585637       2.17243382      -0.15854954      -0.32092289       0.03407587       0.53440446       0.10832081      -0.15581393       0.14926854
H       -1.42462625       0.11851232      -2.17243382      -0.02418036      -0.10326245       0.07673935       0.26209608      -1.00765839       0.71811366      -0.09701022
H       -2.14539392      -1.67524451      -1.58712623      -0.03031484      -0.28332662       0.14538250       0.52692609       0.05621374       0.27039123      -0.07724650
H       -0.45183660      -0.85144868      -0.69044875       0.15429845      -0.10866857       0.02666425       0.59652411      -0.29448186       0.62037120      -0.07022035
N        1.60741775       0.72121975       1.82974903      -0.08272365       0.45821055       0.24180182      -0.64650783       1.78776732      -0.02966526      -0.42793933
8
Properties=species:S:1:pos:R:3:momenta:R:3:forces:R:3:charge:R:1 energy=-194.64582162327048 free_energy=-194.64582162327048 dipole="0.22047701881867537 -0.046135947822497525 -0.18072870257117515" pbc="F F F"
B       -1.54392087      -0.64280218      -1.45550366       0.53369319      -0.14717363      -0.81580346       1.08195262      -0.87134041       1.30666375       0.24387698
H        2.08774093       1.66298137       1.97461182       0.06765206      -0.25014945       0.16780945      -1.24551066      -2.16306917       0.12963767       0.13050193
H        1.15107239       0.87315670       0.89208004       0.03078486      -0.06759390       0.00352129      -0.13731642      -0.49735929      -0.70193759       0.14499577
H        1.65776721      -0.10379332       2.23255232      -0.18232593      -0.01904273      -0.10319178      -0.28643260       2.59910168      -1.11750953       0.13543297
H       -1.62901614       0.18751861      -2.23255232      -0.25029146      -0.02232955      -0.04638008      -0.03037718       0.54023740      -0.23422871      -0.07209448
H       -2.08774093      -1.66298137      -1.62322133      -0.24998048       0.27615492      -0.13632155      -0.11098994       0.11822628       0.01031432      -0.08141989
H       -0.75044549      -0.61659722      -0.50531090      -0.02894862       0.13709598       0.13283060      -0.93443053       0.21422733      -1.07768070      -0.09000788
N        1.34618575       0.87818869       1.86726516       0.07941638       0.09303836       0.79753554       1.66310470       0.05997618       1.68474078      -0.41128539
8
Properties=species:S:1:pos:R:3:momenta:R:3:forces:R:3:charge:R:1 energy=-194.833773934177 free_energy=-194.833773934177 dipole="0.3392625236600995 -0.04611593025372902 -0.15456515308786312" pbc="F F F"
B       -1.40139054      -0.60356311      -1.55778572       0.39193129       0.02802557       0.19539048      -0.49498792      -1.69238311       1.26286274       0.24306337
H        2.11570850       1.61929024       2.15911133      -0.07917483      -0.08001659       0.03722274      -0.44817338      -0.30016075      -0.06214968       0.13436538
H        1.35994715       0.94042497       0.88343555      -0.03332481       0.08881407       0.04043956       0.15262963      -0.68947382       0.80671254       0.14496110
H        1.75986304       0.03263936       2.34201416      -0.08623202      -0.08617333       0.13103780      -0.42241684       0.66569777      -1.07165727       0.14269536
H       -1.44197045       0.21102171      -2.34201416       0.10754410      -0.31786909      -0.11762728      -0.16505978       0.43561118      -0.71460007      -0.07056837
H       -2.11570850      -1.61929024      -1.52871600       0.04032295      -0.13843217       0.01964486       0.78607668       1.28135293      -0.28706072      -0.08951168
H       -0.67027180      -0.47975466      -0.64111397       0.03562970      -0.14570767      -0.22014452      -0.12074574      -0.02339394      -0.25615007      -0.08273703
N        1.41064856       0.91119937       1.91159806      -0.37669638       0.65135921      -0.08596363       0.71267736       0.32274973       0.32204253      -0.42226813
8
Properties=species:S:1:pos:R:3:momenta:R:3:forces:R:3:charge:R:1 energy=-194.78830148780972 free_energy=-194.78830148780972 dipole="0.27484403203028046 -0.21775406414953677 -0.17299057220023006" pbc="F F F"
B       -1.33416412      -0.74011953      -1.46337757       0.27503069      -0.30064087      -0.48201057       1.34990699       1.44629069       0.73323001       0.24730389
H        2.14961613       1.46851567       2.32305163      -0.02656157       0.04603851       0.28695669      -0.27759165      -0.30835797      -0.41028502       0.14266523
H        1.27105514       0.85810217       0.98536760       0.01471612       0.03132162       0.10756185       0.35028809       0.19339831       1.37857502       0.13783419
H        1.42187738      -0.00582630       2.38881916      -0.11265399      -0.11221157       0.15130583       0.13802875      -0.54329350       0.18773402       0.14422689
H       -1.36669430       0.05342782      -2.38881916       0.15680338       0.13415927      -0.08301465      -0.24613734      -1.07176259       0.70985035      -0.07935407
H       -2.14961613      -1.46851567      -1.06424617      -0.05192651       0.29299239       0.40887440      -0.03392720       0.03594493      -0.44978014      -0.06830433
H       -0.37143310      -0.53891097      -0.68779926       0.30717563       0.07212734      -0.13161629      -1.06452475      -0.41158465      -0.99117319      -0.09913075
N        1.33949000       0.92073922       2.02906274      -0.56258376      -0.16378669      -0.25805725      -0.21604289       0.65936478      -1.15815105      -0.42524104
8
Properties=species:S:1:pos:R:3:momenta:R:3:forces:R:3:charge:R:1 energy=-194.80939251631614 free_energy=-194.80939251631614 dipole="0.24463182749388682 -0.05063248505381699 0.012548205735980632" pbc="F F F"
B       -1.20894356      -0.69231529      -1.37740109       0.34416165      -0.29421395      -0.49737963      -0.36412853      -1.04199839      -1.43567715       0.24261410
H        2.02581423       1.44539214       2.53718680      -0.22417035       0.11210775      -0.05966977      -0.23705457      -0.54341937       0.31779416       0.14474201
H        1.47687128       0.80409484       1.16354291       0.09969561      -0.22165912       0.15007584      -0.22326894       0.08085532       0.21176368       0.13644182
H        1.12311893       0.00236766       2.50715782      -0.27984268      -0.16425666      -0.01180625       0.24531764      -0.62758843       0.71084372       0.15080472
H       -1.19560884      -0.43873395      -2.53718680       0.18389965      -0.07363375       0.15108817      -0.28672238       0.27611645       0.47655684      -0.08715852
H       -2.02581423      -1.44539214      -1.00669194       0.11115500       0.10840895      -0.02105655      -0.07417425       0.42434966       0.17378270      -0.07910042
H       -0.19588419      -0.66184601      -0.87905350       0.16745740       0.15466634      -0.15677605       0.73174532       0.34244631       0.79232064      -0.07616916
N        1.24332262       0.91994668       2.15262376      -0.40235628       0.37858043       0.44552424       0.20828572       1.08923843      -1.24738459      -0.43217454
8
Properties=species:S:1:pos:R:3:momenta:R:3:forces:R:3:charge:R:1 energy=-194.84423078792025 free_energy=-194.84423078792025 dipole="0.36697319386129756 -0.12304582417987461 0.03370510644150621" pbc="F F F"
B       -1.00773584      -0.90541593      -1.60687317       0.39573115      -0.05978972      -0.25081445       0.39767226       0.52663981       0.09647237       0.23996288
H        1.80864497       1.42252153       2.57247888      -0.16815464      -0.11280152      -0.05170068       0.23828157       0.81359092       0.76232857       0.13966388
H        1.69224298       0.72365634       1.20236793       0.02085145      -0.11299165       0.39547535      -0.22975799      -0.89967138      -0.10003843       0.14689513
H        1.23832201      -0.04452013       2.66395096       0.08371050      -0.05300004       0.01155824       0.14505440      -1.20274213      -0.01402785       0.15309427
H       -1.35699583      -0.57064669      -2.66395096      -0.16940743      -0.03990814      -0.12121689       0.40428928       0.09320960      -0.15828760      -0.08020982
H       -1.80864497      -1.42252153      -0.98915178       0.01926647      -0.25595165      -0.12193184      -0.50716977      -0.54152956       0.55569202      -0.08052344
H        0.01550392      -0.64153310      -1.07587479      -0.03649096       0.09398810      -0.32847475      -0.29286730      -0.07943582      -0.49138982      -0.07915295
N        1.22885318       0.76535056       2.09980082      -0.14550654       0.54045462       0.46710503      -0.15550245       1.28993857      -0.65074925      -0.43972994
8
Properties=species:S:1:pos:R:3:momenta:R:3:forces:R:3:charge:R:1 energy=-194.85849848658995 free_energy=-194.85849848658995 dipole="0.25008780165413197 -0.04374577855235218 -0.001288768176025581" pbc="F F F"
B       -1.06692202      -0.78430335      -1.63260460       0.33894034      -0.12657857      -0.30619532       0.50767169      -0.52469687       0.60102706       0.24137258
H        1.70844860       1.55504900       2.62976175      -0.03897959      -0.02994959       0.01537536      -0.40849966      -0.88398161      -0.02409185       0.13545727
H        1.39022203       0.97182982       1.15902551      -0.33029632       0.15352462       0.29276084       0.00434011      -0.68943337      -0.11919511       0.14380011
H        1.08914804      -0.01631492       2.51889417      -0.32658743       0.11657481       0.19871801       0.41040760      -1.25837031       0.28302587       0.15640125
H       -1.42075360      -0.38739890      -2.62976175      -0.31961394       0.09769864       0.25732833      -0.44006617       0.40409444      -0.81190812      -0.07731451
H       -1.70844860      -1.55504900      -1.03815587      -0.00040868       0.05542063       0.02924488       0.01304219       0.11262844       0.06036319      -0.07974813
H        0.02181997      -0.52695615      -1.30083550       0.22980515      -0.02384664       0.11989103      -0.07463340       0.00893455       0.15587200      -0.08421738
N        1.12642781       0.87359239       2.12323269       0.44714048      -0.24284389      -0.60712312      -0.01226236       2.83082474      -0.14509305      -0.43575119
8
Properties=species:S:1:pos:R:3:momenta:R:3:forces:R:3:charge:R:1 energy=-194.7610670797887 free_energy=-194.7610670797887 dipole="0.38909716179857073 -0.2640154991311614 0.042810128837855635" pbc="F F F"
B       -1.07699069      -0.67083656      -1.81566580       0.24503478       0.65920813      -0.18822790      -1.24167353       0.92753025      -0.94749724       0.24271888
H        1.81633817       1.39293382       2.20034990       0.01253401       0.00062823      -0.01362088      -1.49329840       0.10571623       0.07227509       0.13476076
H        1.22950716       0.56360981       1.07822458      -0.07480914      -0.09715285       0.15902703      -0.28354159      -0.78736852      -1.70975250       0.14967420
H        0.86521460       0.17123831       2.56487420      -0.30280084      -0.21506831       0.12498600      -0.51067484      -0.26763717       0.21662612       0.14589543
H       -1.57721348       0.13075719      -2.56487420      -0.20640467       0.03180552      -0.03274408       0.27095207      -0.49373575       0.47295835      -0.09295552
H       -1.81633817      -1.39293382      -1.28836206       0.08326680       0.13439141      -0.10793792       0.25732976      -0.16423983       0.17862449      -0.07446229
H        0.05584926      -0.62399049      -1.75348261       0.02048656      -0.35162986       0.05948904       0.72035084      -0.26624793       0.30415538      -0.07524053
N        0.88909327       0.94869039       1.91882834       0.22269250      -0.16218227      -0.00097129       2.28055569       0.94598272       1.41261031      -0.43039092
8
Properties=species:S:1:pos:R:3:momenta:R:3:forces:R:3:charge:R:1 energy=-194.87730634533932 free_energy=-194.87730634533932 dipole="0.2134301295626553 -0.19456025025579007 0.04109259470648511" pbc="F F F"
B       -1.05322850      -0.69491416      -1.80856882      -0.91184963      -0.21794413       0.41559176       1.04111208       0.96715708      -0.80095199       0.24555365
H        1.83373653       1.38865185       2.28789958       0.52050198      -0.04515960       0.25728214      -0.91054997      -1.06111280      -0.36334054       0.14076857
H        1.21340997       0.49895100       0.99059615       0.38298259       0.31099578       0.08649243       0.24017979      -0.15304264      -0.06806425       0.14287280
H        0.71424347       0.10178823       2.51932086      -0.25591179      -0.37516254       0.14082571       0.33243526      -0.14011254       0.20932314       0.14615576
H       -1.45087396       0.19930390      -2.51932086       0.04421407       0.09910951       0.10016779       0.48247231      -0.63529275       0.56077681      -0.08504449
H       -1.83373653      -1.38865185      -1.36434733      -0.24252904      -0.14092624      -0.13649983      -0.42835592      -0.53845800       0.40628974      -0.07297766
H        0.13616642      -0.87456798      -1.63269993      -0.08629409       0.06595769      -0.10111871      -1.08664449       0.20972875      -0.15670400      -0.08741482
N        1.03258777       0.83658065       1.91741003       0.54888592       0.30312953      -0.76274129       0.32935095       1.35113290       0.21267109      -0.42991381
8
Properties=species:S:1:pos:R:3:momenta:R:3:forces:R:3:charge:R:1 energy=-194.90178116467507 free_energy=-194.90178116467507 dipole="0.2948714477998381 -0.11574700992133907 0.08181969154692548" pbc="F F F"
B       -1.02213813      -0.69351149      -1.80814050      -0.28624410      -0.99632802       0.86640837       0.40263697       0.08803622      -0.61264514       0.24396792
H        1.80480544       1.49506413       2.48194047       0.03015162       0.60275052       0.28834292      -0.31437763      -1.00376598      -0.50170890       0.14549767
H        1.70154177       0.78442045       0.96696193      -0.08698177       0.20872909      -0.27340730       0.47856110       0.35687518      -0.58743950       0.14299050
H        1.18179552      -0.09582038       2.17536374      -0.04189588      -0.03114940      -0.09335598       0.19420244       0.51155173       0.53283422       0.14264334
H       -1.37345718       0.20364314      -2.48194047      -0.22349030       0.16411354      -0.06146856      -0.09000865      -0.10248879       0.25736421      -0.08383298
H       -1.80480544      -1.49506413      -1.46566718      -0.07172365      -0.04620224      -0.09152236       0.28956160       0.15324323       0.11781067      -0.07594221
H        0.15768884      -0.81054673      -1.72132089       0.06964122      -0.01523847       0.12132502      -0.59492411      -0.13584265       0.24495395      -0.08416325
N        1.26883770       0.86846496       1.86024691       0.61054285       0.11332498      -0.75632212      -0.36565173       0.13239106       0.54883050      -0.43116099
8
Properties=species:S:1:pos:R:3:momenta:R:3:forces:R:3:charge:R:1 energy=-194.70549617718459 free_energy=-194.70549617718459 dipole="0.4355100817073696 0.07865493646712222 0.013607769979750375" pbc="F F F"
B       -1.02561510      -0.80369319      -1.58561581      -0.36679856       0.28820316      -0.23117195      -0.58745212      -0.11242075      -0.97244098       0.24524672
H        1.73148225       1.49370618       2.53036531      -0.03458471       0.25922849       0.02708614      -0.84888213      -0.30816564      -0.69501603       0.13947587
H        1.59181539       0.88228061       1.02480185      -0.28049122      -0.04285784      -0.13704567      -0.09937743       0.83936320      -1.59870806       0.14998085
H        1.89009771      -0.01835577       2.17691936       0.29742494       0.15620196      -0.01001151      -0.30172287      -0.88225599       0.56461282       0.14388351
H       -1.24893598      -0.08137748      -2.53036531       0.14151792      -0.50577429      -0.12151226      -0.31699228      -0.43682956       0.82552999      -0.09020797
H       -1.89009771      -1.49370618      -1.07299807       0.24984988       0.16751389      -0.02453248       0.96307813       0.80327234      -0.39333547      -0.07569679
H        0.12614077      -0.92114565      -1.46344393       0.19686978      -0.29159298       0.31475854      -0.05216851      -0.25330250       0.54626828      -0.07930396
N        1.27443240       0.75174937       1.94902785      -0.20378803      -0.03092239       0.18242919       1.24351721       0.35033891       1.72308946      -0.43337822
8
Properties=species:S:1:pos:R:3:momenta:R:3:forces:R:3:charge:R:1 energy=-194.85542454995945 free_energy=-194.85542454995945 dipole="0.3315698843312454 0.13898387588927053 -0.062499424164847134" pbc="F F F"
B       -1.01206967      -0.92702068      -1.45142432       0.19391692      -0.02657467       0.63046742      -0.07332605      -0.91292144       0.13790293       0.24001642
H        1.57680734       1.49554155       2.41293639      -0.08594429      -0.00157662      -0.24923009       0.30388009       1.52624904      -0.01655204       0.14817386
H        1.22130355       0.56206246       1.06924503       0.19873245      -0.30072207      -0.09887167       0.27643549       0.16419674      -0.39515549       0.14770727
H        1.88618889      -0.03651405       2.46297696      -0.22964908      -0.04141342       0.09808606       0.39444860      -0.79062597      -0.04831204       0.14434596
H       -1.29452985      -0.47353949      -2.46297696      -0.02096566       0.05037668      -0.16242083       0.23041993       0.43061565      -0.47739597      -0.07710079
H       -1.88618889      -1.14729956      -0.73812149      -0.08299984       0.21024256       0.24671452      -0.32909408       0.14901755       0.48333225      -0.08134922
H       -0.01962530      -1.49554155      -1.22435755      -0.10900608      -0.15855421      -0.17730253       0.17732182       0.33750630      -0.13576778      -0.08151867
N        1.27159646       0.63421559       2.06180150       0.13591558       0.26822176      -0.28744289      -0.98008581      -0.90403786       0.45194813      -0.44027483
8
Properties=species:S:1:pos:R:3:momenta:R:3:forces:R:3:charge:R:1 energy=-194.90955815041846 free_energy=-194.90955815041846 dipole="0.39158880483796904 -0.046206263770409484 -0.13471986560759383" pbc="F F F"
B       -1.07054606      -1.04072902      -1.50891328      -0.07947285       0.02588353      -0.07413575       0.55187590      -0.22547415       0.77322428       0.23950159
H        1.64088327       1.45899590       2.02614575       0.13519777      -0.26762364       0.03356472      -0.13825955       0.20398746       0.19624381       0.14425328
H        1.33811476       0.27278281       0.98590675       0.18565316      -0.24347743       0.22758067      -0.65955215       0.37547222       0.28501347       0.13771625
H        1.72690810      -0.10163259       2.44156469       0.22349988       0.01944576       0.07939132      -0.30214949       0.16752668       0.52685648       0.14345841
H       -1.42844380      -0.52603591      -2.44156469       0.03684466      -0.34132433      -0.11084869      -0.40704968       0.45658787      -1.02172269      -0.07666136
H       -1.72690810      -1.05246102      -0.56346246       0.16284271      -0.05709848       0.01778043      -0.23313818      -0.09459723       0.27621092      -0.07587241
H        0.01142451      -1.45899590      -1.45714957       0.03617960       0.32377283      -0.09446500       0.09805536      -0.13401488      -0.02372866      -0.08689351
N        1.14017761       0.57947022       1.95576961      -0.70074494       0.54042176      -0.07886770       1.09021779      -0.74948797      -1.01209761      -0.42550226
8
Properties=species:S:1:pos:R:3:momenta:R:3:forces:R:3:charge:R:1 energy=-194.84934409845155 free_energy=-194.84934409845155 dipole="0.310941586640869 0.00027442530870419585 -0.10765161732797796" pbc="F F F"
B       -1.02679454      -0.96219009      -1.61074354      -0.03480406       0.31545422      -1.09780118      -1.46959295      -0.71485481       0.75010182       0.24254598
H        1.84730708       1.37805581       2.00332690       0.10389544      -0.22090654       0.34517148       0.43053013       0.19838486       0.21643357       0.14233799
H        1.13902150       0.25486374       1.10661660      -0.25862374       0.24300639       0.29658161      -0.08447330      -0.78674192      -1.18795244       0.14741346
H        1.58833728      -0.13217905       2.65872264       0.11612183       0.01923343      -0.09175583       0.35590084      -0.29352372       0.02779849       0.14908963
H       -1.43961918      -0.65927701      -2.65872264       0.11643271      -0.16420135       0.16262744       0.38905194       0.14971849       0.06434578      -0.07416880
H       -1.84730708      -1.17535136      -0.75104055       0.08591270       0.05749662       0.01366586       0.42597197       0.41486164      -0.53981107      -0.09130025
H        0.00345301      -1.37805581      -1.33229300       0.02330402       0.05973566      -0.05413581       0.66242296       0.15462396      -0.26666229      -0.07696114
N        1.26456835       0.56671488       2.02577799      -0.15223889      -0.30981844       0.42564644      -0.70981160       0.87753150       0.93574614      -0.43895688
8
Properties=species:S:1:pos:R:3:momenta:R:3:forces:R:3:charge:R:1 energy=-194.76523660391408 free_energy=-194.76523660391408 dipole="0.3007042134919792 -0.15533660353828688 -0.20692775617367298" pbc="F F F"
B       -1.19187332      -1.06392921      -1.34629403      -0.43112992       0.06910980       0.28347003       1.25808011       0.61089689      -1.48746368       0.24774283
H        1.88016767       1.11459694       2.33349651      -0.13834916       0.00279028      -0.12268430       1.37139028       1.58240883       0.56590648       0.14869929
H        1.00634046       0.40569128       1.28393600      -0.04256792       0.20973000       0.39274520      -0.45239847      -0.26166016       0.00072546       0.14300397
H        1.62938104      -0.43803320       2.53516850       0.13457406      -0.24243473      -0.18596045      -0.50673371       0.44538876      -0.07296803       0.14029704
H       -1.57165040      -0.95676366      -2.53516850      -0.06501778      -0.03951163      -0.15466041       0.43139216      -0.32246369       1.61510360      -0.08681230
H       -1.88016767      -0.83754463      -0.45602152      -0.03936300      -0.02690490       0.07791282      -0.35225298      -0.13156883       0.18987720      -0.06710916
H        0.02294426      -1.11459694      -1.13056418      -0.08870530       0.15953428      -0.03959012      -1.32495100      -0.15287801      -0.31261324      -0.09358319
N        1.16641028       0.45250539       2.28770170       0.67055902      -0.13231310      -0.25123277      -0.42452638      -1.77012379      -0.49856779      -0.43223848
8
Properties=species:S:1:pos:R:3:momenta:R:3:forces:R:3:charge:R:1 energy=-194.78783370774715 free_energy=-194.78783370774715 dipole="0.22702433072424844 0.0312008280422193 -0.2764185225232637" pbc="F F F"
B       -1.26843867      -1.02547870      -1.31977646      -0.50451492      -0.05753076       0.18470806       1.38541848      -0.69947272       0.39072014       0.24610841
H        1.90493989       1.23493918       2.37375553       0.03532785       0.18087152      -0.20541334      -0.80841611      -0.21785701      -0.33579788       0.13664851
H        0.74706336       0.52577630       1.40818959       0.12614224      -0.16938569       0.04237808      -0.41079565      -0.01819516      -1.43328851       0.15440316
H        1.74631200      -0.36160800       2.41404721      -0.18413523      -0.03400087       0.00518539      -0.91174589       0.59661253      -0.39334317       0.13653858
H       -1.69119769      -1.23493918      -2.41404721       0.10960469       0.11101481       0.10436186       0.29492985       0.29677801       0.69678799      -0.07284622
H       -1.90493989      -0.95185185      -0.34683322       0.15661627      -0.19476104      -0.01700435      -0.39399475       0.17816503      -0.26918513      -0.07550602
H       -0.06310418      -1.12687831      -1.01702826       0.04843346       0.16954838       0.09689306      -1.27593596       0.23143408      -0.81113140      -0.09755044
N        1.18074078       0.50338520       2.28336348       0.21252564      -0.00575635      -0.21110875       2.12054004      -0.36746477       2.15523796      -0.42779598
8
Properties=species:S:1:pos:R:3:momenta:R:3:forces:R:3:charge:R:1 energy=-194.83637319243468 free_energy=-194.83637319243468 dipole="0.23805019005512668 0.04153204818229304 -0.30273877925874076" pbc="F F F"
B       -1.22294323      -0.97877727      -1.34535294      -0.68581619      -0.63567977      -0.14079524      -2.99967848      -0.23021345       0.46324389       0.24500531
H        1.88988139       1.26114347       2.33057254       0.18307450      -0.02070040       0.06682503      -0.87379676      -0.88189804      -0.29943525       0.13589130
H        0.61186885       0.63735645       1.42429203      -0.07118878      -0.00496876       0.23793483       0.21737655      -0.02502114      -0.07929983       0.14684682
H        1.74208542      -0.39849516       2.12599800       0.14591777      -0.04622194      -0.24122145      -0.72467882       1.09478452      -0.05419718       0.13652276
H       -1.86573484      -1.26114347      -2.33057254       0.00333335       0.18336834      -0.00222869       0.58685797       0.28615458       0.69834391      -0.08654736
H       -1.88988139      -0.78947639      -0.31274244       0.14987851       0.23621088       0.03161731       0.93343931      -0.12898753      -1.17939999      -0.08951293
H       -0.11205716      -0.99086245      -1.35203302       0.08692553       0.11060902      -0.01958057       1.49093601       0.08143526       0.02627830      -0.06877259
N        1.19486894       0.48629640       2.23592443       0.18787532       0.17738264       0.06744879       1.36954422      -0.19625420       0.42446615      -0.41943331
8
Properties=species:S:1:pos:R:3:momenta:R:3:forces:R:3:charge:R:1 energy=-194.8370953064117 free_energy=-194.8370953064117 dipole="0.08509729985430876 0.180313080422194 -0.28189536924990405" pbc="F F F"
B       -1.29940391      -1.03291347      -1.50895902       0.28913248       0.60178184      -0.36499865       1.46829400      -0.10101070       0.45300487       0.24003735
H        1.85207478       1.16498390       2.49983212       0.06437871       0.24613499       0.21820659      -0.29197936      -0.49194316      -0.58432123       0.14280036
H        0.48785314       0.79361216       1.57804807      -0.20500236      -0.03288726       0.24042943       0.47482327       0.02731722       0.30374059       0.14025124
H        1.81955106      -0.20812710       1.43661059       0.20876376       0.03307708      -0.28735467      -0.81740072       1.41612133       1.38028288       0.13287041
H       -1.85207478      -1.03355772      -2.49983212      -0.25887956       0.11510963      -0.13349998      -0.39946468      -0.00528243      -0.54140574      -0.07033469
H       -1.72969665      -0.87660699      -0.47096599      -0.08799757      -0.32801492       0.26927376      -0.90167305       0.15837379       0.60614166      -0.07754616
H       -0.12941009      -1.16498390      -1.41912786      -0.42678105      -0.18026854       0.17248090      -0.15871646      -0.04508913      -0.51015924      -0.09208521
N        1.26852003       0.41146997       2.11864615       0.41638559      -0.45493282      -0.11453738       0.62611699      -0.95848692      -1.10728379      -0.41599331
8
Properties=species:S:1:pos:R:3:momenta:R:3:forces:R:3:charge:R:1 energy=-194.58001539264558 free_energy=-194.58001539264558 dipole="0.07230680742956312 0.17782353553861185 -0.17849573380710532" pbc="F F F"
B       -1.48920401      -0.95462517      -1.62459039      -0.35358414      -0.04237538       0.05375129      -2.05347844       1.63707371      -1.68115390       0.24083702
H        1.58286347       1.09895888       2.66904168      -0.24835477      -0.09962808       0.37850309      -0.36088880       0.22815314      -0.07395209       0.14632444
H        0.42755190       0.71456618       1.48583663       0.19316225       0.04532969       0.11013334       0.16578843       0.23765105       0.42759005       0.14507315
H        2.02312801       0.25425596       1.29509773       0.10583601       0.00744734       0.09207951      -1.97136274       0.22765315       1.88417065       0.12123103
H       -2.02312801      -0.53210846      -2.66904168      -0.20755763       0.00737165      -0.01036627       0.44335860      -0.78733195       1.26297814      -0.09414627
H       -1.95828258      -0.75002759      -0.61104759       0.02765348       0.19099632      -0.14906047      -0.71951422      -0.12575336       0.63956439      -0.07582905
H       -0.40674169      -1.09895888      -1.62979886      -0.00973109       0.09934269       0.01919595       2.33645777      -0.71658249      -0.21347102      -0.07082153
N        1.21408779       0.39268620       2.04642736       0.49257589      -0.20848423      -0.49423644       2.15963941      -0.70086324      -2.24572622      -0.41266879
8
Properties=species:S:1:pos:R:3:momenta:R:3:forces:R:3:charge:R:1 energy=-194.65901657690887 free_energy=-194.65901657690887 dipole="0.10551916877840059 0.2611680243985916 -0.13752518534984526" pbc="F F F"
B       -1.63220706      -0.82020243      -1.67644992       0.23811324       0.12860260       0.34088507       1.07858790      -0.63425792       1.17787927       0.24150433
H        1.49256887       1.13350402       2.68936528      -0.14228515       0.19414218       0.08723883      -0.38119987       1.12275298       0.56358154       0.14741769
H        0.43905577       0.82681918       1.35274561       0.32908862       0.17958378      -0.16672476       0.75679570       0.30288406       0.20393516       0.15111617
H        2.10584203       0.22722317       1.51322858      -0.12994150      -0.03534211       0.04730419      -2.44672792       0.63356308       0.39949882       0.12600058
H       -2.07386276      -0.54235028      -2.68936528       0.08653109       0.11781950      -0.34829069      -0.77411366       0.29038710      -0.26060301      -0.07145142
H       -2.10584203      -0.89830648      -0.56798560      -0.27458384      -0.39832069       0.00122143       0.04032086       0.23535091      -1.10176974      -0.07774132
H       -0.48700701      -1.13350402      -1.75895083      -0.18347411       0.02936891      -0.21539322      -0.33972416       0.11519884       0.18961013      -0.09228581
N        1.17180998       0.52356198       1.98434203       0.07655166      -0.21585417       0.25375914       2.06606114      -2.06587906      -1.17213216      -0.42456022
8
Properties=species:S:1:pos:R:3:momenta:R:3:forces:R:3:charge:R:1 energy=-194.61268616786708 free_energy=-194.61268616786708 dipole="0.06641571763964438 0.2235557023076348 -0.29866737811692806" pbc="F F F"
B       -1.47933042      -1.02546140      -1.75481676      -0.25328691       0.01857486      -0.40483043       2.20507403       1.31287711      -1.15368581       0.23900661
H        1.58130467       1.24640062       2.48246291      -0.18231991      -0.11852323       0.23190066       0.43806020       0.24292109       1.07257114       0.14575649
H        0.63532932       0.86121967       1.37258124      -0.07334634      -0.24887159       0.03154540      -0.57573861      -0.59056380      -0.32679164       0.14220332
H        2.13183423       0.27581173       1.35038953      -0.08155204      -0.20074391       0.05693829      -0.69572235      -0.30436602       0.60515723       0.13918318
H       -1.84714588      -0.19232472      -2.48246291       0.41308039      -0.01390175       0.46653618       0.13721680      -0.25052163      -0.59136865      -0.08649161
H       -2.13183423      -1.10202052      -0.88736213       0.12272634       0.19750588       0.04288025      -1.50011193      -0.85499106       2.05586069      -0.06903340
H       -0.30334231      -1.24640062      -1.65504900       0.09578071       0.03129662       0.11116881      -0.83695245      -0.20069828      -0.30658920      -0.08347635
N        1.31380653       0.41667705       1.98445311      -0.04108223       0.33466311      -0.53613916       0.82817431       0.64534260      -1.35515375      -0.42714825
8
Properties=species:S:1:pos:R:3:momenta:R:3:forces:R:3:charge:R:1 energy=-194.63434972109806 free_energy=-194.63434972109806 dipole="0.2087648020270463 0.29760806600928436 -0.01820266021143713" pbc="F F F"
B       -1.26097055      -0.60618579      -1.73387698       0.48080155      -0.69307092       0.54185711      -3.21943569       0.65598431      -0.68983417       0.24443753
H        1.85146494       1.22708156       2.66915279       0.12516205      -0.15643205      -0.35570895      -0.27653058      -0.36362986      -1.07210079       0.13707988
H        0.80685789       1.27645126       1.36730383       0.29329962       0.36739631      -0.02114455      -0.32142096       0.56704557      -0.57750908       0.14586012
H        2.26355447       0.47522561       1.24659260       0.11094768       0.07449412       0.13510657       1.30116099      -0.18818939      -1.20381189       0.15260971
H       -1.55826577       0.16682224      -2.66915279      -0.10801559       0.19850809      -0.20752535       0.84129612      -0.85010585       1.20769233      -0.08720524
H       -2.26355447      -0.92641413      -1.07323868      -0.36744089       0.08240062      -0.07361041       1.17382147       0.50958951      -0.50048757      -0.09579724
H       -0.37210758      -1.27645126      -1.61936422      -0.52204953      -0.00604366       0.12620399       1.20763057      -0.31475153      -0.01149083      -0.06143853
N        1.52473285       0.75948719       1.80401265      -0.01270489       0.13274749      -0.14517841      -0.70652191      -0.01594276       2.84754202      -0.43554623
8
Properties=species:S:1:pos:R:3:momenta:R:3:forces:R:3:charge:R:1 energy=-194.8613343276732 free_energy=-194.8613343276732 dipole="0.15685322741009566 0.20328047687856687 -0.0854776223840564" pbc="F F F"
B       -1.32247028      -0.70235278      -1.91774031       0.17554796       0.59983767      -0.59404300       2.28634449      -0.00823430      -0.46072110       0.24026391
H        1.79883711       1.00280122       2.63031714      -0.18296427       0.03955565       0.01176360       0.27724948       0.03339640      -0.54552951       0.14814368
H        1.02903402       1.38713942       1.18887571       0.11313149      -0.04365160       0.20944630      -0.11293451       0.49376740       0.00021350       0.14093344
H        2.23498564       0.28347985       1.11583191       0.05646220      -0.10163794      -0.09953228      -0.20720614       0.43722203       0.80992360       0.14176011
H       -1.19341769       0.21317218      -2.63031714      -0.52835762      -0.00304691       0.05423275      -0.11671650      -0.11531212      -0.02752396      -0.08176766
H       -2.23498564      -0.89529729      -1.32615007      -0.07292652      -0.03421582      -0.27496233      -1.63381283      -0.24974654       0.78920118      -0.06990911
H       -0.36589300      -1.38713942      -1.68080606       0.12009939      -0.22519425       0.08321447      -0.53166443       0.37577465      -0.29767880      -0.08858658
N        1.50573957       0.68489144       1.71481211       0.31900737      -0.23164679       0.60988049       0.03874045      -0.96686752      -0.26788491      -0.43083780
8
Properties=species:S:1:pos:R:3:momenta:R:3:forces:R:3:charge:R:1 energy=-194.65041338986927 free_energy=-194.65041338986927 dipole="0.2302296153421645 0.26196692246559755 0.03792334730844425" pbc="F F F"
B       -1.31536630      -0.68189830      -1.97707164      -0.32236773      -0.17501731      -1.04692179      -1.22741292      -0.43586629      -0.25116535       0.24001615
H        1.74916872       0.88087523       2.85376130      -0.02776916       0.23654278       0.13711447       0.01310866      -0.15810770      -2.11719702       0.14513173
H        1.14676826       1.30991519       1.28048105       0.12521609      -0.03283036       0.21451206      -0.74321951       1.59993469      -0.34174947       0.14529002
H        2.26942555       0.21029347       1.30133795      -0.01583007       0.11309825       0.19260072       0.55265694      -0.10026449       0.60004839       0.14319373
H       -1.35806540       0.06714361      -2.85376130      -0.03294234       0.10173874      -0.05456536      -0.43123405       0.63513760       0.05014080      -0.08227241
H       -2.26942555      -1.05481345      -1.35257803       0.14747501       0.06248795       0.12443528       0.70914213       0.51524238      -0.29402932      -0.07928952
H       -0.38113463      -1.30991519      -2.06017815      -0.06746144       0.03692762       0.03337314       0.95212632      -0.71526964       0.49966611      -0.07845457
N        1.54216672       0.62900801       1.85167068       0.19367965      -0.34294766       0.39945148       0.17483241      -1.34080655       1.85428587      -0.43361513
8
Properties=species:S:1:pos:R:3:momenta:R:3:forces:R:3:charge:R:1 energy=-194.8683975886225 free_energy=-194.8683975886225 dipole="0.22741238794475263 0.315609414916312 0.041682528501673026" pbc="F F F"
B       -1.59829083      -0.61361790      -2.10526330      -0.09699682       0.62977065      -0.45803863       0.66909524      -1.10118547       0.29805433       0.23968507
H        1.34613456       0.99846402       2.90838056      -0.12912608      -0.18441100       0.11731180      -0.05559131      -0.22981256      -1.73009858       0.13916884
H        1.09539476       1.35173576       1.24968588      -0.14042397      -0.36544101      -0.11225682      -0.35928153       0.74407113      -0.09948085       0.14653409
H        2.35713906       0.42203601       1.67851142      -0.23592135      -0.43366890       0.14050870      -1.42065490       0.24169307       0.47163801       0.13251870
H       -1.73436237       0.16128923      -2.90838056       0.16562362      -0.26639407      -0.22791673      -0.21674804       0.90418202      -0.74158218      -0.07736552
H       -2.35713906      -0.75556666      -1.25314066       0.00294624      -0.24008941      -0.04949534      -0.20721831       0.01074504       0.28819319      -0.07658183
H       -0.68324753      -1.35173576      -2.21522615      -0.10298263      -0.00792430       0.07626277      -0.24391695       0.18583797       0.15693091      -0.08573789
N        1.35017020       0.65136684       1.90907356       0.53688098       0.86815804       0.51362425       1.83431579      -0.75553119       1.35634518      -0.41822146
8
Properties=species:S:1:pos:R:3:momenta:R:3:forces:R:3:charge:R:1 energy=-194.82434795538393 free_energy=-194.82434795538393 dipole="0.25919290125335964 0.3418301796255867 0.0025321694853194837" pbc="F F F"
B       -1.55517992      -0.64072903      -1.90747449       0.38461224      -0.05875301       0.10427111      -1.46435916       0.93028194       0.37493951       0.24074374
H        1.35110027       1.22750682       2.95217068       0.08477009       0.06137859      -0.09280731      -0.07118133      -1.21341138      -0.93487264       0.13397492
H        1.19318807       1.35081079       1.36353626       0.20360187      -0.01782192      -0.03798168       0.06887207      -0.97223163       0.28415131       0.13630903
H        2.39468352       0.44358369       1.98502892       0.13843040       0.20879042      -0.20444441       0.15264525      -0.28443403      -0.11778014       0.14529604
H       -1.55714088      -0.11010028      -2.95217068       0.02390516      -0.33415576       0.11075430      -0.21325651       0.02634612       0.22463362      -0.08184710
H       -2.39468352      -0.45203612      -1.04841778      -0.21292216       0.21789482      -0.16045485       0.64313507      -0.04005374      -0.90686941      -0.08588406
H       -0.72364258      -1.35081079      -1.67707073      -0.16504736       0.02510884      -0.00568497       1.03490503      -0.91595441       0.30809841      -0.07301261
N        1.40224457       0.61891175       2.07923732      -0.45735024      -0.10244198       0.28634780      -0.15076042       2.46945713       0.76769934      -0.41557995
8
Properties=species:S:1:pos:R:3:momenta:R:3:forces:R:3:charge:R:1 energy=-194.74024571740205 free_energy=-194.74024571740205 dipole="0.16343119241364057 0.37386356135879245 -0.02844257337849152" pbc="F F F"
B       -1.52614924      -0.56066318      -1.80499041      -0.29130881       0.75262114       0.32048326       2.10315853      -1.73602046       0.19457165       0.24228123
H        1.73942130       1.13827023       2.89994647       0.24711182      -0.12732738      -0.33681448      -0.00899988      -0.28457332       0.33611849       0.14018322
H        0.92747717       1.39238846       1.61297809      -0.28968174      -0.08374922      -0.03187787      -1.41296965       1.67297483      -1.66771981       0.15290535
H        2.37060622       0.57830090       1.52434252      -0.31074355      -0.06902499      -0.31988660      -1.26903209       0.17520017       0.24651339       0.13865461
H       -1.37574137      -0.23993253      -2.89994647      -0.04523664      -0.18461462      -0.04350515      -0.09841127       0.22929267      -0.32156189      -0.07849111
H       -2.37060622      -0.20069358      -1.15165808       0.16639905      -0.13284181       0.24254389      -0.68965540       0.30572833       0.56378784      -0.06861683
H       -0.66352312      -1.39238846      -1.37892663       0.30563312      -0.23067487       0.03215973      -1.31430655       1.20219856      -0.43618740      -0.09517305
N        1.45846490       0.70624569       2.02441803       0.21782675       0.07561174       0.13689722       2.69021632      -1.56480078       1.08447773      -0.43174342
8
Properties=species:S:1:pos:R:3:momenta:R:3:forces:R:3:charge:R:1 energy=-194.60566976451773 free_energy=-194.60566976451773 dipole="0.15955606433645528 0.3215359512588465 -0.00437568085028636" pbc="F F F"
B       -1.48157029      -0.63544759      -1.72141333      -0.60245409      -0.91432120      -0.06998811      -0.74900458       0.26120586       0.24934034       0.23494818
H        1.95011686       0.95019625       2.82480162      -0.02844169       0.06152572      -0.37616211       0.37248600       0.58768970       1.80770624       0.14096423
H        0.63345477       1.26833029       1.90256882      -0.26865595       0.31968494       0.19894560       0.72132194       0.12968004      -0.66574715       0.15349475
H        2.25157979       0.64120379       1.33420568       0.21412148       0.18031362      -0.10707609      -1.99423066       0.55124298       0.18344619       0.14085546
H       -1.61295186      -0.64566012      -2.82480162       0.22932743       0.15076297       0.13188948      -0.38991050       0.29668746      -1.75907240      -0.08202177
H       -2.25157979      -0.14925505      -1.03852341       0.41206157      -0.02140619      -0.00501820      -0.35088779       0.37868793       0.48546833      -0.07841799
H       -0.64720602      -1.26833029      -1.37295411       0.29064397       0.24882371       0.28506967       1.49047658      -0.93410752       1.02657423      -0.07450686
N        1.45660759       0.69410567       2.02316797      -0.24660271      -0.02538356      -0.05766025       0.89974901      -1.27108644      -1.32771578      -0.43531600
8
Properties=species:S:1:pos:R:3:momenta:R:3:forces:R:3:charge:R:1 energy=-194.79413098557723 free_energy=-194.79413098557723 dipole="0.06536050017257047 0.3112413519446744 0.07575694285550993" pbc="F F F"
B       -1.51876621      -0.68640222      -1.76904763       0.13755083      -0.00745300       0.52341738       0.80362306      -0.20060850      -0.19282966       0.24526753
H        1.89746102       0.91838498       2.95282689      -0.20268542      -0.01078247      -0.22696555       0.28531196       0.03943333       1.30885893       0.14309968
H        0.64630283       1.30734250       2.03465687      -0.05632677       0.09545206       0.22527107      -0.78465511       0.90110250      -0.45668982       0.15255191
H        2.23672677       1.08946794       1.41643261      -0.06856385       0.08781795       0.15308222      -1.28215699      -0.00501430       0.25020983       0.13940276
H       -1.72950170      -0.52700838      -2.95282689      -0.12355084      -0.11216149      -0.23379998       0.25281991      -0.26428575       1.00386805      -0.08412082
H       -2.23672677      -0.15243135      -0.99763793      -0.28917264      -0.03584604       0.32347504       0.26669726      -0.28085046      -0.22983809      -0.07906138
H       -0.51753300      -1.30734250      -1.36290869       0.19671573      -0.07480321      -0.14711255      -1.32328717       0.74885636      -0.57935487      -0.08208462
N        1.48248542       0.79310690       2.06687395       0.40603297       0.05777620      -0.61736763       1.78164710      -0.93863318      -1.10422438      -0.43505506
8
Properties=species:S:1:pos:R:3:momenta:R:3:forces:R:3:charge:R:1 energy=-194.78522542902397 free_energy=-194.78522542902397 dipole="0.13137014746011208 0.38456644613887775 0.2141009737308136" pbc="F F F"
B       -1.56576554      -0.77268731      -1.84984494      -0.36042543      -0.39452653       0.05551564       1.09711755      -0.93562497       0.78344396       0.23887613
H        1.79495967       0.63601370       2.91720020       0.13780987      -0.11101739       0.02527488       1.19469115      -1.06439673       2.77257216       0.15236100
H        0.67671440       1.43001874       2.25158355       0.26864155       0.21451964       0.19675297       0.01810989      -0.21514492      -0.61722243       0.14139282
H        2.17562061       1.28117465       1.56825134      -0.22190920       0.36792763       0.31717970      -0.85419867      -0.43650937      -0.06660469       0.13838403
H       -1.87615778      -0.62688019      -2.91720020      -0.00951550       0.10665763       0.03980440      -0.54605777       0.39388265      -1.14022625      -0.07673860
H       -2.17562061      -0.42929144      -0.93832971       0.14000328       0.11487621      -0.30078286      -0.18544443       0.19699340       0.21444939      -0.07531352
H       -0.58531506      -1.43001874      -1.70191788      -0.08289309      -0.00726026      -0.26846167      -0.36707952       0.34362213       0.14178298      -0.08682395
N        1.41665344       0.74868656       2.04323577       0.12828854      -0.29117695      -0.06528306      -0.35713819       1.71717782      -2.08819512      -0.43213790
8
Properties=species:S:1:pos:R:3:momenta:R:3:forces:R:3:charge:R:1 energy=-194.71334563143 free_energy=-194.71334563143 dipole="0.11107534186438635 0.22599731244928534 0.1946423651498932" pbc="F F F"
B       -1.73397361      -0.94498496      -1.89470904      -0.50578794       0.15941817      -0.14838285       1.34510606       0.58192896       0.85126089       0.23900135
H        1.81338702       0.29212344       2.93916112       0.25941650       0.14039350      -0.10531933       0.02692125      -0.12508219       0.24479582       0.14488687
H        0.75656105       1.29958626       2.24335583       0.17052938       0.39292695      -0.06734655      -0.76308896       0.60901865       0.26077340       0.14722759
H        2.18604490       1.01845587       1.47774133      -0.02642171      -0.04985211       0.17043582      -1.97660305      -1.34969053       1.35509407       0.12332907
H       -2.18604490      -0.84903624      -2.93916112      -0.29068410      -0.10924152       0.06927110      -0.51152179      -0.09824255      -0.33124870      -0.07297285
H       -2.08407549      -0.38997161      -0.92021767       0.00542687      -0.07229997       0.12727226      -0.47198716      -0.21490936      -0.31920243      -0.07953991
H       -0.60993016      -1.29958626      -1.78962628       0.10373356       0.01209074      -0.13745125      -0.36193781      -0.26700854      -0.20235062      -0.08648848
N        1.37025982       0.53926537       2.06754356       0.28378745      -0.47343577       0.09152081       2.71311145       0.86398556      -1.85912242      -0.41544365
8
Properties=species:S:1:pos:R:3:momenta:R:3:forces:R:3:charge:R:1 energy=-194.93126506629164 free_energy=-194.93126506629164 dipole="0.16234518985883992 0.20038460867436916 0.14867989357595138" pbc="F F F"
B       -1.65024933      -0.98085799      -1.92847237      -0.04741580       0.25358369       0.03461868       0.65781130       0.18927178      -0.49258586       0.23992589
H        1.87470241       0.28407342       2.83615605       0.03073720      -0.19721150       0.07925749       0.07222282       0.03223718       0.17920328       0.14230781
H        0.99182443       1.32486347       1.95202055       0.08053406      -0.04745521      -0.07493593      -0.53089996       1.13700049      -0.02234459       0.14909037
H        2.37946912       0.65700184       1.30844625       0.11958881       0.04243350       0.29417746      -0.80620148       0.08720975       0.55521315       0.13904483
H       -2.37946912      -0.91239359      -2.83615605       0.10354425      -0.14040996      -0.00402036       0.04606722      -0.20088200       0.02681584      -0.08116452
H       -1.93784467      -0.49672679      -0.93296168       0.20889358      -0.12676244      -0.11699492      -0.27615147       0.10199476       0.54515340      -0.07687148
H       -0.52753732      -1.32486347      -2.05200073       0.05310024       0.04301002       0.28602809      -0.42732484      -0.08898190      -0.08041949      -0.08188969
N        1.55121355       0.51867968       1.91233121      -0.54898233       0.17281189      -0.49813050       1.26447641      -1.25785006      -0.71103574      -0.43044321
8
Properties=species:S:1:pos:R:3:momenta:R:3:forces:R:3:charge:R:1 energy=-194.65223083441094 free_energy=-194.65223083441094 dipole="0.24498505874293408 0.3088962146881025 0.19079693679109225" pbc="F F F"
B       -1.54355650      -0.91395199      -1.98553401       0.73856972      -0.16264236      -0.19165360      -3.40030981      -0.28727758       0.03615142       0.23641776
H        1.55886202       0.00311463       2.71109850      -0.05865992      -0.35141098       0.02412960       0.23334444      -0.29297375       0.25123354       0.14314393
H        0.96321946       1.38040041       2.10735459       0.00113704       0.28558902      -0.19721840       0.56794629      -0.45997316      -0.36384695       0.13840934
H        2.39067977       0.75728940       1.52445679      -0.10989666       0.14507600      -0.07283479       1.19117716       0.44507026      -0.30296062       0.15026252
H       -2.39067977      -1.31619912      -2.71109850       0.14455495      -0.14344493      -0.00697287       0.53222976       0.23353370      -0.46933157      -0.09573342
H       -2.11238442      -0.50553549      -1.06574738       0.07459135       0.13720782      -0.10067851       0.49949250       0.62487766       0.48562856      -0.08076026
H       -0.56170555      -1.38040041      -1.98991147       0.14887798      -0.11904215      -0.18358680       2.36582193      -0.57273236      -0.05234894      -0.05992401
N        1.49750354       0.53331737       1.86204721      -0.93917446       0.20866759       0.72881537      -1.98970227       0.30947522       0.41547454      -0.43181586
8
Properties=species:S:1:pos:R:3:momenta:R:3:forces:R:3:charge:R:1 energy=-194.87484927535306 free_energy=-194.87484927535306 dipole="0.13009671081277435 0.17651098062059187 0.1710787419528451" pbc="F F F"
B       -1.63089580      -0.93099838      -1.94597609      -0.00068550      -0.14925930      -0.21834115       0.61371857       0.16261365       0.63501998       0.24107684
H        1.42091691       0.20606379       2.86192962       0.03215931      -0.09763988       0.22610064       0.09161247       0.23299288      -0.01805593       0.14140043
H        0.83746668       1.43934758       1.90750575       0.19810022      -0.07934546      -0.46726717       0.09612029       0.36494794       0.08540446       0.14537188
H        2.28636455       0.70731393       1.55705223       0.15014166      -0.13228599      -0.07162488       1.67607006       0.45076063      -0.58177934       0.15080554
H       -2.28636455      -1.10970680      -2.86192962       0.09244967      -0.11698874      -0.27620844      -0.31605574      -0.22752633      -0.62091039      -0.08029488
H       -2.07868627      -0.20053486      -1.13091571      -0.25664560      -0.05102916      -0.24040867       0.39902922      -0.31639477      -0.11477136      -0.08139407
H       -0.55014441      -1.43934758      -1.87492488      -0.06751423      -0.00384096      -0.15328728      -0.69777560       0.38224527       0.09971743      -0.07938766
N        1.40283877       0.61694509       1.94132119      -0.14800552       0.63038948       1.20103696      -1.86271926      -1.04963928       0.51537514      -0.43757808
8
Properties=species:S:1:pos:R:3:momenta:R:3:forces:R:3:charge:R:1 energy=-194.77188854876312 free_energy=-194.77188854876312 dipole="0.1548916655862098 0.30008378873985453 0.20516625274417793" pbc="F F F"
B       -1.70459982      -1.00117896      -1.95194080      -0.52255526      -0.50419577      -0.15998234       1.20334364      -0.12928981       0.70527372       0.24192427
H        1.53044305       0.33926837       2.95335463       0.02542606      -0.02541407       0.01853508       0.84107350      -0.79115239       0.66264347       0.14824867
H        0.82878555       1.42023098       2.13554132       0.09853375       0.04775831       0.01957757       0.42187629      -0.94410487      -0.88439540       0.13256895
H        2.25838112       0.83137438       1.49920910       0.12762530       0.46178841      -0.29246383      -1.15321262      -0.58369497       0.96093878       0.13919902
H       -2.25838112      -1.23339544      -2.95335463       0.08677674       0.08981579      -0.03831289       0.01769499       0.07638069       0.21533747      -0.07504188
H       -2.12139081      -0.33770261      -1.06643955       0.33450845       0.18336011      -0.20982367      -0.15626619      -0.20810187      -0.50020833      -0.07918984
H       -0.57542989      -1.42023098      -1.73483379       0.40176503      -0.02648857       0.04800422      -1.06589479       0.26157810      -0.42205136      -0.08769246
N        1.37217101       0.52648250       1.98797284      -0.55208006      -0.22662421       0.61446586      -0.10861483       2.31838514      -0.73753835      -0.42001674
8
Properties=species:S:1:pos:R:3:momenta:R:3:forces:R:3:charge:R:1 energy=-194.77015755353943 free_energy=-194.77015755353943 dipole="0.12756198723521706 0.29305097029571153 0.17945209678699645" pbc="F F F"
B       -1.61817433      -0.69353016      -1.93062825       0.12703159       0.09849046       0.27218207      -0.25026194      -0.20407837      -0.64022868       0.23807071
H        1.98771278       0.63239031       2.94198741      -0.06000195       0.01706003      -0.16065937       1.52435528      -0.57874278       1.76551815       0.15104097
H        0.76460261       1.46737531       2.43593496       0.05140084      -0.01188802      -0.05484554      -0.85338941       0.87534435       0.05967086       0.14657562
H        2.13791270       1.39250736       1.43832202      -0.24280384       0.13205089      -0.05856483      -1.47548458      -1.11317236       1.84315395       0.13037846
H       -2.13791270      -0.90155900      -2.94198741       0.03433321      -0.26310391      -0.29850716      -0.31212402       0.15226227      -0.27606997      -0.08675470
H       -1.88096721       0.21955960      -1.30322850       0.18973485      -0.03090287      -0.05619981      -0.09935709       0.47823940       0.40171424      -0.07430536
H       -0.83723489      -1.46737531      -1.64998991      -0.24553929      -0.00927839      -0.05254802       0.66108998      -0.42590943       0.51385157      -0.07701058
N        1.49468332       0.86980161       2.14887251       0.14584459       0.06757180       0.40914266       0.80517179       0.81605693      -3.66761012      -0.42799513
8
Properties=species:S:1:pos:R:3:momenta:R:3:forces:R:3:charge:R:1 energy=-194.72371835213113 free_energy=-194.72371835213113 dipole="0.1962092216008013 0.2613418205844536 0.22208372656524633" pbc="F F F"
B       -1.53115871      -0.65190001      -1.99555938       0.79923615      -0.18866989       0.18155506       1.08640547      -1.01468473       1.26656398       0.24191702
H        2.05588924       0.55205925       2.87845569      -0.28208864      -0.22383182      -0.37231414       0.08298251      -0.39921565      -0.45625908       0.13641156
H        0.92290400       1.52037383       2.67685374      -0.28737700      -0.06931999       0.18384948      -2.52821908       2.60300743       1.45896939       0.15754403
H        2.18111189       1.54565391       1.62125505       0.19880187       0.18880937       0.29140826      -0.39930484       0.23376405       0.02105167       0.14524545
H       -2.18111189      -0.94568899      -2.87845569      -0.12791603       0.13994015      -0.14734887      -0.43325655      -0.13150051      -0.67790851      -0.07647139
H       -1.57779752       0.41733901      -1.53884607       0.02677435       0.31933401       0.10463955       0.10346118      -0.04766989      -0.00450578      -0.07518285
H       -0.83829954      -1.54565391      -1.47404909      -0.11258405      -0.04660733       0.14344844      -0.75809722       1.19311529      -0.58599634      -0.09026276
N        1.50076373       1.00091436       2.14234254      -0.21484664      -0.11965452      -0.38523779       2.84602853      -2.43681598      -1.02191534      -0.43920106
8
Properties=species:S:1:pos:R:3:momenta:R:3:forces:R:3:charge:R:1 energy=-194.8006753594511 free_energy=-194.8006753594511 dipole="0.22387239537462808 0.22518668790332583 0.15569589112109547" pbc="F F F"
B       -1.44216032      -0.73401530      -1.90145610       0.53471373       0.11352117      -0.11469835      -1.32535720       0.93634860      -0.70296633       0.24038589
H        2.00691593       0.46637123       2.88791696      -0.16425854       0.14620646      -0.15051444       2.27032264      -1.50365171       2.25631606       0.15307984
H        0.70055791       1.37308290       2.77305370      -0.20305754       0.14866544       0.10515957       0.07835533       0.23038344      -0.12889622       0.14284700
H        1.93085622       1.48998429       1.64555085      -0.15282565       0.10959154      -0.11658908       0.04074263       0.28938342       0.03406595       0.14453868
H       -2.00691593      -1.08810848      -2.88791696      -0.04545137       0.12410003       0.15170740       0.46429550       0.20706549       0.34897288      -0.08598777
H       -1.57735625       0.38282151      -1.53500035      -0.08016372      -0.15838635       0.21382458       0.21777797      -0.30593281      -0.28673179      -0.08370755
H       -1.04789531      -1.48998429      -1.17206827      -0.15616551       0.11202151      -0.15429373       0.64197251      -0.83650433       0.64104706      -0.07069053
N        1.42959602       0.88804877       2.27217671       0.26720858      -0.59571980       0.06540405      -2.38810938       0.98290790      -2.16180762      -0.44046557
8
Properties=species:S:1:pos:R:3:momenta:R:3:forces:R:3:charge:R:1 energy=-194.74277573310982 free_energy=-194.74277573310982 dipole="0.030380260263651697 0.35470027856078146 0.1972727915169716" pbc="F F F"
B       -1.59078123      -0.63572763      -1.87640818       0.40347219      -0.34110639       0.73835521       0.74684074       0.68513305      -0.13292071       0.23894626
H        2.00895321       0.84356409       2.89740142       0.21623367       0.12643883       0.03918908       1.12900453      -0.28082944       0.76220842       0.14844400
H        0.52922334       1.37458567       2.71642482      -0.17180497       0.11248896      -0.23632200       0.17563615      -0.78028180      -0.22640832       0.13707859
H        1.52865912       1.46414873       1.50520014      -0.30757716      -0.01666172      -0.11754669       0.21857326      -0.35573670      -0.29787670       0.14279646
H       -2.00895321      -0.89068650      -2.89740142      -0.08451956      -0.14652551      -0.21385296      -0.88847764      -0.09019374      -0.90892947      -0.08529469
H       -1.68723073       0.50168044      -1.52901711      -0.04667371       0.10756735      -0.08818753       0.10457695      -0.85397381       0.25521524      -0.07842104
H       -0.83232149      -1.46414873      -1.57197294       0.30185733       0.13267416      -0.28729210       0.03752500       0.26170253       0.78476187      -0.07523020
N        1.26793541       0.81475670       2.24512704      -0.31098778       0.02512432       0.16565700      -1.52367899       1.41417991      -0.23605032      -0.42831939
8
Properties=species:S:1:pos:R:3:momenta:R:3:forces:R:3:charge:R:1 energy=-194.73233026889346 free_energy=-194.73233026889346 dipole="0.09350605141852025 0.19869822831039263 0.008324524931109677" pbc="F F F"
B       -1.47679564      -0.73716762      -1.95414438      -0.19243444      -0.03768922       0.35862553       0.97042007       0.18793168       1.20903453       0.24312339
H        2.11573683       0.52482900       2.74869103       0.12056696      -0.13398987      -0.33246014       0.77141033       0.07410301       0.08766878       0.14565450
H        0.70862463       1.33997913       2.61732174       0.01017853       0.17444623      -0.25634291      -0.91968589       1.14074141       0.46171961       0.14752238
H        1.60620403       1.07636363       1.18055915      -0.19072357       0.26169544      -0.16164425      -0.08615700      -0.07627784       1.56789729       0.14284479
H       -2.11573683      -1.29076423      -2.74869103      -0.26506184       0.11862334       0.44769123      -0.14465804       0.29155955      -0.04514113      -0.07227603
H       -1.63690051       0.36102686      -1.47130639      -0.02051402      -0.15774285      -0.06418889      -0.16524203      -0.85061400      -0.69725013      -0.08178617
H       -0.54937825      -1.33997913      -1.46038344       0.14811381      -0.04143800      -0.00479666      -0.65784611       0.37404001      -0.46549681      -0.08905880
N        1.37923329       0.81018753       2.15587883       0.38987457      -0.18390508       0.01311608       0.23175868      -1.14148381      -2.11843214      -0.43602406
8
Properties=species:S:1:pos:R:3:momenta:R:3:forces:R:3:charge:R:1 energy=-194.80046706120575 free_energy=-194.80046706120575 dipole="0.17955524844782142 0.3281538442763195 0.188196062081864" pbc="F F F"
B       -1.45210527      -0.81842778      -1.92639472       0.08280212       0.08170379       0.30497535       0.91824936      -0.83897570      -1.07763632       0.24060920
H        2.19250303       0.58111593       2.68526760      -0.04791319      -0.36975279      -0.04446533       0.29722738      -0.75837697      -0.47555404       0.13997400
H        0.89531082       1.33253032       2.66710716       0.11563930       0.05642589      -0.06504532      -0.61873653      -0.07447845      -0.84189434       0.14172636
H        1.74603312       1.16637277       1.23974724      -0.08279688      -0.04744832      -0.14540419      -0.48710289      -0.29996745       0.49680130       0.14352493
H       -2.19250303      -1.33253032      -2.68526760      -0.11482787      -0.05933093      -0.06768284      -0.04798228       0.22231822       0.44131272      -0.08164487
H       -1.61299552       0.16522394      -1.39041248      -0.10894559      -0.07650779       0.18413438      -0.48035809       0.63951762       0.47197888      -0.07120937
H       -0.33705170      -1.22120481      -1.94966713      -0.02638396       0.00374158      -0.26893361      -0.38655466      -0.01994954       0.16393735      -0.08775426
N        1.38196785       0.65711774       2.06257082       0.18242607       0.41116857       0.10242156       0.80525770       1.12991226       0.82105445      -0.42522599
8
Properties=species:S:1:pos:R:3:momenta:R:3:forces:R:3:charge:R:1 energy=-194.6754915539407 free_energy=-194.6754915539407 dipole="0.3169618076242713 0.2673241641836082 -0.013502296895090396" pbc="F F F"
B       -1.31584573      -0.80582071      -1.95562796      -0.41747332      -0.11479986      -0.64436325      -1.15131198      -0.72049068       0.58463264       0.23873837
H        2.09811460       0.14667266       2.44352026      -0.23706155       0.24417580      -0.00308425      -0.33384606       0.28462696       0.07545756       0.13681162
H        1.10571983       1.45650590       2.64196196       0.09185403       0.19818972       0.12120708       0.06381645       0.59714878       0.18990131       0.14838674
H        1.79223066       1.06185867       1.19339873      -0.04969970      -0.00565985       0.13270271       1.21618040       1.58452493      -2.87112431       0.15565432
H       -2.09811460      -1.35635892      -2.64196196       0.40059937      -0.03093171      -0.12998101      -0.10051659       0.65445627      -0.11609170      -0.08641523
H       -1.64128241      -0.06074441      -1.10347191       0.17937077      -0.07033591      -0.08269937       0.17008710       0.05878305      -0.54745085      -0.07392127
H       -0.39172163      -1.45650590      -1.83398565       0.30767258      -0.18297352       0.04455181       1.08369802       0.00685470       0.07799445      -0.07840091
N        1.41269524       0.76072578       2.00280433      -0.27526218      -0.03766467       0.56166629      -0.94810736      -2.46590402       2.60668089      -0.44085363
8
Properties=species:S:1:pos:R:3:momenta:R:3:forces:R:3:charge:R:1 energy=-194.64698474387893 free_energy=-194.64698474387893 dipole="0.2856591999501421 0.12196833085454206 0.06570205418069484" pbc="F F F"
B       -1.51182963      -1.03942172      -1.88847131      -0.36027898      -0.36344341      -0.78970688       0.91398199       1.93884235       0.18151254       0.24291464
H        2.15978515       0.12462816       2.51990679      -0.23641818       0.20100350      -0.02685592      -0.99845500       0.02934528       0.17617781       0.13797794
H        1.24905658       1.41984325       2.87673135       0.02035541       0.03172365       0.02946861      -0.34337732      -0.06677191       0.52294783       0.14373419
H        1.56505328       1.03977155       1.41331716      -0.27706000       0.12588397       0.07675797      -0.37455458       0.05437102      -0.98907067       0.14485546
H       -2.15978515      -1.08028920      -2.87673135       0.19736234       0.14069356       0.19412441       0.30331459      -0.56999172       0.46264099      -0.07361505
H       -1.70271874      -0.03885555      -1.21752719       0.09177815       0.21016875      -0.05287390      -0.23472896      -0.98185202      -0.28987994      -0.09215933
H       -0.38739321      -1.41984325      -1.70349533      -0.30823312       0.13629633      -0.12523728      -0.97910025      -0.38355831      -0.35511217      -0.07713952
N        1.26698637       0.60675920       2.27084991       0.87249439      -0.48232635       0.69432298       1.71291952      -0.02038468       0.29078362      -0.42656833
8
Properties=species:S:1:pos:R:3:momenta:R:3:forces:R:3:charge:R:1 energy=-194.7271629489541 free_energy=-194.7271629489541 dipole="0.38972987080975696 0.33197633154392325 -0.02535248137045289" pbc="F F F"
B       -1.36970104      -0.83557195      -2.05122063      -0.60159037      -0.22229387      -0.35272549      -1.23332094      -0.46021170      -0.19250652       0.23960757
H        2.18586594       0.38311385       2.46614662      -0.12753737       0.34079394      -0.02275343       2.31227700      -1.53995144       0.33292140       0.15252474
H        1.28088454       1.54179717       2.89193508      -0.02033221       0.08496127       0.06734796      -0.53802559      -0.53053525      -0.47366503       0.13636828
H        1.45469988       1.21881672       1.31329329       0.02880217       0.49974858      -0.12272254      -0.15031527      -0.40563720       0.25859649       0.14171975
H       -2.18586594      -0.98287992      -2.89193508       0.04677769       0.13202911      -0.06172131       0.53011093      -0.10365958      -0.29761725      -0.09167981
H       -1.86665597      -0.17866904      -1.22765871       0.30749538      -0.11613331      -0.17678247       0.71989200       0.14251315       0.38762584      -0.07693933
H       -0.44110654      -1.54179717      -1.99734137       0.26255642       0.08678967       0.22284821      -0.01576395       0.42204710       0.10108881      -0.07098766
N        1.33011142       0.74881670       2.21875972       0.10382829      -0.80589538       0.44650908      -1.62485419       2.47543492      -0.11644373      -0.43061353
8
Properties=species:S:1:pos:R:3:momenta:R:3:forces:R:3:charge:R:1 energy=-194.80970166186003 free_energy=-194.80970166186003 dipole="0.2916374374805025 0.12931313205796155 0.12405968801845077" pbc="F F F"
B       -1.38787873      -0.83092285      -2.15877943       0.75984547      -0.48429491      -0.16581549      -1.14043916       1.07545217       0.11283017       0.24031219
H        2.03568383       0.26349822       2.40242838      -0.31644596       0.27888955       0.03236716       0.68762675      -0.54401908      -0.46256256       0.14050820
H        1.15560499       1.30322801       3.13518112      -0.07637065      -0.02371680       0.01704053      -0.23423188       0.95299687      -0.18282823       0.14597358
H        1.56090848       1.55182551       1.45783719       0.14725960       0.54238474       0.20971458      -0.01592232      -0.04318102       0.90146178       0.14808543
H       -2.03568383      -0.85692203      -3.13518112      -0.13362135       0.22455779      -0.01142238      -0.20055848       0.22811278       0.16149943      -0.08837160
H       -1.66640784      -0.06755610      -1.26118512      -0.16048985       0.05289520       0.03078023       0.37525008      -0.75822989      -0.71986719      -0.07821509
H       -0.52323884      -1.55182551      -2.20746440      -0.19204360      -0.01183490      -0.02677243       0.96761698      -0.54532804       0.44506869      -0.07372531
N        1.30956616       0.92068017       2.21942051      -0.02813366      -0.57888067      -0.08589220      -0.43934195      -0.36580378      -0.25560210      -0.43456740
8
Properties=species:S:1:pos:R:3:momenta:R:3:forces:R:3:charge:R:1 energy=-194.61198897329498 free_energy=-194.61198897329498 dipole="0.3375635622324943 0.1447559768831759 0.18541055726449754" pbc="F F F"
B       -1.37752007      -1.01181902      -2.20260667      -0.02897942       0.32645619       0.09873144      -0.91501421       0.59322749      -0.29954439       0.23757796
H        2.15654937       0.22061127       2.32186426      -0.35059887       0.25089604       0.01413793       1.15899357      -1.17559995      -0.09082518       0.14646484
H        1.15369555       1.11669363       3.11537515      -0.27115553      -0.42647742      -0.27017666      -0.10226638       0.19366254      -1.00382037       0.13977449
H        1.79117031       1.62830360       1.57923034      -0.01837401       0.05457273      -0.21591142      -1.16203704      -1.68572903       1.46667445       0.13026200
H       -2.15654937      -0.81900486      -3.11537515      -0.11155539      -0.05174364      -0.14018014       1.12822535      -0.70432510       0.35989944      -0.08191315
H       -1.69306117      -0.37808739      -1.30065396      -0.34228944      -0.08473585       0.21476236      -0.17682232       0.41372088       0.67338691      -0.08667405
H       -0.42008069      -1.62830360      -1.98285077      -0.10498880      -0.35691723      -0.18814439      -0.03688833      -0.30271788      -0.73490756      -0.06899074
N        1.37368422       0.79197004       2.15256922       1.22794146       0.28794917       0.48678087       0.10580936       2.66776105      -0.37086331      -0.41650135
8
Properties=species:S:1:pos:R:3:momenta:R:3:forces:R:3:charge:R:1 energy=-194.83509979386668 free_energy=-194.83509979386668 dipole="0.2230652708604577 0.1493246131947818 0.3171894961030391" pbc="F F F"
B       -1.43498231      -0.85160691      -2.13949334      -0.36120786      -0.20229547      -0.19797873       0.26533324       0.27413880       1.24137773       0.24087749
H        2.11569872       0.31603818       2.54785742      -0.15349578       0.22525759      -0.15593347       0.18559624      -1.11868991       0.24347611       0.14411970
H        0.75560360       1.07768423       3.01228781      -0.06819618       0.32426407      -0.17135265       0.79427887      -0.06645142      -1.25993751       0.13828762
H        1.94995989       1.72128628       2.00226270       0.13485233      -0.16825549      -0.04624719      -0.91776554       0.11271687      -0.12266885       0.14068215
H       -2.11569872      -0.53904723      -3.01228781       0.10021896       0.19234587       0.33540901      -0.27751939       0.22767326      -0.14712364      -0.07758738
H       -1.46385347      -0.32367996      -1.03982060       0.21812718       0.21846496      -0.15705007      -0.07107555      -0.42429142      -1.11182214      -0.08162948
H       -0.68382553      -1.72128628      -2.30853351       0.30229779       0.00852262       0.14045070       0.08425973      -0.07882967       0.01730550      -0.08166067
N        1.37657716       0.88300969       2.17951592      -0.17259644      -0.59830416       0.25270239      -0.06310760       1.07373350       1.13939281      -0.42308944
8
Properties=species:S:1:pos:R:3:momenta:R:3:forces:R:3:charge:R:1 energy=-194.8390517484919 free_energy=-194.8390517484919 dipole="0.20875100027829466 0.04753938146199667 0.26862296029816707" pbc="F F F"
B       -1.37136634      -0.78890430      -2.05624400       0.36136147       0.47573303      -0.19148890      -0.20332905       0.46258439      -1.44173666       0.23918330
H        1.97343478       0.06945278       2.41439951      -0.10815240       0.04733516      -0.14563774      -0.47542302       0.70668867       0.03384212       0.13873230
H        0.98745258       1.24836186       3.07990233       0.42229135       0.21495261       0.14104010       0.20251078       0.18735613       0.20012352       0.14655571
H        1.93002056       1.58698724       1.70172950       0.04223546      -0.08708682       0.04725565      -0.85307636      -0.90273996       1.00798930       0.13573544
H       -1.97343478      -0.70321189      -3.07990233       0.15067210      -0.22465642      -0.04354476      -0.17603786       0.09868890       0.59349397      -0.09222185
H       -1.39488640       0.06741238      -1.28585483      -0.13847081      -0.12425391      -0.00033782      -0.09523794      -0.04017230       0.32791819      -0.06880818
H       -0.55943827      -1.58698724      -2.14483915       0.10362017       0.17816119       0.28572876       0.47728064      -0.52176631       0.51970203      -0.07815323
N        1.35739783       0.87464953       2.22506215      -0.83355734      -0.48018485      -0.09301528       1.12331280       0.00936049      -1.24133247      -0.42102349
8
Properties=species:S:1:pos:R:3:momenta:R:3:forces:R:3:charge:R:1 energy=-194.69976172838471 free_energy=-194.69976172838471 dipole="0.34351953959586423 0.10942321186944243 0.14998376235502803" pbc="F F F"
B       -1.25910064      -0.60974302      -2.11544923       0.33985502       0.56776386       0.50690830      -0.77505511       0.10506360       1.81367302       0.24033861
H        1.78903151       0.04351539       2.39091251       0.00740573       0.25868506      -0.19541862       0.01170496       1.11101063      -1.02194127       0.13321788
H        1.04580620       1.29017535       2.95149076       0.11710771       0.05871976      -0.14793293      -0.13932167       1.11283226       0.31774929       0.14558158
H        2.03723683       1.53522204       1.60400712      -0.14903693      -0.00695005       0.14009655       0.98220874       0.71372274      -0.11111750       0.15520203
H       -2.03723683      -0.61846223      -2.95149076      -0.02374354       0.06756111       0.00416908      -0.13281630       0.16740765      -0.72698247      -0.07731407
H       -1.52821551       0.08320970      -1.14991731      -0.10628691      -0.12295786      -0.28927645       0.53976327      -0.36895854      -0.91688857      -0.08572325
H       -0.58337103      -1.53522204      -1.93984617      -0.12976243       0.14329391       0.05952051       0.36756131       0.09381760      -0.16967897      -0.07730125
N        1.39764287       0.96565297       2.07897117      -0.05553866      -0.96611579      -0.07806643      -0.85404520      -2.93489594       0.81518647      -0.43400152
8
Properties=species:S:1:pos:R:3:momenta:R:3:forces:R:3:charge:R:1 energy=-194.54416635240744 free_energy=-194.54416635240744 dipole="0.21182175026972636 0.11746841492282505 0.21298420922986083" pbc="F F F"
B       -1.57583307      -0.72591683      -1.97266998      -0.33026069      -0.00437904      -0.15381738       1.89017355      -0.42941206      -0.83467211       0.23896158
H        1.93512222       0.16241790       2.54316653      -0.07664390       0.20934373       0.24360529      -1.81174529       1.55324172      -1.45079494       0.12479360
H        0.97098108       1.35537303       3.05915108       0.04222224      -0.03983817       0.07164660      -0.25964250      -0.10785612      -0.91103613       0.13759189
H        1.61396500       1.52179552       1.56281281       0.08080929      -0.03600941      -0.20403513       0.31084838       0.23882126      -0.32849083       0.14778674
H       -1.67457947      -0.35451678      -3.05915108       0.19051781      -0.20738272      -0.10485973      -0.75439354       0.34007597      -0.41167163      -0.08649233
H       -1.93512222      -0.08730576      -1.09075882      -0.17736551      -0.29729015       0.36547788      -0.21772925      -0.20228741       0.40896551      -0.06376461
H       -0.65962891      -1.52179552      -2.01586257      -0.19351585      -0.18621406      -0.25113732      -0.91579916       0.29073627       0.83517769      -0.08870463
N        1.15329921       0.86280229       2.16048210       0.46423661       0.56176983       0.03311979       1.75828781      -1.68331963       2.69252245      -0.41017225
8
Properties=species:S:1:pos:R:3:momenta:R:3:forces:R:3:charge:R:1 energy=-194.8885805367447 free_energy=-194.8885805367447 dipole="0.27915494471669233 0.1972854230259667 0.2168002567399578" pbc="F F F"
B       -1.39522703      -0.74996753      -1.90366054       0.19932244      -0.50036759      -0.30469962       0.66029187      -0.47580157      -1.43963115       0.23986207
H        1.93003204       0.31696481       2.89241067      -0.48913527       0.24870996       0.20149538      -0.44848881       0.34730359      -0.36645346       0.14011373
H        0.93602843       1.64449341       2.94490932      -0.04436104      -0.18686040      -0.11874798       0.39552424      -0.77455188      -0.69172855       0.13799948
H        1.96840514       1.41009475       1.68174411       0.14467789      -0.00299135      -0.19782328      -0.00063949       0.06288310      -0.11163649       0.14257270
H       -1.65894949      -0.26934268      -2.94490932       0.00449588       0.12945929       0.16346248       0.24702310      -0.25901064      -0.07501861      -0.09126600
H       -1.96840514      -0.25906085      -1.07579831      -0.13332401       0.19741854      -0.10588179      -0.39593709       0.19466865       1.33954948      -0.07021031
H       -0.60975977      -1.64449341      -1.84989920       0.09579025       0.06546431      -0.17278269      -0.51169566       0.53895366       0.17510719      -0.07838578
N        1.33682238       0.92324664       2.30443899       0.22253386       0.04916725       0.53497751       0.05392183       0.36555508       1.16981159      -0.42068588
8
Properties=species:S:1:pos:R:3:momenta:R:3:forces:R:3:charge:R:1 energy=-194.80856648884827 free_energy=-194.80856648884827 dipole="0.12424405698926022 0.08764946551292739 0.18636972988556524" pbc="F F F"
B       -1.60590214      -0.90891556      -2.03357880       0.22258630       0.24243012       0.38422428       0.84398739       1.36710613       0.03868950       0.24115351
H        1.63583733       0.25689591       3.01555571      -0.27435243       0.20552992       0.27303904      -0.47585423       0.29938921       0.05813214       0.14300809
H        0.74951324       1.64692717       2.67621255       0.03176718      -0.31216522      -0.02847428      -0.11934742      -0.03518652       0.38690971       0.14607378
H        2.00668516       1.20197452       1.80286872       0.06638652      -0.08212356      -0.04080486       1.01711518       0.52360095      -0.93711735       0.14490925
H       -1.68439796      -0.22983311      -3.01555571      -0.22062787      -0.00213364      -0.29809601      -0.24205441      -0.68851223       0.38141365      -0.08484101
H       -2.00668516      -0.43427690      -1.03560083      -0.13884014      -0.22481381      -0.03767931      -0.32093491      -0.34194118      -0.22485570      -0.07889822
H       -0.71041805      -1.64692717      -1.92576510      -0.02034956      -0.27080094       0.05646985      -0.28068279      -0.33641394      -0.19722968      -0.07741429
N        1.22876390       0.84950702       2.29129012       0.33342999       0.44407712      -0.30867871      -0.42222881      -0.78804243       0.49405773      -0.43399112
8
Properties=species:S:1:pos:R:3:momenta:R:3:forces:R:3:charge:R:1 energy=-194.70635119692156 free_energy=-194.70635119692156 dipole="0.23849108741067893 0.286772925587012 0.24949558617351536" pbc="F F F"
B       -1.44111634      -0.82059753      -2.04759562      -0.28575040       0.23347074      -0.33686232      -1.20557723       0.44352074      -1.65233643       0.23969225
H        1.54029874       0.35468991       3.11485031      -0.14509376       0.04409599       0.25837460      -0.00488388       1.20299109      -1.46058726       0.14241549
H        0.90237488       1.67113431       2.17471036       0.02523066      -0.13724427      -0.25171511      -0.25258730      -0.06654444       0.58525129       0.14216838
H        2.30457185       1.06984840       1.75431071      -0.05953980      -0.06385784       0.16225533       1.15206062      -0.09066229      -0.03815168       0.14510716
H       -1.69099826      -0.34971223      -3.11485031       0.34173887       0.01906641       0.04536819       0.42258880       0.10289196       0.30295159      -0.09784793
H       -2.30457185      -0.59524096      -1.32207109       0.10638783      -0.01758540       0.29399979       0.17929683      -0.09786292       0.79313352      -0.07353436
H       -0.69161524      -1.67113431      -2.09020865       0.26002472       0.15858479       0.03125389       0.60397630      -0.45009240       0.55916409      -0.06830999
N        1.44643924       0.82350586       2.17618038      -0.24299812      -0.23653043      -0.20267437      -0.89487414      -1.04424173       0.91057490      -0.42969099
8
Properties=species:S:1:pos:R:3:momenta:R:3:forces:R:3:charge:R:1 energy=-194.83609690634933 free_energy=-194.83609690634933 dipole="0.1271586723248578 0.24510741323095409 0.21534477524658152" pbc="F F F"
B       -1.51249220      -0.80600763      -2.10167308       0.47307016       0.87292367      -0.05324747      -0.19320225      -0.88467872       1.09216012       0.24420674
H        1.18157930       0.30861956       3.09270966      -0.03946284      -0.22043266      -0.13549609       0.29584540       0.81205318      -0.92954289       0.14105688
H        0.82783550       1.59589551       2.06075765      -0.21630859       0.30625295      -0.25086260      -0.65559817       0.93750163       0.17138608       0.14682398
H        2.31996161       0.96663643       2.03251215      -0.09876288      -0.01318356       0.05956448       0.64763568       0.08996749       0.18826877       0.14507549
H       -1.79820318      -0.28959027      -3.09270966      -0.02494225      -0.04740808       0.05411914       0.25639716       0.09242308      -0.31656449      -0.07601195
H       -2.31996161      -0.66100699      -1.20450173      -0.06759063      -0.07295057      -0.19933377       0.85444064      -0.15664024      -0.59004380      -0.08790994
H       -0.58598690      -1.59589551      -1.97053713       0.12168392      -0.30854149      -0.45417097      -0.91818944       0.94791716      -0.18435546      -0.08028486
N        1.35657115       0.77634522       2.18366113      -0.14768689      -0.51666025       0.97942729      -0.28732900      -1.83854359       0.56869167      -0.43295633
8
Properties=species:S:1:pos:R:3:momenta:R:3:forces:R:3:charge:R:1 energy=-194.50484753932307 free_energy=-194.50484753932307 dipole="0.060443341907927946 0.18521899126059474 0.24205046269195732" pbc="F F F"
B       -1.41409382      -0.81404710      -2.18323221       0.14600216       0.50722190       0.29191243      -2.17262450       1.70440398      -0.20985148       0.23249078
H        1.05412008       0.21646451       3.02559216      -0.17088893      -0.14228839      -0.10261335       1.05661289       1.19377634      -1.54319802       0.13418097
H        0.74524650       1.53705431       2.06708894      -0.33020189       0.01373230      -0.12913876      -0.30040782       0.61992220      -0.03387930       0.14209322
H        2.28519720       1.05098930       2.16310422       0.15495578      -0.17411056      -0.04902063       2.50580691       0.71353987       0.45288034       0.15662861
H       -1.51214671      -0.08177380      -3.02559216       0.16843281      -0.11833024      -0.01113197       0.40616901       0.67745111      -1.19742569      -0.07746016
H       -2.28519720      -0.78148639      -1.47537192      -0.10332936      -0.24277292      -0.08586966      -1.23723356       0.06747697       1.00368063      -0.09134070
H       -0.68259409      -1.53705431      -1.93156086       0.04967993       0.10348217      -0.01448142       3.00429072      -2.44904145       0.40579494      -0.06368995
N        1.37227074       0.77228454       2.16808046       0.08534950       0.05306575       0.10034338      -3.26261366      -2.52752902       1.12199857      -0.43290277
8
Properties=species:S:1:pos:R:3:momenta:R:3:forces:R:3:charge:R:1 energy=-194.7097267382109 free_energy=-194.7097267382109 dipole="-0.0624055325010032 0.23572133387988442 0.33758368560342766" pbc="F F F"
B       -1.33689514      -0.67083724      -2.07479305      -0.03739800       0.37098314       0.68385052       0.71058727      -0.27290769      -0.61762613       0.24480752
H        1.02200986       0.23237155       3.00397061      -0.11116902      -0.28547905      -0.10410479       1.32673361       1.15918417      -1.67303558       0.13071192
H        0.66645343       1.51136772       2.08175245      -0.10518639      -0.19810953      -0.02487602       0.03994423       0.22403948      -0.33632968       0.14005572
H        2.23948427       1.33946065       2.46777316       0.04495713       0.00969642      -0.05091440      -0.18865614      -0.29203409       0.17589000       0.14603923
H       -1.42663745       0.12724333      -3.00397061      -0.10699037      -0.19793358      -0.09393665       0.49295853      -0.97261228       0.89414600      -0.08332351
H       -2.23948427      -0.69248938      -1.35996221      -0.04618118      -0.01976904       0.16246806      -0.28752640       0.01464586       0.30609207      -0.08039272
H       -0.44991210      -1.51136772      -1.84789091      -0.25482326      -0.09285270       0.04330412      -0.91521831       1.23078607      -0.58085249      -0.08109132
N        1.40950770       0.82827431       2.17379533       0.61679108       0.41346433      -0.61579085      -1.17882279      -1.09110151       1.83171581      -0.41680683
8
Properties=species:S:1:pos:R:3:momenta:R:3:forces:R:3:charge:R:1 energy=-194.85360321532622 free_energy=-194.85360321532622 dipole="-0.02126929009916869 0.05622053630933676 0.3620768078204605" pbc="F F F"
B       -1.32820969      -0.50552540      -1.89351578       0.46505014       0.09385229       0.04318547      -1.12487509       1.15872334      -0.95056106       0.24294542
H        1.31812703      -0.05099638       2.67722682      -0.12653826      -0.05828457      -0.47213791      -0.58765741      -0.80282336       0.50638021       0.15109542
H        0.63068161       1.44023079       2.28295395      -0.23223813       0.14257860       0.22158191      -0.72030320      -0.00104899       0.23820285       0.14848883
H        2.17499190       1.33404714       2.83166364       0.04947393      -0.14444355       0.28315739      -0.73956452      -0.46067227      -0.48776863       0.13444201
H       -1.38957407       0.25796024      -2.83166364      -0.04973437       0.35569641      -0.14247571       0.32162632      -0.53131788       0.66861064      -0.09197445
H       -2.17499190      -0.31257291      -1.09903658       0.25597856       0.32704288      -0.05895803       0.43802576      -0.23949671       0.08562409      -0.08136225
H       -0.67918377      -1.44023079      -1.97193292      -0.05022368      -0.13371268       0.02210396       0.36794601      -0.38711159       0.20056189      -0.06960870
N        1.42914175       0.84976591       2.29576877      -0.31176821      -0.58272939       0.10354292       2.04480213       1.26374746      -0.26104998      -0.43402627
8
Properties=species:S:1:pos:R:3:momenta:R:3:forces:R:3:charge:R:1 energy=-194.87865043974418 free_energy=-194.87865043974418 dipole="-0.1257974725586844 -0.06265400519764501 0.38124783213504043" pbc="F F F"
B       -1.49035483      -0.38904929      -1.89459458       0.12365628      -0.21362362       0.49868202       0.21406608      -0.27310750      -0.83144146       0.24203145
H        1.12042308      -0.03195370       2.35993698       0.20787976       0.04444083      -0.13811660      -0.48399267      -0.35224081      -0.38040294       0.14303930
H        0.45388450       1.46364548       2.35435207       0.15953964       0.17739143       0.05961021      -0.38683494       0.22403417       0.16557927       0.14841734
H        1.95343386       1.13083869       2.94855855      -0.24411068       0.27329179       0.03778839       0.00255684       0.61070038      -0.09592167       0.14209106
H       -1.43334920       0.16137304      -2.94855855      -0.19690037      -0.26667352       0.19090415      -0.28601091       0.31033662       0.74393572      -0.08384470
H       -1.95343386      -0.01524454      -0.88463185      -0.13901565       0.16195140      -0.17615422       0.13135293       0.05365209      -0.39505548      -0.07205287
H       -1.04539069      -1.46364548      -2.02704404      -0.32193543       0.03306282       0.04424658      -0.05730304      -0.09009015       0.48689895      -0.08613317
N        1.29584677       0.94751712       2.19571280       0.41088644      -0.20984112      -0.51696053       0.86616571      -0.48328480       0.30640762      -0.43354841
8
Properties=species:S:1:pos:R:3:momenta:R:3:forces:R:3:charge:R:1 energy=-194.8843117917107 free_energy=-194.8843117917107 dipole="-0.13013113590767109 -0.006043116550618 0.30878333003778524" pbc="F F F"
B       -1.48316784      -0.30754241      -2.02074301      -0.58983246       0.14746605      -1.03362388      -0.00756333       1.12159313       0.69383851       0.24402661
H        1.26800389       0.07033422       2.49970270       0.26240391      -0.02841995       0.20254527      -0.62356487      -1.99028608       0.61880354       0.14844579
H        0.49775247       1.46041911       2.11140968       0.03023795       0.10408991       0.13921967       0.34041183      -0.08272194       0.24438629       0.14584186
H        2.07481666       1.38997034       2.72055825       0.11646908       0.34251826      -0.17805674      -0.44720011       0.34054674      -0.31792076       0.14139911
H       -0.89462734       0.45653297      -2.72055825       0.36141884       0.10456486       0.42320560      -0.31746437      -0.57225189       0.19576291      -0.08100710
H       -2.07481666       0.19682096      -1.08973164       0.05062242       0.11241570       0.12705843       0.35500329      -0.52637305      -0.76010667      -0.08913153
H       -1.41553499      -1.46041911      -2.11845673      -0.08505289       0.20158481      -0.26641601      -0.02960589      -0.02142823      -0.12600935      -0.07388736
N        1.37798791       0.95290270       2.11444694      -0.14626686      -0.98421963       0.58606765       0.72998345       1.73092132      -0.54875446      -0.43568738
8
Properties=species:S:1:pos:R:3:momenta:R:3:forces:R:3:charge:R:1 energy=-194.8585116328097 free_energy=-194.8585116328097 dipole="-0.04220578532223999 0.15648452047910236 0.3479989629080905" pbc="F F F"
B       -1.36036014      -0.43717673      -2.21384227       0.21695221      -0.18522423       0.31433572       0.09872885      -0.73288721       0.03002277       0.24107883
H        1.58113498       0.14659143       2.70731987       0.39025287      -0.11340061      -0.04753494       0.46563261      -2.15374636       1.59445387       0.15085160
H        0.61667625       1.24473169       2.24307117      -0.03606810      -0.18605366      -0.12842497      -0.97590704       0.55756768      -0.17976611       0.14585276
H        2.17809989       1.52031574       2.25906490       0.31004175      -0.07569845      -0.41365390       0.82094442       0.75709906       0.01149055       0.14761339
H       -0.51113585       0.34868316      -2.35140150      -0.14849117       0.17142334      -0.08279789      -0.03512393      -0.17217211      -0.23137982      -0.07349450
H       -2.17809989      -0.24091133      -1.42673075      -0.01898312      -0.18314834      -0.15525514      -0.32905987       0.24588874       0.22942497      -0.08322131
H       -1.40694877      -1.52031574      -2.70731987      -0.07176229      -0.00470549      -0.12423912       0.26508275       0.66009735      -0.02595028      -0.08436299
N        1.49804309       0.83359852       2.03739007      -0.64194215       0.57680744       0.63757022      -0.31029779       0.83815285      -1.42829595      -0.44431778
8
Properties=species:S:1:pos:R:3:momenta:R:3:forces:R:3:charge:R:1 energy=-194.87127819841592 free_energy=-194.87127819841592 dipole="0.08159417558161083 0.15442704983174022 0.3779283433713161" pbc="F F F"
B       -1.37805676      -0.51538418      -2.15062518      -0.28245906       0.35930812       0.24398024       0.85073092       0.45138425      -0.90416227       0.23952605
H        1.62461016       0.20722349       2.85027674       0.24171724      -0.01207057       0.19506193       0.29017992      -0.81250453       0.50096094       0.14487683
H        0.61302765       1.33371973       2.43580928       0.14190366      -0.16778457       0.12350633      -0.58238405       0.38696306      -0.08763806       0.14514186
H        2.15845947       1.46326388       2.04611056       0.07729649       0.03622223       0.25978091       0.76307937       0.66378649      -0.25884962       0.14756933
H       -0.70928709       0.44494064      -2.28869968       0.00778506       0.10245073       0.11524061       0.23013147      -0.39811032      -0.29552191      -0.08703722
H       -2.15845947      -0.30512238      -1.36665440       0.05842682      -0.15053205       0.00285830      -1.00096033      -0.41235533       0.77432244      -0.07525747
H       -1.28287560      -1.46326388      -2.85027674      -0.08445241      -0.09118832      -0.02914016      -0.07943003       0.36141753       0.42672314      -0.07723139
N        1.40424812       0.82039102       2.09719124      -0.16021779      -0.07640557      -0.91128815      -0.47134726      -0.24058115      -0.15583465      -0.43758799
8
Properties=species:S:1:pos:R:3:momenta:R:3:forces:R:3:charge:R:1 energy=-194.86875722408575 free_energy=-194.86875722408575 dipole="0.24114165039569338 0.15732063997139265 0.23953957971393622" pbc="F F F"
B       -1.24270283      -0.49981688      -2.05898486       0.15428953       0.11576500       0.28117207      -0.48720676       0.13807653       0.03923018       0.24469342
H        2.13840045       0.11587870       2.69710715      -0.05118362       0.03594645      -0.31596533      -0.31463270       0.44210095       0.01708363       0.14318455
H        1.02780596       1.37695984       2.82005107       0.22374463      -0.07792225       0.00718907      -0.14530393      -0.16044364       0.49020710       0.14493851
H        2.14995940       1.41224913       1.72674582      -0.33448671      -0.01400898      -0.12260534       1.73949707       1.48738601      -1.41360930       0.15021888
H       -0.57656446       0.47983430      -2.15868308      -0.19291095      -0.05994290       0.05139787      -0.24057819      -0.55011873       0.05018779      -0.07983933
H       -2.14995940      -0.49040285      -1.25799712       0.03256315      -0.05008031      -0.27469529       0.77421417      -0.12175919      -0.63404595      -0.08349578
H       -1.10636229      -1.41224913      -2.82005107      -0.27526638      -0.01519808       0.03358748      -0.04659390       0.53580068       0.54576866      -0.08135835
N        1.57601287       0.80707802       2.20089992       0.44325036       0.06544106       0.33991946      -1.27939576      -1.77104261       0.90517790      -0.43834190
8
Properties=species:S:1:pos:R:3:momenta:R:3:forces:R:3:charge:R:1 energy=-194.78152365312084 free_energy=-194.78152365312084 dipole="0.26915298364665263 0.18495219800672077 0.1949805433003636" pbc="F F F"
B       -1.44031989      -0.65045695      -2.05106362      -0.01220827       0.21174875      -0.14508025       0.79856397       1.47040447       1.43271030       0.23650510
H        2.05847535       0.03060589       2.75859519      -0.05872477      -0.12809452       0.24919361      -0.02780684      -0.40390388      -0.09386031       0.14248558
H        1.12046437       1.29612407       2.95354654      -0.03610337       0.00553080      -0.33686717      -0.30825879      -0.14768915      -0.25246912       0.14144716
H        2.07409403       1.20671992       1.65317282      -0.14877828      -0.12039114      -0.31468581      -0.69739059      -0.58549512       0.23145494       0.13827573
H       -0.58787493       0.15273703      -2.04069498       0.23018813      -0.16591628      -0.18047880       0.04499597       0.22978280       0.02622990      -0.09487023
H       -2.07409403      -0.62281287      -1.06695967       0.05047683      -0.18709639       0.01419216      -0.27471370      -0.46574473      -0.46453321      -0.07319451
H       -1.36478052      -1.29612407      -2.95354654      -0.27024345      -0.10137755      -0.20665067      -0.56864798      -1.23281267      -0.99618805      -0.06844031
N        1.42882313       0.63202460       2.23747975       0.24539319       0.48559633       0.92037693       1.03325796       1.13545828       0.11665554      -0.42220852
8
Properties=species:S:1:pos:R:3:momenta:R:3:forces:R:3:charge:R:1 energy=-194.8037957618075 free_energy=-194.8037957618075 dipole="0.3675883702116203 0.16618211864019658 0.11478221079331499" pbc="F F F"
B       -1.39302953      -0.86838279      -1.90439245       0.10199733      -0.11598043      -0.02311850      -0.98367247      -0.32677390      -0.49942355       0.24066465
H        2.05690903      -0.07733421       2.86710112       0.15219318      -0.00958887       0.02767418      -0.57034506      -0.07667871       0.92997027       0.14396545
H        1.07880146       1.28085006       2.95992809      -0.06806936       0.03671483       0.04678297      -0.28565240       0.96239801       1.17906955       0.15343067
H        1.93524316       0.84412578       1.70750205      -0.10386411      -0.00811126      -0.03630275       0.35698933       0.95542845      -1.70729333       0.14516724
H       -0.53433995      -0.12431523      -1.76737202      -0.10112814      -0.28878606      -0.04550500       0.47721810       0.19637613      -0.14355117      -0.07346242
H       -2.05690903      -1.11514916      -0.98146352       0.28252826      -0.09427067       0.00281623       0.03189965      -0.12111531       0.11324801      -0.08138517
H       -1.77589518      -1.28085006      -2.95992809       0.29890743       0.08329630       0.12917424       0.47394512       0.25241931       0.52950300      -0.08581677
N        1.35419960       0.50897604       2.42520124      -0.56256461       0.39672616      -0.10152137       0.49961773      -1.84205398      -0.40152276      -0.44256365
8
Properties=species:S:1:pos:R:3:momenta:R:3:forces:R:3:charge:R:1 energy=-194.65043423288904 free_energy=-194.65043423288904 dipole="0.3291806047393968 0.2685484581273322 0.046929847772843904" pbc="F F F"
B       -1.33636324      -0.74043449      -1.91525142       0.75006245       0.08299584       0.76816215       0.64961195       0.98419062       0.34837790       0.24200023
H        2.05767038       0.16622255       2.73323923       0.12492273      -0.20098614      -0.19942834      -0.79718060       0.44233696       0.19852294       0.14332349
H        1.05456783       1.51441206       2.77865186      -0.26215382      -0.06513233      -0.17054292      -0.73299469       0.76369492       2.22473704       0.15590978
H        1.67212857       1.18233114       1.55258515      -0.00226312      -0.05652021       0.01636913      -0.07105491      -1.12514897      -0.79053899       0.13927721
H       -0.54985565       0.18776713      -1.86021892      -0.08375816       0.21555498      -0.11572483      -0.58442908      -0.92086486      -0.33672570      -0.08786009
H       -2.05767038      -0.80206407      -1.00947986      -0.14023526       0.04192525      -0.16528026      -0.18480711      -0.14719488       0.05601861      -0.07859345
H       -1.39420674      -1.51441206      -2.77865186      -0.08981294      -0.31953379       0.04170356       0.12021507       0.08616672      -0.06786760      -0.07554587
N        1.24228517       0.65961796       2.33285167      -0.29676187       0.30169641      -0.17525849       1.60063938      -0.08318050      -1.63252420      -0.43851130
8
Properties=species:S:1:pos:R:3:momenta:R:3:forces:R:3:charge:R:1 energy=-194.60305140408855 free_energy=-194.60305140408855 dipole="0.12594879501756343 0.13206716838358973 0.06676587438761807" pbc="F F F"
B       -1.10796523      -0.56919385      -2.00928453      -0.15601193      -0.23507314       0.00400996      -0.74138180      -0.76747954       0.09908402       0.24013030
H        1.97685551       0.29711966       2.57005147       0.06685485       0.46014061      -0.27710012       0.05307300       0.59473054      -0.89084669       0.15046175
H        0.82482319       1.44472901       2.72372811       0.11314892       0.09734147      -0.16192330      -1.53716965       1.88015194       2.35388862       0.14364883
H        1.31566534       1.30223037       1.24195049       0.06473800       0.06731115      -0.17165717       0.95349567       0.18255981      -1.44747650       0.15542592
H       -0.59474457       0.42671863      -2.11908638       0.06581257      -0.12321986      -0.04739760       0.55843788       0.94015335      -0.05535616      -0.07596802
H       -1.97685551      -0.70782223      -1.24651769      -0.05023379      -0.12691837       0.23940938       0.03049040       0.02370902       0.09776981      -0.08196403
H       -0.86566074      -1.44472901      -2.72372811      -0.02115438      -0.20261608       0.10376972       0.15528690      -0.19330429      -0.13685799      -0.08219531
N        1.29853035       0.89539979       2.12045364      -0.08315424       0.06303423       0.31088914       0.52776760      -2.66052084      -0.02020512      -0.44953943
8
Properties=species:S:1:pos:R:3:momenta:R:3:forces:R:3:charge:R:1 energy=-194.8139334043152 free_energy=-194.8139334043152 dipole="0.1674525745890635 0.3071662143365572 -0.07854050762635705" pbc="F F F"
B       -1.28018229      -0.63651071      -1.97750505      -0.36960949       0.12407128      -0.43738617       0.07861557      -1.78527802      -0.12307028       0.24211652
H        2.08615432       0.61235744       2.49092208      -0.01172399      -0.43865926      -0.10140906       2.90885475      -0.54458013       0.97579988       0.15584372
H        0.83801256       1.59985166       2.60304917      -0.23681080       0.01692385       0.02906523      -0.37231437       0.81408344       0.82531006       0.14583970
H        1.21567379       1.02249633       1.20327531      -0.21207631      -0.32965971      -0.19228993       0.25211646      -0.03162314      -1.23284668       0.14527035
H       -0.77219906       0.35839852      -2.10336764       0.00333568       0.01451563       0.18982085       0.48193081       1.03570822      -0.26400941      -0.07621013
H       -2.08615432      -0.75591749      -1.14447027       0.06243638      -0.22778704       0.14969235      -0.07105755      -0.10282659      -0.13255130      -0.07773828
H       -0.87566037      -1.59985166      -2.60304917       0.09963870      -0.19822072       0.30050176      -0.48578327       0.85525904       0.52345766      -0.08816487
N        1.21401452       0.79869589       2.16413458       0.66480984       1.03881597       0.06200496      -2.79236239      -0.24074282      -0.57208993      -0.44695702
8
Properties=species:S:1:pos:R:3:momenta:R:3:forces:R:3:charge:R:1 energy=-194.70115615377162 free_energy=-194.70115615377162 dipole="0.2996763758510959 0.26738260586308843 -0.17736746080320065" pbc="F F F"
B       -1.30952139      -0.73651317      -2.02907077       0.08479982      -0.09067469       0.01580354      -0.44014985       0.63239242       0.39069061       0.24178874
H        2.24497562       0.63950589       2.45836187       0.18797269      -0.05395183      -0.14632171       0.62150976      -0.93722747       0.24487846       0.14667665
H        1.21315730       1.70989757       2.31719582      -0.08602712       0.13813345       0.03705789      -0.97144737       1.06323260       0.71004213       0.14637513
H        1.33356368       0.75472411       1.19099090       0.22003488      -0.17857161      -0.41267563      -0.02444997      -0.73509975      -3.23377933       0.15374329
H       -0.84929302       0.29340920      -2.30597209      -0.20153676      -0.09946517      -0.17252978       0.30149900       0.08174461      -0.22051731      -0.08813212
H       -2.24497562      -0.59737369      -1.30715705      -0.08540368      -0.01518994       0.02692380       0.37488210      -0.62850513      -0.33481312      -0.08062897
H       -0.84143279      -1.70989757      -2.45836187      -0.24964957      -0.13646769       0.11168038      -0.23266977      -0.08368098       0.16969911      -0.07302754
N        1.29318570       0.72818687       2.14685594       0.12980974       0.43618748       0.54006151       0.37082609       0.60714369       2.27379945      -0.44679519
8
Properties=species:S:1:pos:R:3:momenta:R:3:forces:R:3:charge:R:1 energy=-194.90146122815105 free_energy=-194.90146122815105 dipole="0.27359449889267057 0.21162323539036143 -0.04061697248521355" pbc="F F F"
B       -1.38503350      -0.63285380      -2.01034282      -0.47440790       0.58186201      -0.04822690      -0.51246371       0.39968030       0.55823145       0.23975457
H        2.17533376       0.41650376       2.47957302      -0.00171289      -0.03981856       0.00040596       0.55999225      -0.22025998       0.33366753       0.14222204
H        1.10210592       1.63758692       2.48963150       0.02550189      -0.02620771      -0.01969914       0.11228428      -0.03929167      -0.57694950       0.14656997
H        1.50830348       0.78244367       1.04138290       0.34190218       0.08297728      -0.12460531      -0.28283126       0.47534678       0.87553333       0.14090318
H       -0.77945913       0.22832754      -2.47775761      -0.30509578      -0.21575220       0.10764846       0.01796907       0.52588875       0.16491724      -0.08014113
H       -2.17533376      -0.56220683      -1.13526745       0.15094838       0.10028907       0.07668583       0.37453538       0.25911106      -0.29577208      -0.07846681
H       -1.21806022      -1.63758692      -2.48963150      -0.00480938       0.10761820       0.35687738       0.12330429      -1.18278569      -0.42380586      -0.08114626
N        1.33606419       0.74975128       2.05738040       0.26767349      -0.59096808      -0.34908628      -0.39279030      -0.21768955      -0.63582212      -0.42969556
8
Properties=species:S:1:pos:R:3:momenta:R:3:forces:R:3:charge:R:1 energy=-194.9350773169743 free_energy=-194.9350773169743 dipole="0.269676481367254 0.260783215561289 -0.01825625461416569" pbc="F F F"
B       -1.53422379      -0.45595585      -1.90063418      -0.59341616       0.40477842       0.83945289      -0.45452885      -0.54447012       0.66016210       0.24261726
H        2.17350412       0.52696926       2.50768101       0.22458931      -0.07537873      -0.13083585       0.74525025      -0.48796926       0.49791288       0.14243304
H        1.02131801       1.61741629       2.50927821      -0.20754721      -0.11014369       0.06973059      -0.03187748      -0.05162158      -0.70800442       0.14547435
H        1.62234843       0.91831548       1.06981888       0.21973124      -0.27961854      -0.23764802      -0.27348711       0.49901523      -0.14569577       0.14594637
H       -0.95049526       0.33582301      -2.50927821       0.33235329      -0.15834373      -0.17709647       0.07491365       0.02473865      -0.13817183      -0.07709616
H       -2.17350412      -0.12777652      -0.95087091       0.06260224      -0.05044091      -0.14819024       0.30930904      -0.07457969      -0.49058644      -0.08268423
H       -1.51343286      -1.61741629      -2.15437320       0.18787718       0.11459386      -0.05366941       0.07284219       0.59576114      -0.02884486      -0.08283689
N        1.34046139       0.77777394       2.02628191      -0.22618989       0.15455331      -0.16174349      -0.44242168       0.03912563       0.35322834      -0.43385375
8
Properties=species:S:1:pos:R:3:momenta:R:3:forces:R:3:charge:R:1 energy=-194.7835279425623 free_energy=-194.7835279425623 dipole="0.27400460336306126 0.20349049960164806 -0.08138156478288648" pbc="F F F"
B       -1.42224856      -0.59228148      -1.99439423       0.42858376       0.12658931       0.34285155      -1.66206171      -0.63752227       1.12331611       0.24105778
H        2.25049071       0.49112643       2.42577213      -0.24998430      -0.00211999      -0.08820581       2.68012757      -0.96151472       1.64286262       0.15550091
H        1.28757983       1.67397917       2.02866949       0.20984714       0.12920752      -0.11946826      -0.01392042      -0.52087065      -0.25899805       0.13700930
H        1.71056134       0.58753960       0.88966817      -0.06282706       0.02838763      -0.09916983       0.55676539      -0.21494013      -1.28303021       0.15003494
H       -0.68566094       0.17743595      -2.29938842      -0.25435358       0.11723210       0.25312582       1.23915030       1.09908331      -0.59022674      -0.07498940
H       -2.25049071      -0.23111712      -1.19149512      -0.04657000      -0.08802539      -0.18023457       0.50825530      -0.49967088      -0.60529973      -0.08758487
H       -1.39506799      -1.67397917      -2.42577213      -0.55007676      -0.27660075      -0.29704929      -0.08160678       0.04020413       0.07596375      -0.07848153
N        1.52871694       0.69193358       1.84518693       0.52538081      -0.03467043       0.18815039      -3.22670965       1.69523121      -0.10458774      -0.44254713
8
Properties=species:S:1:pos:R:3:momenta:R:3:forces:R:3:charge:R:1 energy=-194.6872527683989 free_energy=-194.6872527683989 dipole="0.26529829141906713 0.12589087689403913 -0.2279740618562397" pbc="F F F"
B       -1.55729177      -0.67611907      -1.80364592      -0.58195523      -0.52703626      -0.91597227       2.39283983      -0.92252690      -0.88686586       0.24477607
H        2.33414009       0.15102094       2.39804540       0.11285344      -0.14230791       0.16096156      -1.65899365       1.27813167      -0.07470550       0.12794794
H        1.79156733       1.73273957       2.25052561       0.35517241      -0.06491539       0.13288537      -0.12532368      -0.34865704      -0.26784911       0.14571223
H        1.52648763       0.54940795       1.08452941       0.07999294       0.31083027      -0.16075168      -0.41351768       0.61563656       0.32784457       0.14121446
H       -0.57721017       0.03574350      -1.91572433       0.00272860       0.03536610       0.25910655      -1.06097970      -0.17951934       0.12727850      -0.09211848
H       -2.33414009      -0.52037639      -0.98760469       0.05926719       0.04351930       0.18549818      -0.56146554       0.10251762       0.18260884      -0.06275610
H       -1.33767559      -1.73273957      -2.39804540       0.17429673       0.10558411       0.21126133      -0.76360924       1.00162373       0.57918327      -0.08989018
N        1.49537853       0.76733476       2.08942337      -0.20235608       0.23895978       0.12701095       2.19104967      -1.54720630       0.01250529      -0.41488594
8
Properties=species:S:1:pos:R:3:momenta:R:3:forces:R:3:charge:R:1 energy=-194.5740532457377 free_energy=-194.5740532457377 dipole="0.3862691306926403 0.10125579442186483 0.03299884061692525" pbc="F F F"
B       -1.40452536      -0.75965893      -1.79447022      -0.02017736       0.35509892       0.23215571      -1.94966783      -0.20240947       0.21675705       0.23565398
H        2.45909843       0.13938735       2.48399551       0.12722755      -0.02229465       0.17435257      -0.47363450       0.69110284       0.08377877       0.13715866
H        1.61689786       1.61016144       2.44892917      -0.15753213      -0.10167722       0.15582969       0.33923802       0.22442709      -0.27837988       0.15187866
H        1.74302905       0.55316039       1.09446139      -0.01775721       0.05165874       0.03416922      -0.17897606       0.69817668       0.52183745       0.13978759
H       -0.87338969       0.13757018      -2.17001391      -0.16092376      -0.06070731      -0.01569019       0.83136920       1.76683402       0.23367382      -0.07139247
H       -2.45909843      -0.82908608      -1.27929513       0.10193543       0.13158191      -0.26938750       0.46413838       0.45297956       0.47386365      -0.08026917
H       -1.25254129      -1.61016144      -2.48399551       0.13521983      -0.09865734      -0.28215171       0.65594810      -2.01562215      -0.91794123      -0.08399180
N        1.66307453       0.67026773       2.10818171      -0.00799235      -0.25500304      -0.02927779       0.31158468      -1.61548857      -0.33358963      -0.42882546
8
Properties=species:S:1:pos:R:3:momenta:R:3:forces:R:3:charge:R:1 energy=-194.7856643455114 free_energy=-194.7856643455114 dipole="0.1681320540227068 0.28080157100244035 -0.10208995983639736" pbc="F F F"
B       -1.57559458      -0.63244282      -2.00374388      -0.68462466      -0.68344432      -0.05845614       0.06506846       1.46848125       1.93423039       0.24493633
H        2.47099603       0.60292969       2.46376595       0.12076276       0.17175436       0.12583938      -0.83111997       0.20875594      -0.37000964       0.13535016
H        1.14254949       1.59306165       2.49204896      -0.17118968      -0.14616138      -0.06274334       0.25664847      -0.12915087      -0.59005347       0.14516146
H        1.79726655       1.00531874       1.01287374       0.32056818       0.12113087       0.01756281      -0.36256471       0.27204888       0.74163590       0.14248627
H       -0.80726803       0.32762617      -2.02274792      -0.07618593       0.22366160       0.07140462      -1.00177990      -0.85905731      -0.13361583      -0.08856906
H       -2.47099603      -0.65523506      -1.14910242       0.01843460      -0.13615080      -0.05117648       0.88404014       0.13509106      -1.18369425      -0.08585828
H       -1.23618986      -1.59306165      -2.49204896       0.09592667       0.17305130       0.16261117       0.05453155      -0.74207403      -0.61692373      -0.07050706
N        1.56812330       0.80998423       1.99528495       0.37630806       0.27615836      -0.20504202       0.93517598      -0.35409492       0.21843064      -0.42299983
8
Properties=species:S:1:pos:R:3:momenta:R:3:forces:R:3:charge:R:1 energy=-194.72831656573507 free_energy=-194.72831656573507 dipole="0.16103102094921343 0.4063477768559487 0.16688111970054384" pbc="F F F"
B       -1.41437880      -0.67710445      -1.85358101      -0.18273853      -0.49250173       0.85558922       0.32679618      -2.80635434      -2.12480066       0.23950528
H        2.42290909       0.83960130       2.67192625       0.16823018       0.16744676      -0.03426273      -0.66459551      -0.24590936      -0.66463516       0.13923495
H        0.99884229       1.49663313       2.22109934      -0.04775788      -0.10440478      -0.01130376      -0.08648936      -0.55773270       0.14709854       0.14071823
H        2.13196018       1.35396266       1.17082321       0.04137482       0.06405465       0.01622526       0.55278394       0.00624565      -0.86999214       0.14598334
H       -0.96106245       0.29250740      -1.65656599       0.07023123      -0.09461080       0.27958686       1.15038208       2.02568254       0.45001372      -0.06432589
H       -2.42290909      -0.97250062      -1.48158679      -0.15800986      -0.16688966      -0.33148525      -1.38218973      -0.23566550       0.79554214      -0.07734362
H       -0.97889033      -1.49663313      -2.67192625       0.28792748      -0.17620592      -0.00974633      -0.09176976       1.01822187       0.88237537      -0.09783529
N        1.71190459       0.82634488       1.90834340      -0.17925743       0.80311148      -0.76460329       0.19508215       0.79551185       1.38439819      -0.42593701
8
Properties=species:S:1:pos:R:3:momenta:R:3:forces:R:3:charge:R:1 energy=-194.82377702127462 free_energy=-194.82377702127462 dipole="0.048208238563748486 0.3182371010840458 -0.006367350263442389" pbc="F F F"
B       -1.40404955      -0.69162654      -1.97370478      -0.53285104       0.02368150      -0.75987408      -1.43159191       0.25377145       1.43111812       0.24173034
H        2.43345980       0.96982054       2.59356127       0.04877581       0.32127268       0.09929644      -1.30564415      -0.02667484      -1.53105951       0.13148440
H        0.82841974       1.22709484       2.21242179       0.24891469      -0.46615802       0.05069732      -0.40008050       0.45547239      -0.05300557       0.14610374
H        1.95466419       1.20781507       0.98357887      -0.04257860      -0.15785467      -0.05569814       0.32059165       0.80155493      -1.00795702       0.15221874
H       -1.19284567       0.33755017      -1.45708068      -0.10981047      -0.15425033      -0.12002504       0.09731789      -0.01707772      -0.25430078      -0.08294394
H       -2.43345980      -1.21471633      -1.63234608       0.14706905       0.01337700      -0.07666270       0.66413227       0.23545597      -0.45405792      -0.08897552
H       -0.63545993      -1.22709484      -2.59356127       0.06564432       0.08009980       0.05391816       0.67260477      -0.46922722      -0.71998627      -0.06980873
N        1.67698417       0.85293778       1.85116312       0.17483624       0.33983205       0.80834804       1.38266999      -1.23327497       2.58924894      -0.42980905
8
Properties=species:S:1:pos:R:3:momenta:R:3:forces:R:3:charge:R:1 energy=-194.75046757754504 free_energy=-194.75046757754504 dipole="-0.17322279756506073 0.2306190217814902 -0.03516443476200785" pbc="F F F"
B       -1.35643127      -0.90403409      -1.88832707      -0.53111417      -0.25032956      -0.07992826       0.50646597       2.05281428       0.36752546       0.24423956
H        2.42641687       1.42520573       2.55492155      -0.29650523       0.22884899      -0.08099154      -1.33345436      -1.35055211      -0.98530236       0.13889098
H        0.96481849       0.52966932       2.24911442      -0.17768202      -0.17140979       0.16989966      -0.39109537       0.23136731       0.86173580       0.14515042
H        1.90217436       0.83562846       1.06905368      -0.04576749      -0.12475675      -0.04443041       0.50317028       0.53557735      -1.57160689       0.14654342
H       -1.08137742       0.21999228      -1.41243931       0.12661515      -0.15448316      -0.11301627      -0.33768444      -1.50559391      -0.45040637      -0.09523499
H       -2.42641687      -1.28883029      -1.87028854      -0.30763049      -0.00831879       0.05415197      -0.66758491      -0.24413307       0.24652181      -0.07386218
H       -0.58807788      -1.42520573      -2.55492155       0.06239231      -0.04148315      -0.00429742       0.50370923      -0.30010333      -0.15762408      -0.07513789
N        1.93369105       0.63870701       2.02792500       1.16969194       0.52193222       0.09861228       1.21647359       0.58062349       1.68915664      -0.43058932
8
Properties=species:S:1:pos:R:3:momenta:R:3:forces:R:3:charge:R:1 energy=-194.8758087835778 free_energy=-194.8758087835778 dipole="-0.24615333995666477 0.3155836629102524 -0.12995727891262682" pbc="F F F"
B       -1.34637037      -0.95250430      -1.79158688       0.40172754      -0.52744788      -0.48204606      -0.11479985       0.54721634       1.34974605       0.24510834
H        2.27714176       1.45350632       2.64178826      -0.02560522      -0.08695843      -0.09314784       0.32966584       0.01280353      -0.41719765       0.14432886
H        0.97790941       0.56621701       2.40884196      -0.04859552      -0.08645413      -0.04087234       0.52648561      -0.28989919      -0.21175921       0.13651639
H        1.93144524       0.82483600       1.12223257      -0.03156893      -0.03512217      -0.02971147       0.25163696       0.21257555       0.15755527       0.14528760
H       -0.99576319       0.05838752      -1.23936814       0.05808801       0.07604455      -0.11020857      -0.11842682      -0.49291288      -0.56813166      -0.09332112
H       -2.27714176      -1.45350632      -1.21379107       0.06223226       0.13295364       0.33434662       0.62310183       0.03513129      -0.83864246      -0.08132923
H       -0.67432332      -1.38625043      -2.64178826      -0.03761303       0.14754472       0.04815745      -0.38581809      -0.08528718       0.06222746      -0.07045185
N        1.96674028       0.63846118       2.11952509      -0.37866510       0.37943970       0.37348221      -1.11184548       0.06037254       0.46620220      -0.42613898
8
Properties=species:S:1:pos:R:3:momenta:R:3:forces:R:3:charge:R:1 energy=-194.77598783751532 free_energy=-194.77598783751532 dipole="-0.25006145884044634 0.3912560513192602 -0.06512705945615885" pbc="F F F"
B       -1.50825422      -0.73755781      -1.66334368       0.78122487      -0.08984884       0.15413253       0.27825902      -2.09123561      -0.82611899       0.24504347
H        2.09831299       1.62977285       2.76340855      -0.24848580       0.19005844      -0.00848490       0.69083731       0.85599552       0.12302316       0.14889690
H        0.68805545       0.89332652       2.56518526      -0.25762454       0.29162289      -0.08106979       1.29158125      -0.19258574      -0.62829901       0.13267698
H        1.66101827       1.11919224       1.19763225      -0.31181474       0.15182648       0.10754400       0.16134705      -0.11016534       1.81363141       0.13710816
H       -1.11456813       0.17374113      -1.11331052      -0.43181148      -0.02981169       0.16813846       0.02028894       0.69307694       0.30740434      -0.07168898
H       -2.09831299      -1.62977285      -1.09232383      -0.27725326      -0.50374684      -0.08632579       0.27757989       0.92389814      -0.42964290      -0.08462429
H       -1.05930043      -1.03318052      -2.76340855      -0.24967010       0.02648334      -0.17591578      -0.57365220       0.47777717       0.95217771      -0.08872057
N        1.69267575       0.89633277       2.23579921       0.99543505      -0.03658379      -0.07801873      -2.14624126      -0.55676108      -1.31217571      -0.41869167
8
Properties=species:S:1:pos:R:3:momenta:R:3:forces:R:3:charge:R:1 energy=-194.69492952574066 free_energy=-194.69492952574066 dipole="-0.13362284952687845 0.29181907693496256 -0.012540282699523703" pbc="F F F"
B       -1.72206780      -0.80964264      -1.57649119      -0.81268823      -0.41002711       0.29090604      -0.13836411       1.36165718      -1.11690239       0.24029082
H        2.04411504       1.70226979       2.74176203      -0.05640408       0.24232893      -0.17470522      -1.24580505      -1.32498580       0.11230216       0.14131770
H        0.57354678       0.65095438       2.62631450      -0.14835406      -0.03420824      -0.47479688       1.79802250       0.89968709      -0.09302541       0.14244656
H        1.42620916       1.27237465       1.31798685      -0.24373020       0.06571559      -0.04251562       0.04864944      -0.89111906       1.17776589       0.12755955
H       -1.81732064       0.19670123      -1.01504406       0.05928073       0.11493770      -0.19843731       0.25543958       0.37212953       0.01991992      -0.08553269
H       -2.04411504      -1.70226979      -1.01215874       0.16436072      -0.12033090       0.01605815      -0.29876443      -1.71877894       0.85206663      -0.07294450
H       -1.58655654      -0.83069557      -2.74176203       0.05380841       0.25557313      -0.17824140       0.18637080      -0.01276669       0.25055708      -0.08181158
N        1.55697021       0.87915690       2.29463573       0.98372671      -0.11398910       0.76173223      -0.60554873       1.31417669      -1.20268388      -0.41132586
8
Properties=species:S:1:pos:R:3:momenta:R:3:forces:R:3:charge:R:1 energy=-194.65807142351682 free_energy=-194.65807142351682 dipole="-0.10792287762008097 0.25937695298119967 -0.12769838299812392" pbc="F F F"
B       -1.74696810      -0.71145074      -1.47597169       0.79585167       0.38550591       1.34927995      -0.45006753      -1.47344087       0.14832881       0.24104011
H        2.02067195       1.68382451       2.53222875       0.10781779      -0.23071792      -0.29640165       0.38767598       0.84868422       0.13988053       0.14180692
H        0.66556669       0.81434024       2.62092070      -0.01786627      -0.28020718      -0.06489800      -0.97744563      -0.05959968      -0.46096922       0.15293661
H        1.74513373       0.71729562       1.15973624      -0.09933635      -0.28182976      -0.01705262      -1.13079292       0.42465311       3.12433738       0.12851279
H       -1.77468985       0.23432425      -0.87011645      -0.19355814       0.19858384       0.18605559       0.14145265       1.19714858       0.36524677      -0.07616305
H       -2.02067195      -1.68382451      -0.84878207      -0.08233339       0.10819680       0.20934975       0.20783644       0.20468244      -0.43083361      -0.08875766
H       -1.58760270      -0.77221169      -2.62092070      -0.21780454       0.13980962      -0.07103684       0.10541498       0.07382672      -0.07800782      -0.07611721
N        1.58345701       0.84031401       2.25652908      -0.29277077      -0.03934130      -1.29529617       1.71592603      -1.21595453      -2.80798283      -0.42325851
8
Properties=species:S:1:pos:R:3:momenta:R:3:forces:R:3:charge:R:1 energy=-194.7624974620351 free_energy=-194.7624974620351 dipole="-0.1503374584021951 0.2915276911189512 -0.2377889315081179" pbc="F F F"
B       -1.77366327      -0.76676910      -1.24088159      -0.37431538      -0.63314104      -0.24149647      -0.27634354      -1.00461639      -0.25390370       0.24206806
H        1.92203530       1.76692231       2.34920085      -0.05961002      -0.25891064       0.09092332       0.61656085      -0.50040911      -0.22041040       0.13921925
H        0.61761634       1.02445323       2.39305069      -0.03606194       0.14473380      -0.05112735      -2.80173430      -0.23921473       0.12205196       0.15347412
H        1.70495624       0.51359598       1.21338016      -0.04538002      -0.06091470       0.09816996      -0.49609474       0.76669513       2.31490442       0.13192763
H       -1.54925631       0.21743142      -0.72111979       0.08684291      -0.23783293       0.08192577       0.17554616       0.65102496       0.35311571      -0.07730137
H       -1.89588776      -1.76692231      -0.63559553       0.19253270      -0.00465479       0.05177943       0.07105931       0.25391203      -0.01757517      -0.08267969
H       -1.92203530      -0.82445799      -2.39305069       0.08356456      -0.40147740       0.28175318       0.03577082       0.10402021      -0.07653839      -0.08207514
N        1.54680146       0.81547355       2.24970126       0.15242718       1.45219770      -0.31192784       2.67523545      -0.03141208      -2.22164444      -0.42463285
8
Properties=species:S:1:pos:R:3:momenta:R:3:forces:R:3:charge:R:1 energy=-194.79739514654054 free_energy=-194.79739514654054 dipole="-0.16041207513740466 0.3330649033907335 -0.17934897025906682" pbc="F F F"
B       -1.70032131      -0.75705044      -1.22049068       0.45550363      -0.29283423       0.11874951      -0.05994433       0.74186171      -0.56911493       0.24422370
H        2.03223489       1.82284813       2.34959399       0.08975083       0.05505127       0.15716700       0.29815741       0.32940443       0.50439181       0.14650249
H        0.55198968       1.18402177       2.24394137       0.08941210       0.04952724      -0.31346300      -0.47701866      -0.01376598       0.96512930       0.14633922
H        1.50704218       1.02093026       1.09953959      -0.01444397       0.20761427       0.15964754       0.68085513      -0.53320520      -0.24547588       0.14056648
H       -1.45501146       0.32721309      -0.77760167      -0.07255509       0.18433293       0.14560680       0.00630642      -0.88729917       0.34314977      -0.08654615
H       -1.63995475      -1.82284813      -0.71788524       0.10460912       0.02818738      -0.25780960       0.03732748       0.61585047      -0.02510450      -0.06945866
H       -2.03223489      -0.62406572      -2.34959399      -0.10463163      -0.08615247       0.08045863       0.02152732      -0.46317906       0.25594568      -0.08818900
N        1.53180563       0.98255950       2.11916142      -0.54764499      -0.14572639      -0.09035687      -0.50721077       0.21033280      -1.22892126      -0.43343809
8
Properties=species:S:1:pos:R:3:momenta:R:3:forces:R:3:charge:R:1 energy=-194.85564784372696 free_energy=-194.85564784372696 dipole="-0.08029152722758931 0.30025681913877167 -0.220100157262578" pbc="F F F"
B       -1.72415540      -0.78159596      -1.25607800       0.11312200       0.56328186       0.10656833       0.10755031      -0.98219005       0.02686916       0.24378273
H        2.08131041       1.83245257       2.37030387       0.22278224      -0.05891285      -0.01234541      -0.44267602      -1.53697034      -0.59770587       0.13206722
H        0.61248478       1.30432126       2.19966351       0.00291936       0.09346327       0.12982775      -2.29925870       0.35230405      -0.03478275       0.15059402
H        1.71115544       0.69698834       1.18127041       0.21385728      -0.09338186       0.05293335       0.14840141      -0.02949728      -0.70285863       0.14865322
H       -1.61513055       0.24146012      -0.72655460       0.06761231      -0.10248714      -0.08586853       0.04804707       0.05663804       0.17972472      -0.07833054
H       -1.46941411      -1.83245257      -0.71501666       0.15300895      -0.00798992       0.08558293      -0.17859254       0.92203018      -0.31942946      -0.08334831
H       -2.08131041      -0.81163044      -2.37030387       0.04297426      -0.04137656      -0.22730458       0.02829330       0.00865102       0.11672874      -0.08209327
N        1.51585886       0.96711533       2.11767392      -0.81627640      -0.35259681      -0.04939385       2.58823518       1.20903438       1.33145410      -0.43132508
8
Properties=species:S:1:pos:R:3:momenta:R:3:forces:R:3:charge:R:1 energy=-194.78100724051737 free_energy=-194.78100724051737 dipole="-0.23145797616983815 0.19790761442214397 -0.21699829170346652" pbc="F F F"
B       -1.53505749      -0.94754585      -1.27711275      -0.05300715      -0.03172524       0.38172914      -0.73915216       0.45338690      -2.38687243       0.24253947
H        1.84780395       1.81956418       1.89038159      -0.26992649      -0.07297294      -0.34507314      -0.00594574      -1.10691428       0.58627566       0.13196700
H        0.67454311       0.92650304       2.47763468      -0.13178423      -0.24624292       0.08243119      -1.63529155      -0.25582195       0.53021581       0.15275180
H        1.53018919       0.45128560       1.15207280      -0.21562490      -0.08150806       0.11883760      -0.30318340      -0.38522582       0.37563430       0.14279662
H       -1.54104320       0.09543698      -0.84126989       0.09729400       0.04885429      -0.62287256       0.05121095       0.96063133       0.46938586      -0.08179992
H       -1.29398585      -1.81956418      -0.61970781       0.07176109      -0.16623648      -0.19271584       0.26730619      -1.15076296       0.51322191      -0.06861461
H       -1.84780395      -0.99968606      -2.47763468       0.21550666       0.05887448      -0.12974144       0.42963389      -0.25735851       1.41178294      -0.09210806
N        1.57155543       0.82255213       2.10199628       0.28578101       0.49095686       0.70740505       1.93542183       1.74206528      -1.49964405      -0.42753230
8
Properties=species:S:1:pos:R:3:momenta:R:3:forces:R:3:charge:R:1 energy=-194.8433618968434 free_energy=-194.8433618968434 dipole="-0.29181467930695776 0.08850003356988252 -0.192203270528488" pbc="F F F"
B       -1.42139983      -0.94110807      -1.48243252       0.32529105      -0.50980674       0.10806868       0.26386256       0.75238413       1.67668637       0.24297449
H        1.58917282       1.80944772       1.81281405      -0.08320311      -0.06780335      -0.36295348       0.43186409       1.78013298      -0.78834280       0.14503810
H        0.80008813       0.76976664       2.59913951       0.05671241      -0.05046855       0.20237894      -0.58512954      -0.90001574       0.05431100       0.14709628
H        1.57519598       0.32313401       1.14598068      -0.03690621       0.15149270      -0.20664464      -0.46356416      -0.10448863       0.04997251       0.14855342
H       -1.29936502       0.12708539      -0.96811099       0.16856174      -0.32967481       0.03510271      -0.06004979      -0.29334883      -0.39095824      -0.09381010
H       -1.34329959      -1.80944772      -0.69449707      -0.25499072       0.03834670      -0.17072205      -0.07497874      -0.14123251      -0.53046905      -0.08027522
H       -1.59517235      -0.99669561      -2.59913951      -0.11055885       0.22078452      -0.39273749      -0.11969330      -0.31243705      -0.74709326      -0.06886837
N        1.59517235       0.85246123       2.00041816      -0.06490631       0.54712952       0.78750734       0.60768888      -0.78099435       0.67589347      -0.44070859
8
Properties=species:S:1:pos:R:3:momenta:R:3:forces:R:3:charge:R:1 energy=-194.8906793325042 free_energy=-194.8906793325042 dipole="-0.28004222852567023 0.05430565990399004 -0.18682200814244274" pbc="F F F"
B       -1.35648002      -0.79402121      -1.49597292       1.09839372       0.97259948       0.12168777       0.08820430       0.09147500       0.46373115       0.24563604
H        1.55163889       1.85734431       1.82568356       0.09035538      -0.08864393      -0.10670041      -0.11859160      -0.89456202      -0.05345934       0.14047618
H        0.77096502       0.68167543       2.65225093      -0.23916021      -0.20010813       0.20773315      -1.83745090      -0.38807243       1.12651589       0.15079454
H        1.55890471       0.22177781       1.28272782      -0.02149894       0.15448605      -0.06263573      -0.13591615       1.10891551       0.94870553       0.13720505
H       -1.11572593       0.13154124      -0.77496319       0.28712409       0.02934038       0.01257134      -0.16005559      -0.43268312      -0.61678966      -0.08581213
H       -1.38456344      -1.85734431      -0.97980534       0.15251311      -0.18066643      -0.11905919      -0.01262273       0.29808774      -0.28514126      -0.08291000
H       -1.55890471      -0.68052277      -2.65225093      -0.09402795       0.13078508       0.06203167       0.09273751       0.04806976       0.44681495      -0.07686785
N        1.54522806       0.86719824       2.10694215      -1.27369920      -0.81779250      -0.11562862       2.08369516       0.16876956      -2.03037726      -0.42852184
8
Properties=species:S:1:pos:R:3:momenta:R:3:forces:R:3:charge:R:1 energy=-194.86965033668878 free_energy=-194.86965033668878 dipole="-0.2636720838725969 0.06867623066585757 -0.21294037359718349" pbc="F F F"
B       -1.45828979      -0.62563333      -1.46062791       0.71049849       0.21785639       0.06716091       0.48479909      -0.57152714      -0.19468781       0.24236584
H        1.58358777       1.77792897       1.56687038       0.20028641      -0.04016127      -0.12237263      -0.22565843       0.17818073       0.18918460       0.13674593
H        0.40372549       1.11225738       2.56152217      -0.25796159      -0.11106198       0.03421783       0.66973026      -0.50433744      -0.97186411       0.14626248
H        1.36906926       0.20034346       1.40503336      -0.04738543       0.05207904       0.18946871      -0.74197784      -0.33581813       0.15346402       0.14720983
H       -1.23679812       0.23144800      -0.72462758      -0.04417870      -0.34427816       0.09814033      -0.06568066       0.03701669       0.48816019      -0.07859753
H       -1.33593894      -1.77792897      -1.23451795       0.26103526       0.30180327      -0.18807986      -0.15693776       0.44811953       0.21117270      -0.08089510
H       -1.58358777      -0.32226409      -2.56152217      -0.04544324      -0.05882383       0.07681788      -0.25397632       0.09187545      -0.49545959      -0.08283105
N        1.29483584       0.94903095       2.06961331      -0.77685120      -0.01741346      -0.15535316       0.28970166       0.65649031       0.62003000      -0.43026039
8
Properties=species:S:1:pos:R:3:momenta:R:3:forces:R:3:charge:R:1 energy=-194.63764562474427 free_energy=-194.63764562474427 dipole="-0.26146017969513535 0.17763468839971341 -0.20154318925036954" pbc="F F F"
B       -1.31448301      -0.70177880      -1.56626388       0.20980182      -0.28365483       0.06855345      -0.42961843       1.61994876       0.63347076       0.24658817
H        1.57441808       1.82422204       1.54664952       0.34480772       0.28828946      -0.11971590       0.13369671      -1.89742198       0.65892326       0.12486979
H        0.59421263       1.09883712       2.63174186       0.00490370      -0.23889186       0.53258547       1.44665392      -1.27793681      -1.67633592       0.13296887
H        1.04873979       0.36828484       1.12883046      -0.07150721       0.08422689       0.03613603      -1.06288561      -1.11104358      -1.08608692       0.15457508
H       -1.25920232       0.11364793      -0.64210303       0.03268271       0.10394854       0.12047045       0.08215389      -0.93731564      -0.94879002      -0.09550220
H       -1.29645610      -1.82422204      -1.36063307       0.07129211      -0.03441205      -0.13931443       0.15565594      -0.51870695       0.11259126      -0.07101226
H       -1.57441808      -0.27653498      -2.63174186       0.04000967       0.13669064      -0.08706250       0.20082620      -0.15720634       0.21236201      -0.07981860
N        1.38355143       0.82301728       1.92414813      -0.63199052      -0.05619680      -0.41165257      -0.52648261       4.27968254       2.09386557      -0.41266886
8
Properties=species:S:1:pos:R:3:momenta:R:3:forces:R:3:charge:R:1 energy=-194.8838915297853 free_energy=-194.8838915297853 dipole="-0.31613094546474707 0.23028684039028974 -0.02190995222698117" pbc="F F F"
B       -1.28776051      -0.62726397      -1.58807017       0.51464408       0.93654086      -0.03651035      -0.13263075      -2.05647380      -1.64255718       0.24526132
H        1.59541419       1.84735497       1.87585254       0.02226611       0.20546058      -0.07169315      -0.11627123      -0.00466980      -0.07500050       0.14537902
H        0.70478445       0.65979443       2.58709054      -0.00002520      -0.12851331      -0.02587521       0.16587580       0.14027030       0.41677086       0.14190305
H        0.85835555       0.63901959       1.03444135      -0.07148287      -0.12166067       0.07013581      -0.18823531       0.01146710      -1.11497102       0.14581717
H       -1.12802717      -0.18068992      -0.57931309      -0.09042823      -0.25730614       0.19894702       0.13664051       0.86028945       1.12764244      -0.07337609
H       -1.14699424      -1.84735497      -1.65805693      -0.22064565       0.07308851      -0.23786351      -0.13509912       1.18395106       0.01001698      -0.09386842
H       -1.59541419      -0.07869074      -2.58709054      -0.14467727      -0.30354493      -0.25327009       0.13192959       0.01528680       0.51098479      -0.07745326
N        1.37179511       0.86142820       1.85337814      -0.00965098      -0.40406491       0.35612949       0.13779050      -0.15012110       0.76711363      -0.43366280
8
Properties=species:S:1:pos:R:3:momenta:R:3:forces:R:3:charge:R:1 energy=-194.88832582791204 free_energy=-194.88832582791204 dipole="-0.20771887745110484 0.14321592514738699 -0.19978873095718974" pbc="F F F"
B       -1.10954713      -0.67889587      -1.48448294       0.30617916       0.07232570       0.22493456      -0.95438086       0.75932474      -0.24830747       0.24500787
H        1.54869894       1.82371794       1.77706193       0.28297969       0.30352087      -0.00708033      -0.46561259      -1.86349744       0.11814897       0.13573923
H        0.49468819       0.64281964       2.41548435      -0.04539996      -0.02494031      -0.03853320       0.72158528       0.36431811      -0.20746144       0.13889594
H        1.20516022       0.35090775       0.99619376       0.01702995      -0.05590184       0.45493571       0.24647399       0.30109541       0.01469094       0.14168285
H       -0.98736403      -0.09200965      -0.47994563       0.33085718      -0.48343509      -0.07674549       0.25010530      -0.14630839      -0.11847045      -0.08383783
H       -1.14733764      -1.82371794      -1.53318900      -0.07437948       0.00015725       0.20476675       0.28926972      -0.45488807       0.07929808      -0.07468162
H       -1.54869894      -0.08663688      -2.41548435       0.16928059       0.09861096      -0.01405737       0.41801212      -0.15336031       0.29262894      -0.08579987
N        1.38341880       0.77756150       1.90352097      -0.98654712       0.08966246      -0.74822062      -0.50545295       1.19331595       0.06947242      -0.41700659
8
Properties=species:S:1:pos:R:3:momenta:R:3:forces:R:3:charge:R:1 energy=-194.83536932953353 free_energy=-194.83536932953353 dipole="-0.29203424714448384 0.21631644358450716 -0.18614478207825016" pbc="F F F"
B       -1.31970618      -0.63003947      -1.41008659       0.59409590       0.32478574       0.69074400      -0.16234130      -0.60862973      -1.00152624       0.24607460
H        1.53160273       1.77565675       1.77187787       0.23567875      -0.04551902       0.05422556      -0.34709932      -0.64676600       0.39996039       0.14204615
H        0.28978693       0.81493406       2.37829959      -0.10521879      -0.16554720      -0.20749196       0.41926993       0.42889720       0.56931596       0.14277557
H        0.93750748       0.47528651       1.05453795      -0.18752384      -0.28391844      -0.08847018       0.17444226      -0.78352236      -1.78762426       0.14676636
H       -1.09056619      -0.19619975      -0.34929783      -0.10527466      -0.15153069       0.06955096      -0.10098611      -0.25886647      -0.18798192      -0.07703737
H       -1.53160273      -1.77565675      -1.71577447      -0.28724511       0.19509560      -0.13517591       0.18407080       0.64745450       0.76772338      -0.08324732
H       -1.34660391       0.04171810      -2.37829959      -0.00414954      -0.18051838      -0.19375108       0.07396731       0.21925218       0.42370755      -0.08500578
N        1.21163398       0.80613509       1.93667498      -0.14036270       0.30715239      -0.18963138      -0.24132357       1.00218069       0.81642515      -0.43237220
8
Properties=species:S:1:pos:R:3:momenta:R:3:forces:R:3:charge:R:1 energy=-194.74042501662504 free_energy=-194.74042501662504 dipole="-0.1258977519070671 0.115446771383972 -0.2881926110403392" pbc="F F F"
B       -1.07912311      -0.76976232      -1.36222492       0.48394800       0.13300663       0.98019215       0.02217137       1.73416715       1.01276050       0.24081730
H        1.74571434       1.63767815       1.60044815       0.14601002      -0.12237441       0.09149804      -0.49044877      -1.67963576       0.62749941       0.13062837
H        0.47884226       0.78304956       2.17674571       0.05443620       0.03650430      -0.00579708      -1.22014307       0.01385599       0.40997440       0.14960735
H        1.36382128       0.19159933       0.94540066       0.19198036      -0.13316156      -0.35400301      -0.12255886      -0.15491721       0.22052026       0.14238230
H       -1.08198509      -0.42829996      -0.24390506       0.10051048       0.02778549      -0.00601685       0.53383296       0.16325548       0.08825342      -0.09257239
H       -1.74571434      -1.63767815      -1.48437566      -0.11994986       0.04463276      -0.22737293      -0.87117072      -1.80570662      -0.79227031      -0.07140764
H       -0.81564301       0.00304259      -2.17674571       0.15160094      -0.22173642      -0.02521094       0.32215032      -0.09106472      -0.30026008      -0.07625941
N        1.40038788       0.65197077       1.85294501      -1.00853615       0.23534323      -0.45328939       1.82616676       1.82004569      -1.26647759      -0.42319588
8
Properties=species:S:1:pos:R:3:momenta:R:3:forces:R:3:charge:R:1 energy=-194.75938590258292 free_energy=-194.75938590258292 dipole="-0.2480937283330692 0.2001924527527922 -0.29721389957968" pbc="F F F"
B       -1.18860179      -0.58087321      -1.25755203       1.18694372      -0.21384688       0.17989488       0.73595473      -1.59010556       0.05260244       0.24434733
H        1.62397534       1.65506872       1.60100938      -0.15594469       0.02915164      -0.05452672      -0.21126179      -0.34890753       0.07892740       0.13817594
H        0.09220915       1.14899541       2.02693693      -0.19420419       0.05944443      -0.27132331       1.67527888      -0.84263929      -0.51464821       0.13539901
H        1.23371926       0.10640039       1.25014723      -0.18361535      -0.33939849       0.13997654      -0.35592717      -0.39308797      -0.50712210       0.14929468
H       -0.76233722      -0.45685621      -0.17657386       0.15588686      -0.06915158       0.32784626      -0.54306487      -0.00326794       0.16640890      -0.08201441
H       -1.62397534      -1.65506872      -1.61163740      -0.12529691       0.30401898      -0.23171268      -0.01428882       1.05398383       0.37182175      -0.08327826
H       -0.65587662       0.07756412      -2.02693693      -0.41368870       0.28595048      -0.06687109      -0.19322748       0.53297142      -0.59957230      -0.07839008
N        1.10144881       0.83419198       1.91532921      -0.27008073      -0.05616858      -0.02328390      -1.09346347       1.59105304       0.95158213      -0.42353420
8
Properties=species:S:1:pos:R:3:momenta:R:3:forces:R:3:charge:R:1 energy=-194.83867879104386 free_energy=-194.83867879104386 dipole="-0.0027231064612220687 0.03914938444772574 -0.37220604939425256" pbc="F F F"
B       -1.20498945      -0.59466993      -1.30880115      -0.67805932       0.21122455      -0.27881648      -0.24969906       1.58579158      -1.09935540       0.24275541
H        1.66173098       1.50177068       1.57095347       0.00931295       0.02437583       0.00383713      -0.98415458      -0.60372328       0.50609262       0.13528090
H        0.02536372       1.00570657       1.69241848       0.29886646       0.04115137      -0.34788633       1.74353079      -0.45461958       0.15707242       0.13923368
H        1.31348024      -0.05545492       1.35965164       0.16827461      -0.13981352      -0.23634513      -0.42347288      -0.08529484       0.07960837       0.14109544
H       -0.92021320      -0.73075618      -0.22856210       0.05250854      -0.22894339       0.13008287       0.48594811       0.20807396       1.06400109      -0.07501253
H       -1.66173098      -1.50177068      -1.80258156       0.32815075       0.08478728      -0.07171975      -0.36546271      -0.78661360      -0.68918793      -0.07881630
H       -1.17876768       0.46513790      -1.92011331      -0.00094027      -0.03062936       0.09100260       0.12784936      -1.01197816       0.72755670      -0.08814509
N        1.02863533       0.74289187       1.92011331      -0.17811372       0.03784724       0.70984510      -0.33453903       1.14836392      -0.74578788      -0.41639152
8
Properties=species:S:1:pos:R:3:momenta:R:3:forces:R:3:charge:R:1 energy=-194.9337655686892 free_energy=-194.9337655686892 dipole="0.2558495732872443 0.10753505695629804 -0.34121757494540733" pbc="F F F"
B       -1.31027669      -0.60042566      -1.34779029       0.15483520      -0.72293135       0.72226981      -0.72549992      -0.35038209       0.14343528       0.24302850
H        1.79026423       1.48388330       2.02200878       0.01694399       0.07931483       0.10503013       0.77429264       0.60515015       0.41267680       0.14553259
H        0.45967920       1.39361341       1.13453702       0.51225954       0.22375379       0.02298271       0.01346570      -0.23209213       0.26114252       0.14301916
H        1.42746298       0.10907096       1.30161363       0.23147512      -0.27675712      -0.30059665       0.17085917      -0.61000195      -0.26003793       0.14412733
H       -1.00771789      -0.83169310      -0.23826657      -0.14754206       0.01569562       0.17091649       0.12378586      -0.16385736      -0.21996126      -0.07866277
H       -1.79026423      -1.48388330      -2.02200878      -0.31458610       0.03824773      -0.21666285       0.54796160       0.85293048       0.39924183      -0.08187228
H       -1.34025405       0.54191874      -1.62013704      -0.25518141      -0.09584387      -0.11200523       0.05977762      -0.33398989      -0.32044405      -0.08212861
N        1.03529164       0.87809479       1.80526396      -0.19820430       0.73852037      -0.39193441      -0.96464267       0.23224280      -0.41605319      -0.43304392
8
Properties=species:S:1:pos:R:3:momenta:R:3:forces:R:3:charge:R:1 energy=-194.6670215476162 free_energy=-194.6670215476162 dipole="0.09013912011178152 0.11992156217278135 -0.16079750220046654" pbc="F F F"
B       -1.39208737      -0.65678146      -1.56648659       0.20233644      -0.22262133      -0.23805823       0.66699996       2.69448868      -0.65088914       0.23749424
H        1.72121297       1.49208403       2.23503210      -0.04565557       0.10896110       0.14282418       0.38503304       0.68157661       0.14433407       0.14674321
H        0.47999582       1.47206614       1.06950292       0.28941481      -0.30934067       0.10209075       0.87898831      -0.28406703       0.42932810       0.14400833
H        1.66723358       0.26433082       1.13851245      -0.10047335      -0.08600407      -0.16355269      -0.12310370       0.33140855      -0.09678055       0.14044669
H       -0.87854972      -0.84053767      -0.60923278       0.06371303      -0.12862134      -0.05455219       0.68156990      -0.90756077       2.00017154      -0.07442956
H       -1.72121297      -1.49208403      -2.23503210      -0.50959536       0.24603349       0.02595904      -0.60251970      -0.57931798      -0.86908678      -0.06570215
H       -1.20103274       0.54077816      -1.79533494      -0.04019834       0.03051902      -0.06716078      -0.73874466      -1.20033605      -0.47450939      -0.09719036
N        1.12909645       0.94163566       1.66382064       0.14045835       0.36107379       0.25244992      -1.14822314      -0.73619201      -0.48256785      -0.43137039
8
Properties=species:S:1:pos:R:3:momenta:R:3:forces:R:3:charge:R:1 energy=-194.73459770035612 free_energy=-194.73459770035612 dipole="0.18669522293892568 0.2475739860552087 -0.3257782381939619" pbc="F F F"
B       -1.05261255      -0.79731195      -1.44403534      -0.07746796       0.62559268      -0.30158658      -1.85998791      -0.23631941      -1.46011373       0.24708730
H        1.89334977       1.49762032       2.09571883      -0.01875263      -0.02121415       0.06932271      -0.42045514      -0.60353763       0.19033760       0.13906871
H        0.59982991       1.03149530       1.25148233       0.03291125      -0.34712275       0.21476309      -0.32635075      -0.07937072       0.40865207       0.14359153
H        1.94266030       0.24313536       1.09995292      -0.14010814       0.14719341      -0.18418081       0.02942814      -0.36280300       0.42684987       0.14074407
H       -0.66872118      -1.20671904      -0.43943729       0.04644533       0.33723878       0.00768829       0.24523094      -0.05591850       0.14660860      -0.06525832
H       -1.94266030      -1.49762032      -2.09571883      -0.13536922       0.03876406       0.23045497       1.60463024       1.13504342       1.03667156      -0.09921996
H       -0.84628503       0.31679040      -1.84275836       0.08785371      -0.31360958       0.27997811       0.01994993      -0.83403601       0.28697206      -0.08234700
N        1.35158064       0.65332549       1.83073831       0.20448767      -0.46684245      -0.31643977       0.70755454       1.03694184      -1.03597802      -0.42366635
8
Properties=species:S:1:pos:R:3:momenta:R:3:forces:R:3:charge:R:1 energy=-194.86971378805728 free_energy=-194.86971378805728 dipole="0.20947865497644094 0.10453804115457807 -0.23847212720305663" pbc="F F F"
B       -1.09638801      -0.72547554      -1.60113776       0.56158709       0.29032551      -0.23733214      -0.86940112       0.10544757      -0.01888758       0.24157648
H        1.81957503       1.39596455       2.06825861      -0.04652117      -0.14479917       0.14648147      -0.15581638      -0.45101607      -0.56578384       0.14015452
H        0.64271937       0.95674156       0.96613948       0.17934226      -0.19580135      -0.43578430      -0.41334223       0.35149902      -0.91331215       0.15091814
H        1.94052653      -0.10711281       1.24983851      -0.09911324       0.01823380      -0.16337199      -0.74941709       1.23835135       0.22738477       0.13811243
H       -0.53239418      -1.08152630      -0.64376233       0.14151803       0.03754037      -0.17920805       0.13616299       0.13354106      -0.23258606      -0.07181113
H       -1.94052653      -1.39596455      -2.06825861      -0.06777354      -0.28573780      -0.20019861       0.29621126      -0.18260662       0.07166667      -0.08609081
H       -1.10709252       0.36381634      -2.03033756      -0.09119341      -0.07903322       0.16511280       0.44231611      -0.05179527       0.18710121      -0.08319178
N        1.31016532       0.63736647       1.61279212      -0.57784603       0.35927187       0.90430083       1.31328646      -1.14342106       1.24441698      -0.42966784
8
Properties=species:S:1:pos:R:3:momenta:R:3:forces:R:3:charge:R:1 energy=-194.77498158471616 free_energy=-194.77498158471616 dipole="0.16392748890267805 0.10205289006112261 -0.22377112309082167" pbc="F F F"
B       -1.20460013      -0.63354868      -1.52451838       0.08693157       0.63462713      -0.69639933       0.02766350       1.93241757       0.75950655       0.24432790
H        1.79953062       1.27973599       2.22512137      -0.24848845       0.06214253       0.01545011       0.18088568       0.83867026       0.04503386       0.14490149
H        0.45755578       0.97759468       1.20145019       0.00313168       0.19174474       0.21658957       1.02139482      -0.16435598       0.29544604       0.14736494
H        1.78944987      -0.08227463       1.35793040      -0.22665421       0.07845897      -0.00964877       0.01580389      -0.20239953      -0.57490769       0.14245514
H       -0.47033667      -1.16810124      -0.77662598       0.18421407       0.02222252      -0.05014229      -0.08679254       0.48059983      -0.14156126      -0.07432737
H       -1.79953062      -1.27973599      -2.22512137      -0.17813740       0.12300770       0.21441269      -0.58756924      -0.68777534      -0.83011127      -0.07513505
H       -1.47876239       0.60270707      -1.55231794      -0.17481175       0.02235182       0.22115919       0.65439110      -1.71667592       0.22200869      -0.09448280
N        1.21569510       0.61086849       1.78683058       0.55381449      -1.13455541       0.08857884      -1.22577721      -0.48048089       0.22458509      -0.43510425
8
Properties=species:S:1:pos:R:3:momenta:R:3:forces:R:3:charge:R:1 energy=-194.49376624754404 free_energy=-194.49376624754404 dipole="0.23234288709157558 0.17465106952429205 -0.15584534073037865" pbc="F F F"
B       -1.27363826      -0.66742236      -1.32298450      -0.14181886       0.28707552       0.30416662      -0.39502210      -0.11291180      -2.33910408       0.24496901
H        1.81889746       1.19170556       2.24698646      -0.16426599       0.15405676       0.15036820       0.29957108       0.04791884       1.30110139       0.14534009
H        0.97635323       0.88836068       1.09817573      -0.07235667      -0.01793366       0.09038961      -1.73109703       0.28513548      -0.90917280       0.15040664
H        1.91762328      -0.16090464       1.48624846      -0.19323810      -0.03625698       0.17573936       0.86967028      -1.53447309       0.21329539       0.14887050
H       -0.30935575      -1.19083635      -0.96459545      -0.43195249      -0.15301576       0.01290097      -0.05069468      -0.14790978       0.44064727      -0.07039661
H       -1.91762328      -1.19170556      -2.24698646       0.02922516       0.15680039       0.03307173       0.50852063       0.24359697       1.34223259      -0.09418045
H       -1.37083476       0.49366355      -1.36572310      -0.08630743       0.15871485      -0.05340881      -0.04913636       0.02368752       0.56292840      -0.08019288
N        1.24491940       0.41522505       1.93872727       1.06071439      -0.54944111      -0.71322768       0.54818817       1.19495586      -0.61192817      -0.44481630
8
Properties=species:S:1:pos:R:3:momenta:R:3:forces:R:3:charge:R:1 energy=-194.7626011230844 free_energy=-194.7626011230844 dipole="0.20716057644598782 0.11601864467488321 -0.2966562091317975" pbc="F F F"
B       -1.16459842      -0.51531238      -1.64171337       0.07224302       0.13237898      -0.60866731       0.44352110       0.27085654       1.50687225       0.24068451
H        1.91967527       1.13607919       2.21694864       0.04271555       0.38441378      -0.14603961       0.08374536       0.21186761      -0.46364921       0.14883100
H        0.85040407       0.70059943       0.93463855       0.23027106       0.18569880      -0.38113603       0.07182583       0.59661058      -0.03136581       0.14787000
H        2.08192470      -0.30524112       1.32621857      -0.01186948       0.03515615      -0.19435019      -0.12094711       0.70995831       0.34824986       0.13616497
H       -0.37159985      -1.13607919      -1.03853788       0.22987459      -0.01464637      -0.02624440      -0.12154926      -0.50625916      -0.63921590      -0.08064988
H       -2.08192470      -0.86930906      -2.21694864      -0.05818883      -0.05664913       0.05646305      -0.17337624      -0.41120835      -0.51816170      -0.06876925
H       -1.15111293       0.55669039      -1.20798679      -0.02358147       0.11830018       0.02887643      -0.14106280       0.65214383      -0.34498588      -0.09070157
N        1.45943953       0.42677363       1.67985370      -0.48146443      -0.78465239       1.27109806      -0.04215688      -1.52396937       0.14225639      -0.43342977
8
Properties=species:S:1:pos:R:3:momenta:R:3:forces:R:3:charge:R:1 energy=-194.83691682538685 free_energy=-194.83691682538685 dipole="0.1567002376746881 0.17542485010541725 -0.1726399356385394" pbc="F F F"
B       -1.45276477      -0.42128781      -1.52759044      -0.10263592       1.10519708       0.00385130      -1.12694565      -0.18747097      -1.68144664       0.23880094
H        1.52294050       1.04257126       2.34393255      -0.16702521       0.09059263       0.31756260      -0.08160317       0.22882675      -0.28601255       0.14373037
H        0.62774486       0.45203496       1.03883610       0.27836305      -0.13305386       0.05742596      -0.00607964       0.35400378      -0.37997533       0.15082032
H        2.04050675      -0.31173985       1.53639741       0.05063088      -0.18183928      -0.33798516      -0.80576872       0.63174203       0.05533695       0.13572902
H       -0.87906180      -0.94761621      -0.76408553      -0.11512837       0.02519670       0.21325327       1.22745092      -1.43533420       1.74146785      -0.07421681
H       -2.04050675      -1.04257126      -2.34393255       0.15395008       0.09757365      -0.01745457       0.11796943       0.41357959       0.23808563      -0.08337213
H       -1.36491786       0.70050583      -1.49680898      -0.08168601       0.30768326      -0.04322056      -0.21115573       1.21122968      -0.29201823      -0.08046339
N        1.21427698       0.24309061       1.81683396      -0.01646850      -1.31135019      -0.19343284       0.88613258      -1.21657666       0.60456232      -0.43102832
8
Properties=species:S:1:pos:R:3:momenta:R:3:forces:R:3:charge:R:1 energy=-194.9481726414089 free_energy=-194.9481726414089 dipole="0.19045495991178366 0.3075772817633817 -0.1002199901411249" pbc="F F F"
B       -1.43160620      -0.27293840      -1.73470647      -0.40129349      -0.09903088      -0.16887096      -0.00299895       0.27922019       0.44478989       0.24212390
H        1.23541703       0.86788927       2.41635229      -0.05720220       0.01031686       0.20284930      -0.14454133      -0.78605301      -1.02694589       0.13349716
H        0.71927691       0.72027465       0.86867099       0.13015137       0.06881813       0.07721330      -0.55037607       0.66660835      -1.09539126       0.15230488
H        2.13645638       0.04930866       1.32476877      -0.14390294       0.16905322      -0.08053713       0.38220075      -0.06929173      -0.31198104       0.14460967
H       -0.63270629      -0.84566632      -1.08555925       0.44653179       0.20293080      -0.22846197      -0.12806713       0.23625952      -0.20323814      -0.07630856
H       -2.13645638      -0.90674898      -2.41635229       0.01986829      -0.19179002       0.09272219       0.04466482       0.19127562      -0.04859125      -0.07923822
H       -1.57288620       0.90674898      -1.59976441       0.15428731      -0.06930930      -0.10269019       0.09252476      -0.70059143      -0.18878293      -0.08611602
N        1.18614499       0.23313699       1.58089080      -0.14844013      -0.09098881       0.20777547       0.30659315       0.18257250       2.43014062      -0.43087282
8
Properties=species:S:1:pos:R:3:momenta:R:3:forces:R:3:charge:R:1 energy=-194.89000373536064 free_energy=-194.89000373536064 dipole="0.05691765994564746 0.34751730972035966 -0.009511667968972699" pbc="F F F"
B       -1.37615752      -0.21954388      -1.83983212       0.36767748      -0.42600498      -1.10316355       0.44830460       0.26412854      -0.10520795       0.24228511
H        0.81973562       0.86274672       2.35668145      -0.14946213      -0.00919665       0.14637463       0.27238732       0.15184501       0.69697140       0.14335969
H        0.64629827       0.72161043       0.81932954      -0.12185565      -0.05261735      -0.06271992      -0.31198656       0.22075292      -1.19066628       0.14749262
H        2.15929590       0.44942356       1.43058218      -0.03062324       0.18751235       0.42061283      -1.05041406       0.05308669       0.23245279       0.14173148
H       -0.28376645      -0.58650750      -1.47378260      -0.14236430       0.11961579       0.00356788      -1.01770785       0.33752884      -0.25411749      -0.07500647
H       -2.15929590      -0.89997421      -2.35668145       0.16833517       0.00447840       0.17277336       0.11540813      -0.51958338       0.05764172      -0.08011397
H       -1.74223382       0.89997421      -1.84962661       0.15793841      -0.09238348       0.12905675       0.46057182      -0.07945913       0.31020174      -0.08665874
N        1.14008150       0.32091449       1.57742023      -0.24964574       0.26859591       0.29349803       1.08343660      -0.42829949       0.25272407      -0.43308974
8
Properties=species:S:1:pos:R:3:momenta:R:3:forces:R:3:charge:R:1 energy=-194.97958925549324 free_energy=-194.97958925549324 dipole="-0.022505464142314368 0.339349346030481 0.021451564193692367" pbc="F F F"
B       -1.37694160      -0.10154702      -1.92514973       0.34034887       0.52557124       0.25003259       0.24380624       0.03348367       0.09439805       0.23938944
H        0.50101906       0.84469711       2.38126832      -0.08030999       0.08968689      -0.03557775      -0.39223618       0.17056843       0.14374219       0.14321708
H        0.60310342       0.92820120       0.72829085      -0.07601500       0.40922700      -0.22522077      -0.16342599       0.21083185      -0.07477159       0.14742205
H        1.94167726       0.94970959       1.67333548      -0.08687616      -0.03824640       0.11046782       0.47685342       0.21606121      -0.09900272       0.14363757
H       -0.39721381      -0.26188427      -1.35069258      -0.11170932      -0.20266783       0.03825962       0.45668528      -0.29467813       0.26629638      -0.07958090
H       -1.94167726      -0.99175398      -2.38126832      -0.07419747      -0.36231379       0.30155124      -0.26196375      -0.19662654      -0.16409649      -0.07596366
H       -1.70423465       0.99175398      -2.01959793       0.18727779      -0.14459194       0.05543050      -0.43625598       0.45706841      -0.19673843      -0.08292264
N        1.02136489       0.57234941       1.56924107      -0.09851871      -0.27666518      -0.49494325       0.07653696      -0.59670889       0.03017260      -0.43519895
8
Properties=species:S:1:pos:R:3:momenta:R:3:forces:R:3:charge:R:1 energy=-194.80765193743287 free_energy=-194.80765193743287 dipole="0.04319148592587554 0.35599306132777714 0.14444442171992872" pbc="F F F"
B       -1.38515368      -0.28420959      -1.84719699      -0.10349499      -0.31407944       0.31127717       1.06063957       1.02177883       0.92761934       0.23632539
H        0.35527510       0.60221393       2.44271466       0.01316983       0.05691535       0.26115929       0.50229726      -0.18265768      -2.00945458       0.13372252
H        0.74136313       1.10605462       0.84892333      -0.10482584      -0.00880582       0.00793515      -0.77339406       0.80337567      -0.63739280       0.15319156
H        1.85854219       0.64455092       1.86412261      -0.16311039      -0.25343818       0.15593580      -0.36070700      -0.50545326      -0.35224937       0.13494412
H       -0.45950014      -0.55707528      -1.18629294      -0.15313058       0.11320685      -0.05343561      -0.02247337      -0.08089756       0.03143936      -0.07855257
H       -1.85854219      -1.10605462      -2.44271466       0.18990351       0.42857798      -0.16317746      -0.76194986      -0.68392546      -0.74083991      -0.07197497
H       -1.65955519       0.85568923      -1.84321851       0.24006430       0.09665138       0.11945298      -0.27652500      -0.25196842      -0.21926114      -0.08558612
N        0.90233717       0.41464514       1.53619510       0.08142415      -0.11902812      -0.63914732       0.63211246      -0.12025211       3.00013910      -0.42206993
8
Properties=species:S:1:pos:R:3:momenta:R:3:forces:R:3:charge:R:1 energy=-194.79207308818675 free_energy=-194.79207308818675 dipole="0.05309898980370812 0.4278197811542796 0.16950565350484093" pbc="F F F"
B       -1.23211932      -0.39140658      -1.59926150       0.27213204      -0.22187950       0.15361662      -0.55164211      -1.68859848      -0.82325021       0.23767123
H        0.33838080       0.68484333       2.35145662      -0.05341562      -0.11293172       0.01665180       0.80713750      -0.83020829      -1.23864411       0.13138630
H        0.89241262       1.09469037       0.89344138       0.01939010       0.08243528       0.12455580      -0.29214764       0.22377946      -0.87800277       0.14793782
H        1.87402597       0.63493792       1.98661895      -0.02431441       0.02847104       0.19723785       2.13468005       0.05546506       0.83762711       0.15009193
H       -0.52504017      -0.95048681      -0.86285470       0.04889254       0.09085673       0.34320283       0.02492276       0.32488834       0.09303103      -0.06425717
H       -1.87402597      -1.09469037      -2.35145662       0.03945804       0.20784608      -0.04329098       0.43362446       0.49425855       0.56509598      -0.09692392
H       -1.36776085       0.72410507      -1.73803800      -0.04975412      -0.11494148       0.37474908       0.09105277       0.87912704       0.16232531      -0.07631080
N        1.02408394       0.38278965       1.58493594      -0.25238859       0.04014358      -1.16672298      -2.64762779       0.54128831       1.28181766      -0.42959538
8
Properties=species:S:1:pos:R:3:momenta:R:3:forces:R:3:charge:R:1 energy=-194.8148435927476 free_energy=-194.8148435927476 dipole="0.040602010640419836 0.2506199880794233 0.06225063534638232" pbc="F F F"
B       -1.24434339      -0.32108023      -1.35827192      -0.02343643       0.23611582       0.52478732      -1.10683434      -0.33918053      -0.32350653       0.23892766
H        0.12193515       0.33822148       2.17127120       0.15086549       0.01060551      -0.11361889      -0.59023288       0.04706084       1.02939906       0.14577402
H        0.70886791       0.97449539       0.82856750       0.14465690       0.17058227      -0.04824029       0.20218813       0.93188109      -0.78815768       0.14947967
H        1.81611291       0.61306366       2.09972474       0.01364083       0.38787112       0.08224726      -1.37400694       0.16411070      -0.56086139       0.14199116
H       -0.75944401      -0.87709469      -0.46940732       0.06593411       0.19768497       0.03153181       0.32282870       0.07781265       0.08977163      -0.06494570
H       -1.81611291      -0.97449539      -2.17127120       0.29343441      -0.00493959      -0.17410936       0.44374518       0.24549577       0.18024527      -0.08902821
H       -1.50013163       0.81772898      -1.35066833       0.17097268      -0.29173075       0.01153979       0.32467312       0.01294927       0.03612199      -0.08404434
N        0.92335270       0.42132466       1.60970405      -0.81606800      -0.70618935      -0.31413766       1.77763904      -1.14012979       0.33698765      -0.43815425
8
Properties=species:S:1:pos:R:3:momenta:R:3:forces:R:3:charge:R:1 energy=-194.89930589579768 free_energy=-194.89930589579768 dipole="-0.12374484412143519 0.3101358519170951 0.21396750927478805" pbc="F F F"
B       -1.18796471      -0.42922874      -1.37593958       0.17062179       0.04059690       0.48008112      -1.00689573       0.70221008      -1.94665184       0.24039397
H        0.22190146       0.19140400       2.02851383      -0.04226008      -0.23668843      -0.24290903      -1.49535319      -0.53122242       0.73430624       0.14778092
H        0.89364119       1.07739478       0.91661632       0.02968139      -0.10610844       0.24767031       0.15113223       0.18338131      -0.35292507       0.14614084
H        1.69813841       0.68675731       2.26952657       0.14647357      -0.06355002       0.14185767       0.37065561       0.05842446       0.05635923       0.14295552
H       -0.68138829      -0.93921909      -0.50710573      -0.10350115      -0.02093643       0.11276124       0.40136238      -0.27728804       0.74210173      -0.05729858
H       -1.69813841      -1.07739478      -2.26952657      -0.41793977      -0.28817413      -0.18267721       0.43239757       0.39869159       0.81514303      -0.09243961
H       -1.26225994       0.76258956      -1.54600116      -0.16225227      -0.12319375      -0.12437934       0.16389228      -0.82048097       0.37834850      -0.09025977
N        1.07374359       0.32607489       1.56350960       0.37917652       0.79805431      -0.43240477       0.98280884       0.28628400      -0.42668182      -0.43727329
8
Properties=species:S:1:pos:R:3:momenta:R:3:forces:R:3:charge:R:1 energy=-194.73864265990332 free_energy=-194.73864265990332 dipole="-0.1359124243507897 0.24155867838740377 0.10651171234118935" pbc="F F F"
B       -1.07546626      -0.46836235      -1.62119102       0.18475182      -0.00888630       0.74213970       1.29126787       2.11648825       2.67589942       0.23889742
H        0.41496627       0.06863621       1.72090135      -0.26331550       0.01634386      -0.18792856      -1.26553324      -0.74872505       0.27291869       0.14610526
H        1.03128763       1.14041476       0.72406700       0.08560725      -0.11800706       0.24164566       0.38267661      -0.39702110       0.22189093       0.14360999
H        1.77087441       0.70740346       2.13962364      -0.03566295       0.18272152      -0.21403841       0.21829965      -0.01334431      -0.53347141       0.13987279
H       -0.59348112      -0.80920847      -0.56985796      -0.13540648       0.14042920      -0.09686727      -0.11332131      -0.16561198      -0.84227992      -0.08403054
H       -1.77087441      -1.14041476      -2.13962364      -0.15717761      -0.15379784       0.06470892      -1.08308477      -1.08099096      -1.28568058      -0.06344395
H       -1.01765860       0.73570826      -1.68968798       0.11854324       0.09159578      -0.25112664      -0.11827132      -0.87580525      -0.57377654      -0.09096295
N        1.27642665       0.33705120       1.31940022       0.20266022      -0.15039915      -0.29853340       0.68796651       1.16501040       0.06449940      -0.43004803
8
Properties=species:S:1:pos:R:3:momenta:R:3:forces:R:3:charge:R:1 energy=-194.90023907421863 free_energy=-194.90023907421863 dipole="-0.11953495258737531 0.27296635807691116 0.1872247202406556" pbc="F F F"
B       -1.14468072      -0.40150006      -1.57876284       0.48131253      -0.60806571      -0.24406840       0.11959406      -0.86356101       0.02833171       0.23580592
H        0.35657826       0.21385700       1.75272074      -0.03488640      -0.17870017       0.11181059      -1.26703583      -0.25081239       0.73247433       0.14611898
H        1.09741348       1.16461476       0.69829478       0.22335841       0.07278998       0.31048353      -0.13103565       1.57153768      -1.11385058       0.15233842
H        1.91831491       0.62419731       2.02173319       0.07342837       0.09248093      -0.25763805      -0.19123558       0.16062423      -0.12433614       0.14223500
H       -0.43663184      -0.79918977      -0.75379869      -0.17653444       0.11576618      -0.15795982       0.07546640      -0.05117532       0.27930923      -0.07305994
H       -1.91831491      -1.16461476      -2.02173319      -0.02768804      -0.08847737       0.17946795      -0.01790239       0.37476423      -0.01419940      -0.08338022
H       -0.93191788       0.64344881      -1.98840774      -0.02180887       0.00927110       0.01029084      -0.19025456       0.53919774      -0.31085572      -0.07905647
N        1.20763904       0.43534629       1.32594270      -0.51718157       0.58493505       0.04761335       1.60240355      -1.48057516       0.52312657      -0.44100168
8
Properties=species:S:1:pos:R:3:momenta:R:3:forces:R:3:charge:R:1 energy=-194.9011058821748 free_energy=-194.9011058821748 dipole="0.00038173676237731815 0.25081659076485885 0.28401606969839194" pbc="F F F"
B       -1.18567587      -0.49164300      -1.42075606      -0.44003966       0.19268033       0.45286472       0.05474273      -0.35165844       0.33709089       0.23518833
H        0.41752258       0.11507233       2.10188024      -0.27044341      -0.22728367      -0.04795757      -0.59772036      -0.23524055       0.62872009       0.14775362
H        1.09971854       1.29838374       1.22724104       0.44949435       0.01265951      -0.18934802      -0.20824835      -0.21800277      -0.13042060       0.14049771
H        2.04694993       0.31831713       2.04925819       0.20357881       0.18195144      -0.07337156       0.06175554      -0.31913530       0.25769868       0.14390362
H       -0.45543211      -0.78791560      -0.54581042       0.24564376      -0.03837676      -0.06257063       0.16418340       0.48756467      -0.26635977      -0.07025160
H       -2.04694993      -1.29838374      -1.47957760      -0.21031110       0.07696316       0.22321298      -0.03622887       0.53022398      -0.47441904      -0.08688409
H       -1.04537062       0.47617387      -2.10188024       0.07112078       0.30130871      -0.24035693      -0.19548694      -0.66192024       0.38511408      -0.07820000
N        1.18957730       0.32486707       1.51618358      -0.04904353      -0.49990273      -0.06247299       0.75700284       0.76816865      -0.73742433      -0.43200758
8
Properties=species:S:1:pos:R:3:momenta:R:3:forces:R:3:charge:R:1 energy=-194.93857307297162 free_energy=-194.93857307297162 dipole="0.0076011166085657045 0.28005730425573566 0.28857623339274774" pbc="F F F"
B       -1.16849474      -0.41926682      -1.34903010      -0.31741683       0.43170944      -0.42113970       0.32935716       0.21169192      -0.78029837       0.23307637
H        0.37321441       0.19153792       2.17587730      -0.13985338       0.14147478      -0.03694461       0.55362039      -0.02513191       0.00595572       0.14115933
H        1.24435156       1.10740849       1.12504051       0.04452473       0.13621387      -0.07592002       0.14657458      -0.29753446       0.26033788       0.14141600
H        2.08156368       0.04517856       2.14092528       0.05826426      -0.00881105      -0.04343813      -1.35670767       0.37687892      -0.56898813       0.13916556
H       -0.32303201      -0.63439608      -0.60071309       0.19122917       0.11842464       0.03359153       0.14259917      -0.01615391       0.38468671      -0.06146921
H       -2.08156368      -1.10740849      -1.46270246       0.01769848      -0.02255092      -0.09772540      -0.40007839      -0.21142073       0.15496102      -0.08216620
H       -1.00087805       0.39857688      -2.17587730       0.29068365       0.07661256       0.04490300      -0.08372363       0.01645398       0.22666418      -0.08967315
N        1.20526731       0.19770195       1.58487137      -0.14513008      -0.87307332       0.59667334       0.66835839      -0.05478381       0.31668098      -0.42150871
8
Properties=species:S:1:pos:R:3:momenta:R:3:forces:R:3:charge:R:1 energy=-194.80099471116674 free_energy=-194.80099471116674 dipole="-0.015277146501136582 0.320649112133583 0.1558074433302565" pbc="F F F"
B       -1.12010704      -0.49572800      -1.53964118      -0.64380979      -0.18927366      -0.59726769      -0.25591681      -0.69170439       1.46032803       0.23586721
H        0.46862853       0.18827731       2.16691399       0.23461642      -0.02611635       0.17330655       1.53006572      -0.67999217      -0.12199730       0.13749493
H        1.16308466       0.99478725       1.06199286      -0.03498970      -0.23348000       0.18088629       0.45106125      -0.16406798      -0.63362777       0.13988074
H        2.18591350       0.37308143       2.12982599      -0.34296984      -0.10346869      -0.07137225      -0.64598152      -0.36907341       0.10680223       0.14473968
H       -0.39770455      -0.74350629      -0.61877207       0.00639965      -0.19471239       0.08803255      -0.42455096      -0.09022782      -0.58657265      -0.07289230
H       -2.18591350      -0.99478725      -1.62656727      -0.12131637       0.24247785       0.03202500       0.41738892       0.00383757      -0.04613081      -0.08437820
H       -0.85871279       0.40148587      -2.16691399      -0.27728007       0.11973008      -0.11766830       0.25903581       0.78176310      -0.83041948      -0.07858709
N        1.34943122       0.13543905       1.58146277       1.17934969       0.38484316       0.31205785      -1.33110243       1.20946510       0.65161775      -0.42212497
8
Properties=species:S:1:pos:R:3:momenta:R:3:forces:R:3:charge:R:1 energy=-194.82894862752337 free_energy=-194.82894862752337 dipole="-0.07009143562971887 0.36954343403160894 0.09997144311637471" pbc="F F F"
B       -1.21243736      -0.28729371      -1.69191688      -0.54207940       0.27049699      -0.87128727      -0.00840814      -0.78229144       0.88634467       0.24174948
H        0.73591907       0.39054857       2.33768342       0.44120496       0.00146323       0.24081380      -0.50899634      -0.30798580       1.20750945       0.14584829
H        1.03560206       0.92734507       0.94697442      -0.23817527      -0.27403951      -0.03581420      -0.26116792       0.63982704      -1.41591478       0.14673356
H        2.24547575       0.76116410       1.93727859      -0.12424765      -0.00769518       0.22226453       1.48605387       0.60625833       0.68517429       0.15082087
H       -0.45195659      -0.57459381      -0.78351676      -0.19662142       0.14120327      -0.00070422      -0.78068408       0.10958941      -0.76445153      -0.08013335
H       -2.24547575      -0.92734507      -1.83820764       0.06519294      -0.06006047       0.10223788       1.07861585       0.76056088       0.04021294      -0.08265740
H       -0.87905128       0.62349264      -2.33768342      -0.05845708       0.16448207       0.07915744      -0.29063610      -0.08592874      -0.16022681      -0.07863605
N        1.42517547       0.32938155       1.62876994       0.65318291      -0.23585041       0.26333204      -0.71477714      -0.94002968      -0.47864823      -0.44372539
8
Properties=species:S:1:pos:R:3:momenta:R:3:forces:R:3:charge:R:1 energy=-194.84101531767718 free_energy=-194.84101531767718 dipole="-0.0951330407584437 0.27447704864840144 -0.06878047878664395" pbc="F F F"
B       -1.25332101      -0.34000542      -1.75902817      -0.58492895      -0.43429414      -0.39279004       0.44144437      -0.77157838       1.65623977       0.24450764
H        0.78721135       0.24612441       2.34337405       0.00977850       0.43391657       0.08173246       0.17245292       0.14925200      -0.64919026       0.14163567
H        1.38416124       0.38017637       0.74353515       0.04948645      -0.11184514       0.04263703      -0.31974125       0.20420351       0.18554819       0.14781683
H        2.28956685       0.84034972       2.04979346      -0.26908024       0.17014770       0.55113281       0.20140375       0.34997459       0.00174093       0.14163815
H       -0.52654787      -0.74721130      -0.79963962       0.01892700       0.02243728      -0.05148872      -1.00717017       0.58540429      -1.52203842      -0.08870067
H       -2.28956685      -0.84034972      -1.96240015      -0.41706581      -0.00261689      -0.16559200       0.17347367      -0.18459600       0.07581786      -0.07960276
H       -1.03191317       0.61958925      -2.34337405       0.07303753       0.15071521       0.03977332       0.39868357       0.37133462      -0.20130449      -0.07563796
N        1.58881862       0.20955099       1.71485685       1.11984552      -0.22846059      -0.10540486      -0.06054685      -0.70399462       0.45318642      -0.43165689
8
Properties=species:S:1:pos:R:3:momenta:R:3:forces:R:3:charge:R:1 energy=-194.73546950161955 free_energy=-194.73546950161955 dipole="-0.07987121243140675 0.22530295264829112 -0.1283679294373197" pbc="F F F"
B       -1.15605832      -0.40283167      -1.75440186      -0.62379386      -0.10312714       0.12535854      -2.61956275       2.01488746      -1.36099544       0.24174653
H        0.77708643       0.18207715       2.18661496      -0.14791657       0.06441293      -0.11335427       0.92949070       0.06913529       0.19749290       0.13673788
H        1.64805921       0.37315314       0.89411561       0.10085760       0.09343153      -0.01634451       0.27604287       0.49133990      -1.68761718       0.14852056
H        2.32450973       0.81940490       2.31053810      -0.05402844      -0.17567051       0.13954805       0.17469666       0.56747864       0.27701308       0.14952560
H       -0.52942134      -0.81940490      -0.96621376      -0.04783279      -0.02966372      -0.11470578       1.64406731      -1.01018078       1.39490455      -0.06282784
H       -2.32450973      -0.68690510      -1.74881909       0.40845164      -0.22303889       0.13719927       0.73297789      -0.15161774      -0.21202518      -0.09136350
H       -0.94770066       0.64300930      -2.31053810      -0.05814084       0.05231448      -0.30950947       0.25252254      -0.85085560       0.19112994      -0.08742611
N        1.75241664       0.15541063       1.84073009       0.42240327       0.32134132       0.15180816      -1.39023521      -1.13018716       1.20009733      -0.43491312
8
Properties=species:S:1:pos:R:3:momenta:R:3:forces:R:3:charge:R:1 energy=-194.94091882956687 free_energy=-194.94091882956687 dipole="-0.08743059080082687 0.3158313168422782 -0.0545649886469166" pbc="F F F"
B       -1.22776492      -0.31888297      -1.76906126       0.59319425       0.24785942       0.33255045       1.11385486       0.66135782       0.27518183       0.24193424
H        0.68944348       0.37304307       2.01767283      -0.02007241       0.17293982       0.10455754       1.16077796      -0.01724780       0.05104406       0.13743802
H        1.84118807       0.56036299       0.88305168       0.24300477       0.18134218      -0.19086585       0.15682138       0.16576539      -0.60102698       0.14418471
H        2.27012674       0.76810840       2.41618554      -0.00417344      -0.18535774       0.16519844       0.51375371       0.78829865       0.93035249       0.14978289
H       -0.42677466      -0.68999745      -0.96575593      -0.26420851      -0.30808910       0.04439892      -0.54114531       0.04446772      -0.42971148      -0.08049432
H       -2.27012674      -0.76810840      -1.88542234      -0.14756886      -0.04567247       0.03901684      -0.46056590      -0.35778966       0.00988731      -0.07381685
H       -0.93491415       0.62867078      -2.41618554       0.20526071      -0.06596518       0.00147210      -0.10473933      -0.34491408       0.15501480      -0.08752195
N        1.70182950       0.23639465       1.81734314      -0.60543651       0.00294306      -0.49632845      -1.83875736      -0.93993804      -0.39074202      -0.43150674
8
Properties=species:S:1:pos:R:3:momenta:R:3:forces:R:3:charge:R:1 energy=-194.79614358865194 free_energy=-194.79614358865194 dipole="0.0071210132056761105 0.38277327158589936 0.06911151151397618" pbc="F F F"
B       -1.18187638      -0.37442522      -1.91127215       0.29184096      -0.00734563      -0.49573625       1.77165322       0.45701357       0.99566068       0.24031299
H        0.67599707       0.65134764       1.77730060      -0.01317072       0.13532804       0.12122092       1.32098579      -0.48361247      -0.29903966       0.13821680
H        2.14331689       0.83645313       0.92808541       0.07081760       0.29306098      -0.22996074      -1.05529369      -0.87257523       0.50880540       0.13670670
H        2.19113178       0.53055457       2.49458511      -0.51083108      -0.14389559      -0.06422609      -0.93400503      -0.67554769      -0.73804167       0.13384081
H       -0.55842923      -0.83645313      -0.95771783      -0.12278350       0.21808831      -0.00863973      -0.74798139       0.42221668      -1.04740565      -0.07941215
H       -2.19113178      -0.73552487      -2.24659964      -0.31080477       0.07165854       0.07771381      -1.01250726      -0.57947839      -0.17349074      -0.07300340
H       -0.72872295       0.54912282      -2.49458511      -0.02308275       0.19718978      -0.32251523      -0.00559784      -0.29289827       0.23179501      -0.08786088
N        1.63819672       0.24282553       1.64158232       0.61801426      -0.76408443       0.92214331       0.66274620       2.02488182       0.52171661      -0.40880087
8
Properties=species:S:1:pos:R:3:momenta:R:3:forces:R:3:charge:R:1 energy=-194.8393429861452 free_energy=-194.8393429861452 dipole="0.07793163949641635 0.3843761672292623 0.1531353386009173" pbc="F F F"
B       -1.13506826      -0.21734652      -1.95446022       0.08622036      -0.11652151       0.49459666      -0.44044325      -1.03059101       0.10224869       0.23577100
H        0.64684754       0.89462595       1.77141212      -0.06486275       0.25179757       0.08749537       0.97751684      -0.12731215      -0.70767998       0.14205348
H        2.20523332       0.80892363       0.94730190       0.06850686       0.02727049      -0.02858544      -1.27745411      -0.06984566       0.38718580       0.14382052
H        2.03466096       0.48598996       2.51369919      -0.20225014       0.03327042      -0.14504199      -0.23387178      -0.26275616      -0.18511818       0.13567334
H       -0.41387364      -0.89462595      -1.39213974       0.31732522      -0.21564162      -0.41504273       0.52926297      -0.29488507       0.50990983      -0.07411723
H       -2.20523332      -0.59580362      -2.11462618      -0.04432501       0.04477838      -0.11497494      -0.61128006      -0.06498207       0.03677420      -0.08484368
H       -0.78282704       0.67650546      -2.51369919       0.22084165       0.01777916       0.00229163       0.52600228       1.39377905      -0.64550941      -0.07680292
N        1.53687563       0.38660902       1.62247880      -0.38145620      -0.04273292       0.11926145       0.53026710       0.45659307       0.50218905      -0.42155450
8
Properties=species:S:1:pos:R:3:momenta:R:3:forces:R:3:charge:R:1 energy=-194.69873546017706 free_energy=-194.69873546017706 dipole="0.18556039117606196 0.23402986490507668 0.035497851819647847" pbc="F F F"
B       -1.11569992      -0.39554764      -2.18531828       0.29583205      -0.19163510       0.03873803      -1.49179371       0.49744868       0.10946715       0.23886164
H        0.69488513       1.01287952       1.74930697      -0.01361276       0.03561740      -0.16158583       1.88839486      -0.81943106      -0.53458582       0.13941758
H        2.17705783       0.67326858       0.80941451       0.10223764      -0.04671868      -0.17635906      -0.91132667       0.27439830       0.68227538       0.14332914
H        2.03873481       0.11123606       2.37616106      -0.05460674      -0.18785242      -0.58041694      -0.73549566       0.54155820      -0.82446678       0.13477123
H       -0.41629819      -1.01287952      -1.56605986      -0.26188312       0.14843149      -0.03876600       1.12673509      -0.79957542       0.54790979      -0.07279485
H       -2.17705783      -0.94711480      -2.37616106       0.27310025      -0.19968064      -0.06205760       0.74724951       0.80915211      -0.27918023      -0.08617905
H       -0.86541888       0.76069085      -2.26137646      -0.12071628      -0.07678505      -0.14175717      -0.38031467      -0.50213858      -0.37547770      -0.07988347
N        1.50131334       0.36286640       1.52209746      -0.22035105       0.51862300       1.12220457      -0.24344876      -0.00141223       0.67405821      -0.41752222
8
Properties=species:S:1:pos:R:3:momenta:R:3:forces:R:3:charge:R:1 energy=-194.7157523785516 free_energy=-194.7157523785516 dipole="0.18188093547405407 0.3098921666452521 0.2630618340505379" pbc="F F F"
B       -1.18893734      -0.39461805      -1.92888901       0.38197613      -0.65011265       0.26513528       1.33764417      -1.37686969      -0.63311782       0.24215388
H        0.89954702       1.19804804       2.02350178       0.04647355       0.11238157      -0.03201629       0.52982330      -0.31104807      -0.87330534       0.14221710
H        2.09698762       0.60419360       0.94875403      -0.15789591      -0.01332456      -0.17288566       0.25316483       0.82809513      -1.02940199       0.15293048
H        2.01143664       0.11932375       2.42096039       0.15082286       0.09456059      -0.09131115      -0.02680722      -0.40779165       0.37494414       0.13813108
H       -0.32425429      -1.19804804      -1.54714048       0.08325635       0.20241945      -0.06643958      -0.91686147       1.24347875      -0.06158438      -0.08409952
H       -2.09698762      -0.91715975      -2.42096039      -0.10091728      -0.25491296       0.00623186      -0.50584569       0.00534221       0.23055552      -0.08243102
H       -0.94493554       0.67774493      -2.30599222       0.06254324      -0.33674220       0.01664717       0.09201061       0.12932394       0.46305549      -0.07562179
N        1.42710098       0.39610841       1.64419622      -0.46625894       0.84573076       0.07463836      -0.76312853      -0.11053063       1.52885438      -0.43328022
8
Properties=species:S:1:pos:R:3:momenta:R:3:forces:R:3:charge:R:1 energy=-194.79009040463583 free_energy=-194.79009040463583 dipole="0.30320718052375767 0.2139869621774381 -0.09545148268693551" pbc="F F F"
B       -1.23834958      -0.52431786      -1.83151418      -0.67033858       0.89699943       0.42560380       0.96660150      -0.16778684       1.61923645       0.24037322
H        1.04146423       1.23823189       2.11990879       0.10451458      -0.02609406      -0.06170910       0.34085529      -0.03050211      -0.54774833       0.14736899
H        1.69505584       0.42370446       0.69884724       0.00832104      -0.19814165      -0.00472694      -0.87596930       0.49756760       1.70988552       0.13813056
H        2.18528099       0.01691585       2.21936107       0.25356689      -0.05601137       0.01679561      -0.98698133       0.49386819      -0.32296737       0.13286192
H       -0.56309451      -1.23823189      -1.10936393      -0.04373026      -0.63544802      -0.00777127      -0.32500064       0.74391520      -0.78098630      -0.08555808
H       -2.18528099      -1.00612304      -2.21936107       0.35704378      -0.00925714      -0.20136192      -0.73257479      -0.26169506      -0.63833171      -0.07549229
H       -1.07690440       0.63849322      -1.83570403       0.00989838      -0.10906419       0.00146589       0.09742169      -0.30962287      -0.20047666      -0.07924302
N        1.34788210       0.36569972       1.70226124      -0.01927582       0.13701701      -0.16829608       1.51564758      -0.96574411      -0.83861161      -0.41844129
8
Properties=species:S:1:pos:R:3:momenta:R:3:forces:R:3:charge:R:1 energy=-194.72233859218883 free_energy=-194.72233859218883 dipole="0.2022927423838975 0.1761933056635691 -0.07443588299041495" pbc="F F F"
B       -1.26152832      -0.52511748      -1.77705127       0.20916105       0.26143540       0.36802184       0.35917588       1.84678969       0.78945873       0.24140551
H        0.87850420       1.16647517       2.11094275       0.03050316      -0.00201558       0.02647730      -1.39835006       2.36399153       0.60310394       0.15413343
H        1.61281523       0.47375674       0.75524297       0.17063190       0.03968227       0.14574965      -0.03456441       0.42841880       0.46047493       0.14822210
H        2.21965145       0.27107249       2.34331731       0.06580997       0.15328701      -0.41978831      -1.03616577       0.32038745      -1.10806971       0.13143148
H       -0.61133295      -1.16647517      -1.04985253       0.04744760       0.04064042      -0.35365126      -0.16674014      -0.23123975      -0.34913522      -0.06965588
H       -2.21965145      -0.79682151      -2.34331731      -0.18411165      -0.06323035      -0.08604821      -0.18813558      -0.55467955      -0.25880525      -0.07276046
H       -1.05531102       0.68202085      -1.72416878       0.01235441       0.00960845      -0.10809146       0.00383415      -1.05473223      -0.17691165      -0.09890539
N        1.37957847       0.44775420       1.73983107      -0.35179644      -0.43940763       0.42733045       2.46094593      -3.11893594       0.03988422      -0.43387079
8
Properties=species:S:1:pos:R:3:momenta:R:3:forces:R:3:charge:R:1 energy=-194.8951949032454 free_energy=-194.8951949032454 dipole="0.24733989706813314 0.3103582238506206 0.09250328093906264" pbc="F F F"
B       -1.21525526      -0.39342679      -1.73108807       0.30024002      -0.34826330      -0.22333800      -0.35415621      -0.90572773      -0.32195541       0.24012216
H        1.01832203       1.22009121       2.17454457      -0.36845500      -0.02779951      -0.00404336      -0.48097485       0.11011265      -0.58091846       0.14034633
H        1.82916012       0.63277215       0.84965058      -0.05954990      -0.14987611       0.23117921      -0.15487905      -0.08457176       0.53996756       0.14612736
H        2.14265332       0.20727761       2.43990104       0.07252569      -0.27553660       0.10122784      -0.03626170      -0.47920231      -0.75584088       0.13911759
H       -0.66223870      -1.22009121      -1.09241627      -0.19159940       0.15886378       0.08200811      -0.36008308       0.27395951      -0.24740680      -0.07380251
H       -2.14265332      -0.61224531      -2.43990104       0.04279292       0.05455670       0.14146873       0.33316408      -0.16739181       0.44360923      -0.08641861
H       -0.80134610       0.66148610      -1.78861745      -0.03269532      -0.16474327       0.17441036       0.38773444       0.80472124       0.12579439      -0.07987344
N        1.39981488       0.37895048       1.74563948       0.23674099       0.75279831      -0.50291288       0.66545637       0.44810023       0.79675037      -0.42561889
8
Properties=species:S:1:pos:R:3:momenta:R:3:forces:R:3:charge:R:1 energy=-194.68012665496758 free_energy=-194.68012665496758 dipole="0.29837024480741936 0.2830897078391826 0.03995373875637841" pbc="F F F"
B       -1.08167376      -0.47180027      -1.91997430       0.36923074      -0.15729838      -0.73335842       0.16934268       0.73781276       0.57904228       0.24361996
H        1.05511892       1.26914103       1.99743874       0.06594093      -0.03696956       0.02457371       0.27328511      -1.90686462      -1.07398241       0.12555203
H        1.95352855       0.59945265       0.81782293       0.05580049       0.07817409       0.17100240       0.92702873       0.14540346      -1.16283225       0.15320437
H        2.12217846       0.14931510       2.41839004      -0.04539346       0.18083017       0.13167868      -0.72401070      -0.25365045      -1.56475987       0.13504778
H       -0.56093284      -1.26914103      -1.19495647       0.00033688      -0.10102707       0.05663093      -0.21986071       0.50951248      -0.57790395      -0.07417728
H       -2.12217846      -0.72986620      -2.41839004      -0.19521582      -0.05475980       0.01054409       0.46739976       0.09258407       0.04914420      -0.08064807
H       -0.64462418       0.68017258      -1.97793438      -0.01757742       0.14574719       0.06408441      -0.41206799      -1.33333606      -0.05166397      -0.08877893
N        1.44585985       0.32250590       1.61182496      -0.23312234      -0.05469666       0.27484420      -0.48111690       2.00853836       3.80295596      -0.41381986
8
Properties=species:S:1:pos:R:3:momenta:R:3:forces:R:3:charge:R:1 energy=-194.8555034960121 free_energy=-194.8555034960121 dipole="0.0934586635794908 0.3155027587025523 0.15434682798124544" pbc="F F F"
B       -1.16468529      -0.42649982      -1.90164934       0.50476241       0.41189285       0.10206049       0.91626333       0.31083824      -0.31953121       0.23726303
H        0.70176864       1.09957751       1.93711611      -0.13239063      -0.15636529      -0.06340073      -1.18958601       1.45224622       0.11617078       0.15073291
H        1.99507540       0.69197223       0.98793563       0.07292525       0.01079251       0.22084076      -0.10212180       0.27649832      -0.10532651       0.14660943
H        1.96826904       0.32500014       2.59592098      -0.07637517      -0.07223053       0.12156446      -0.64408544       0.10147385      -0.97297827       0.13364865
H       -0.53424460      -1.09957751      -1.21839817       0.16430829      -0.15406882      -0.09305742      -0.12939760      -0.46308294       0.42408251      -0.07265584
H       -1.99507540      -0.77917462      -2.59592098       0.09720547       0.04663893      -0.03684016      -0.67059111      -0.32653421      -0.13609317      -0.07645609
H       -0.67254032       0.59580901      -2.12644236      -0.27837634      -0.28373309       0.03271983      -0.11086839       0.48370320       0.03396409      -0.08814299
N        1.37804540       0.43162467       1.73983009      -0.35205928       0.19707344      -0.28388723       1.93038701      -1.83514268       0.95971179      -0.43099911
8
Properties=species:S:1:pos:R:3:momenta:R:3:forces:R:3:charge:R:1 energy=-194.6727204969425 free_energy=-194.6727204969425 dipole="0.1629838165319477 0.30738928952680333 0.12069309338247554" pbc="F F F"
B       -1.01529931      -0.46703400      -1.94184786       0.48676079      -0.62631635      -0.10773838      -1.12379645       1.79856158      -0.76117689       0.24038214
H        0.56411027       1.07737613       1.80076933       0.08915899      -0.10084973       0.24987091       0.13729973      -0.35899588       0.42760939       0.14445502
H        2.01559167       1.00752139       1.05880751      -0.09742573       0.11652873      -0.13716688      -1.30674007      -1.31981988       0.89529832       0.12702846
H        1.88157466       0.28694335       2.50956861      -0.17551630       0.23558058      -0.24371526      -0.47049615       0.03770981       0.24565406       0.14548094
H       -0.45563440      -1.07737613      -1.19857703      -0.00669452       0.10605203       0.29819288       0.70296853      -1.21770126       0.84944045      -0.06511357
H       -2.01559167      -0.88986968      -2.50956861      -0.13403178      -0.24244160      -0.07956192       1.14505990       0.61606001       0.42653407      -0.08284402
H       -0.62979128       0.70942619      -1.91233447       0.23026945       0.11086157       0.02915758      -0.72305300      -1.18942353      -0.51257533      -0.09241666
N        1.33293307       0.42098585       1.66676090      -0.39252090       0.40058478      -0.00903893       1.63875752       1.63360915      -1.57078406      -0.41697232
8
Properties=species:S:1:pos:R:3:momenta:R:3:forces:R:3:charge:R:1 energy=-194.74119150632012 free_energy=-194.74119150632012 dipole="0.11553600491226076 0.3429195680751842 0.07286688321604894" pbc="F F F"
B       -1.01299788      -0.42674150      -1.85220290      -0.13970296      -0.21315670       0.23044441      -0.43320824      -2.75051804       1.19593383       0.23631705
H        0.42792352       0.99101709       1.86868280       0.09034958      -0.05869652       0.20909319      -1.21109391       0.62034419       0.75844811       0.15072558
H        1.76156093       1.09066606       0.98711627       0.25528181      -0.07294378       0.10813905      -0.53342954      -0.90241483       0.84995086       0.13194474
H        1.89077377       0.47547348       2.50427978       0.14254502       0.28790959      -0.14713842      -0.31689418       0.14871814       0.25732033       0.14607750
H       -0.51304682      -1.09066606      -0.96404968       0.09176155       0.22333366      -0.20260010      -0.39655946       0.57980692      -0.93469016      -0.07703155
H       -1.89077377      -0.80819703      -2.50427978       0.28439855      -0.15049912      -0.20691913      -0.09480965      -0.54529944      -0.09081026      -0.08644755
H       -0.82264934       0.62943559      -1.99069309       0.60713805       0.19954136       0.15756601       0.92641338       2.72557132      -0.16763737      -0.07281752
N        1.26520164       0.50826976       1.71264639      -1.33177159      -0.21548848      -0.14858501       2.05958159       0.12379175      -1.86851534      -0.42876823
8
Properties=species:S:1:pos:R:3:momenta:R:3:forces:R:3:charge:R:1 energy=-194.8743092881076 free_energy=-194.8743092881076 dipole="0.08159982324905397 0.35096988509965227 0.21042767474304444" pbc="F F F"
B       -1.09565899      -0.46716263      -1.75608523       0.85438379       0.45351163      -0.15424241       1.24010395       0.67850065       0.32747151       0.23690736
H        0.41360158       1.09511851       2.08265633      -0.13041003      -0.11393127       0.09331922      -0.83782318       0.04993266       0.65962852       0.14527072
H        1.63141790       1.06936141       1.16575355       0.28726277      -0.24914184       0.19464600       0.62926573      -0.05833251      -0.70746958       0.14437677
H        1.75620346       0.26488623       2.56472469      -0.09554394      -0.08751785      -0.06427272      -0.71453077       0.08898234      -0.60602595       0.13975988
H       -0.58009746      -1.09511851      -0.92053269      -0.01449510      -0.01647316       0.32323425      -0.26626878      -0.04322663       0.02612939      -0.07019920
H       -1.75620346      -0.88915106      -2.56472469      -0.05563914       0.12813798       0.13153760      -0.81130155      -0.58465120      -0.55066890      -0.07663800
H       -0.69910007       0.62467544      -1.93361619      -0.26090878      -0.03713098      -0.15350875      -0.15980059      -0.04172122       0.19550272      -0.09006100
N        1.11470582       0.45599248       1.76907230      -0.58464957      -0.07745450      -0.37071320       0.92035519      -0.08948410       0.65543230      -0.42941653
8
Properties=species:S:1:pos:R:3:momenta:R:3:forces:R:3:charge:R:1 energy=-194.88639464912077 free_energy=-194.88639464912077 dipole="0.1707699234832849 0.1865034535051875 0.2068560778990252" pbc="F F F"
B       -0.95967436      -0.47988171      -1.81795525       0.06522217      -0.04608985      -0.36724059      -0.83465871       0.26586771       0.63995769       0.23721500
H        0.29023536       0.77128055       2.00395938       0.02836442      -0.32578832      -0.04417440       0.07390163       0.16088733      -0.17371157       0.14246827
H        1.79711885       1.03284460       1.39702166       0.24516563       0.03744745       0.05502739       0.58457568       0.85342427      -0.28835968       0.14838862
H        1.52620220      -0.13586743       2.46352782       0.27160914       0.00196268       0.00908901       0.56765341      -0.64354995       0.90690612       0.14550689
H       -0.61811019      -1.03284460      -0.84989823      -0.05657681      -0.06835641       0.09019387       0.30798312      -0.04124783      -0.19482085      -0.07062177
H       -1.79711885      -0.96574494      -2.46352782       0.23651559       0.11643651      -0.21752700       0.19324125      -0.17508746      -0.28493061      -0.08455716
H       -0.84454220       0.67822730      -1.88415606      -0.23597284      -0.01692892      -0.08855876       0.32929671      -0.04169827      -0.16190213      -0.08203741
N        1.15263249       0.34431870       1.68784756      -0.55432730       0.30131686       0.56319047      -1.22199308      -0.37859581      -0.44313898      -0.43636244
8
Properties=species:S:1:pos:R:3:momenta:R:3:forces:R:3:charge:R:1 energy=-194.7187517583358 free_energy=-194.7187517583358 dipole="-0.11007804839044309 0.29448176848080937 0.22949428382340795" pbc="F F F"
B       -1.15839029      -0.40363231      -1.86527975      -0.36058627      -0.29283127       0.02395815       1.66776433      -0.49460910       1.15959788       0.23835956
H        0.05822278       0.71145467       1.79090252      -0.05635166      -0.22128165      -0.23701771      -1.18570438       0.62911755       0.23099006       0.14956927
H        1.61398862       1.16501143       1.30904765      -0.02257536      -0.18917260       0.21465840      -1.28482143      -1.32604842       0.95278530       0.13334994
H        1.34927903       0.07000726       2.58354605       0.19784995       0.22259624       0.14923779       0.05185102       0.17115097       0.23560194       0.14405668
H       -0.76806670      -0.98272403      -0.86041500       0.12234009       0.12466300      -0.09872587      -0.45194592       0.91245290      -0.57936197      -0.08577618
H       -1.61398862      -1.16501143      -2.58354605       0.00863406      -0.06624918       0.08404974      -0.60522492       0.07383401      -0.69940720      -0.07569584
H       -0.67588145       0.64729295      -2.14478565       0.22725314       0.01640419      -0.11571290      -0.61336454      -0.48562654       0.11613204      -0.07683853
N        0.98333480       0.40360954       1.71083538      -0.11656395       0.40587128      -0.02044761       2.42144585       0.51972864      -1.41633805      -0.42702491
8
Properties=species:S:1:pos:R:3:momenta:R:3:forces:R:3:charge:R:1 energy=-194.77451560974978 free_energy=-194.77451560974978 dipole="0.11076203554954792 0.37091136905172023 0.10004371482283489" pbc="F F F"
B       -0.98688752      -0.38092562      -1.97643202       0.13018801       0.03314055       0.07450111      -1.31592490      -0.36787276      -0.69258203       0.23743814
H        0.28853665       0.95912214       1.49954879      -0.12264475      -0.17777040      -0.02313755       0.59140284      -1.21818086       0.82153645       0.13773991
H        1.76852561       0.98469533       1.13647831      -0.13160674      -0.27132961       0.10689425       0.86436832      -0.32229262      -0.16245103       0.14242451
H        1.45812939       0.44495173       2.65325886       0.18857838       0.20521357       0.28278164      -0.63713098      -0.04218121      -1.18069135       0.13980182
H       -0.67673792      -0.68045026      -0.92370707      -0.14095740       0.04114935       0.15269241       0.27825254      -0.43785074       0.50642152      -0.06455715
H       -1.76852561      -0.98469533      -2.65325886      -0.08865668      -0.00344108       0.12631752       0.60801403      -0.00224438       0.48543009      -0.08897245
H       -0.80482864       0.68224722      -2.33195468      -0.00163355       0.19789061      -0.20728957       0.43399102       0.81497835      -0.29185413      -0.08380876
N        1.15298121       0.36825889       1.65141213       0.16673274      -0.02485298      -0.51275981      -0.82297286       1.57564421       0.51419050      -0.42006601
8
Properties=species:S:1:pos:R:3:momenta:R:3:forces:R:3:charge:R:1 energy=-194.92524026450195 free_energy=-194.92524026450195 dipole="0.034904925166642925 0.27046635651001555 0.026292370540409764" pbc="F F F"
B       -0.88759875      -0.22294264      -1.94311986       0.23145242       0.66518000       0.29386277      -0.21860366       0.75040325       1.15191873       0.24179965
H        0.27945878       0.65957189       1.59728284       0.25030371      -0.31143005      -0.24843400       0.59141903      -0.21145704       0.35596576       0.13867564
H        1.76524560       0.85618936       0.99534075      -0.20268977      -0.07263175       0.15116722       0.38704406       0.17485861       0.03807161       0.14448462
H        1.59638348       0.55778119       2.63355631       0.08347435      -0.06615375       0.17587817      -0.11687155       0.17816230      -0.34853884       0.14448310
H       -0.72254564      -0.07745694      -0.75679434       0.02693483       0.22853458      -0.11100916      -0.03733565      -0.37951181      -0.85769535      -0.08338663
H       -1.76524560      -0.85618936      -2.34440817      -0.09026853      -0.08185785       0.04824642      -0.02225755      -0.34038814      -0.05171564      -0.07669298
H       -0.37794693       0.55213537      -2.63355631       0.06198566      -0.30058307      -0.26739189       0.27607425      -0.03137778      -0.24662830      -0.08124061
N        1.25582891       0.35044758       1.69891514      -0.36119267      -0.06105810      -0.04231953      -0.85946894      -0.14068939      -0.04137797      -0.42812279
8
Properties=species:S:1:pos:R:3:momenta:R:3:forces:R:3:charge:R:1 energy=-194.89304984858921 free_energy=-194.89304984858921 dipole="-0.07938091686348352 0.34664597027815724 0.11329858381875971" pbc="F F F"
B       -0.96764179      -0.15035976      -1.80952467      -0.06413816      -0.49686289      -0.18868738       0.12306559       0.37290771      -0.16860676       0.24347147
H        0.27352835       0.55830536       1.77082854       0.25454236       0.24966088      -0.18053562      -0.31470717      -0.11634160       0.01371760       0.14557398
H        1.64794711       1.10885727       1.20820101      -0.28679989      -0.07380807       0.19902008       0.88749959       1.48785280      -1.80401518       0.15080912
H        1.61196105       0.68178639       2.68986685       0.08808379      -0.20495871      -0.26832619      -0.23173312      -0.46337008      -0.03139974       0.14074187
H       -0.92521402       0.49306453      -0.84030539      -0.09316727       0.28350904      -0.03304236      -0.14302741      -0.15712998       0.22442509      -0.08480267
H       -1.64794711      -1.10885727      -1.87524275       0.35818150       0.08395383       0.46692885       0.32493808       0.30897598      -0.10969089      -0.07534543
H       -0.33530482       0.32434131      -2.68986685      -0.18888335      -0.05841153       0.23608991      -0.30722352      -0.51941929       0.05633729      -0.08305260
N        1.27062951       0.41159125       1.76213623      -0.06781897       0.21691745      -0.23144728      -0.33881203      -0.91347553       1.81923260      -0.43739573
8
Properties=species:S:1:pos:R:3:momenta:R:3:forces:R:3:charge:R:1 energy=-194.59727337130775 free_energy=-194.59727337130775 dipole="0.08301174398454293 0.204764532066326 0.16661056469934418" pbc="F F F"
B       -1.05539699      -0.03712348      -1.63990192      -0.81058135       0.48142917       0.30523073      -0.06556180      -1.49817997      -2.41280171       0.24531372
H        0.23338009       0.78448092       1.98054475       0.42836182      -0.15631259      -0.01087891      -1.07149692       0.61273972       0.39147274       0.15584589
H        1.70192564       1.04948681       1.26762543      -0.01028806      -0.18098339       0.19893060       1.03170790       1.69189318      -2.08471892       0.14833023
H        1.73416673       0.44931944       2.70465822       0.21355774      -0.09543838      -0.53968115      -0.09545238      -0.04376714       1.16889911       0.14622929
H       -1.15396218       0.87806770      -1.00897066       0.24124033      -0.14046117       0.22793009      -0.13938510       0.89131519       1.07262014      -0.06807337
H       -1.73416673      -1.04948681      -1.52696161      -0.00069086      -0.32636312      -0.22365393       0.81247232       1.03218138       0.06822718      -0.08194301
H       -0.42978232       0.12969362      -2.70465822       0.41184230      -0.44217301      -0.15034624      -0.60331058      -0.42225373       1.28209613      -0.09524743
N        1.17847655       0.56704806       1.89992347      -0.47344192       0.86030249       0.19246883       0.13102655      -2.26392863       0.51420532      -0.45045532
8
Properties=species:S:1:pos:R:3:momenta:R:3:forces:R:3:charge:R:1 energy=-194.59639987324383 free_energy=-194.59639987324383 dipole="0.01733834774181902 0.26492003550853865 0.14939558295285388" pbc="F F F"
B       -1.09482812      -0.31378953      -1.75232399      -0.27614962      -0.97439717       0.00485669       2.11686249       2.75187389       1.99093538       0.24180309
H        0.46952971       0.64967037       2.14858693       0.35002167      -0.11916078       0.19362356      -1.09446074       0.67026259       0.02056931       0.14545325
H        1.65744519       1.06671453       1.08476027      -0.08420960       0.11451796      -0.00617156       0.43767070       0.69737472      -0.13993267       0.15352839
H        1.88443426       0.04680620       2.43841767      -0.07069305      -0.17581580      -0.33813747      -0.25202228       0.52765140      -1.49591635       0.13432414
H       -0.99319362       0.58140220      -0.80295244       0.00718334       0.20199260       0.01004380      -0.34470346      -1.39534032      -1.67703351      -0.10120031
H       -1.88443426      -1.06671453      -1.69375225      -0.47696445       0.19718720      -0.04196910      -1.70735369      -1.38894915      -0.05030760      -0.06417122
H       -0.16471909      -0.40311641      -2.43841767       0.18485644      -0.11161016       0.04176363      -0.06790891       0.03816423      -0.26755405      -0.07641594
N        1.26376381       0.34930147       1.64094393       0.36595528       0.86728614       0.13599045       0.91191588      -1.90103737       1.61923949      -0.43332141
8
Properties=species:S:1:pos:R:3:momenta:R:3:forces:R:3:charge:R:1 energy=-194.83575975551656 free_energy=-194.83575975551656 dipole="0.19877850308742154 0.10577313528141212 0.3330710343632537" pbc="F F F"
B       -1.11409992      -0.43778870      -1.84376235      -0.14763551       0.10006275       0.58169921       0.14382871      -1.25927488      -0.24937833       0.23787039
H        0.65493430       0.40678346       2.32037646       0.22316266      -0.25758838      -0.18119144      -0.41111018      -0.04530274      -0.04733389       0.14148311
H        1.68437598       1.24842185       1.50123153       0.21127113       0.01024754       0.22834473       1.31257663       2.20682928      -0.25653160       0.15474117
H        1.94753281      -0.34077479       1.71864096      -0.42118086      -0.09549848      -0.22001746      -0.83784840       0.97936833      -0.59927071       0.13527120
H       -1.33989264       0.51159834      -1.28228376      -0.13905669       0.14544039      -0.31677135       0.07240585       1.04034620       0.33943975      -0.06909529
H       -1.94753281      -1.24842185      -1.83843347       0.25506669      -0.13405313       0.02881790      -0.17957641      -0.12863675      -0.11877670      -0.08984167
H       -0.09514537      -0.75344257      -2.32037646      -0.08986012      -0.17375986       0.37574083      -0.03606657       0.34929253       0.02487232      -0.07898532
N        1.22966241       0.39911673       1.48466517       0.10823271       0.40514917      -0.49662242      -0.06420964      -3.14262196       0.90697915      -0.43144360
8
Properties=species:S:1:pos:R:3:momenta:R:3:forces:R:3:charge:R:1 energy=-194.76192322942984 free_energy=-194.76192322942984 dipole="0.22054475222017547 -0.16382118242214067 0.2732553629805296" pbc="F F F"
B       -1.16518922      -0.33546528      -1.79133176       0.36598295      -0.06406891       0.78938334       0.25075824       0.16044260      -0.82459937       0.24088242
H        0.78875627       0.48635866       2.30691411      -0.02240353       0.00852099      -0.06095221      -0.30605661      -0.05890146       0.98212191       0.14588068
H        1.98886755       1.20466441       1.49788905       0.16718830       0.12802134      -0.20695312       2.55016437       1.69820359       0.31464701       0.15757862
H        1.45615838      -0.27007054       1.03022822      -0.29580074       0.08279874       0.13719690       0.10222590       0.40887212       0.15843551       0.13816946
H       -1.37405419       0.79687874      -1.60181746      -0.12521338      -0.16593421       0.06751734      -0.48954021      -0.13544629       0.38147059      -0.07751016
H       -1.98886755      -1.20466441      -1.75473588       0.21027515      -0.03424057       0.24020175       0.69664121       0.59327729       0.12231806      -0.07724745
H       -0.09397264      -0.41695389      -2.30691411      -0.02423052      -0.09191392      -0.05564442      -0.45402926      -0.61484839       0.32305082      -0.08618881
N        1.23179815       0.63622528       1.43827627      -0.27579822       0.13681653      -0.91074957      -2.35016362      -2.05159947      -1.45744452      -0.44156476
8
Properties=species:S:1:pos:R:3:momenta:R:3:forces:R:3:charge:R:1 energy=-194.66413909201142 free_energy=-194.66413909201142 dipole="0.17001185901142143 -0.1381427974483683 0.11757136056378466" pbc="F F F"
B       -1.27571536      -0.24411166      -1.80214082      -0.41847236      -0.01191465       0.40709577       0.27772173      -1.09165312       1.32145781       0.23818288
H        0.72938079       0.70874075       2.19137317      -0.19521723       0.01615608       0.06076429      -1.51717704      -0.54090225       2.47467462       0.15486154
H        1.97563732       1.14450141       1.43939076       0.31837268       0.32196071      -0.31595724      -0.50416882      -0.26759955      -0.72697789       0.13842304
H        1.21478390      -0.24975647       0.92481558       0.07269849       0.05478616       0.17848821      -0.35783182       1.27191657       0.64326775       0.13751716
H       -1.34796804       0.76802114      -1.26289752       0.34888382      -0.06155763      -0.16376309      -0.40282579       0.52975782      -0.14428453      -0.06904607
H       -1.97563732      -1.14450141      -1.41659887      -0.20612288      -0.09634830       0.09857027       0.22654523       0.64746785      -0.64891190      -0.08779681
H       -0.21241108      -0.50807522      -2.19137317       0.44171828      -0.08002716      -0.07233414      -0.09815050      -0.09416374      -0.52827583      -0.08140731
N        1.03835644       0.72332432       1.28345846      -0.36186080      -0.14305521      -0.19286406       2.37588701      -0.45482359      -2.39095003      -0.43073444
8
Properties=species:S:1:pos:R:3:momenta:R:3:forces:R:3:charge:R:1 energy=-194.76872217627118 free_energy=-194.76872217627118 dipole="0.2914613160381519 -0.18068667190707033 0.21669547414326884" pbc="F F F"
B       -1.08065995      -0.38185317      -1.70088615       0.52603928      -1.01623481       0.66324765      -0.96979493      -0.43551013       0.28787684       0.24192939
H        0.83876230       0.41911630       2.13634268      -0.15373370       0.03462754      -0.00071835      -0.95373215      -0.06439812       2.75037201       0.15014833
H        1.92396195       1.22593481       1.31440952       0.17641331       0.32231459       0.08527191       0.24156932      -0.13569980      -0.27635854       0.15021893
H        1.24953513      -0.26345689       0.86030986      -0.05716284       0.29437975      -0.16175593       0.30242320       1.08605552      -0.44041677       0.13752129
H       -1.33769827       0.75757942      -1.44003766      -0.47587342      -0.15584494      -0.10166562       0.43190435      -0.78451769      -0.28148720      -0.06852473
H       -1.92396195      -1.22593481      -1.51923486       0.12976339       0.33190817      -0.24597472       0.36037801       0.70674988      -0.01618740      -0.09464092
H       -0.10539154      -0.84847038      -2.13634268      -0.09226168      -0.09226008      -0.01406724       0.18056140       0.51181373       0.00789811      -0.07899905
N        1.07353637       0.68737752       1.24181638      -0.05318434       0.28110977      -0.22433769       0.40669080      -0.88449339      -2.03169703      -0.43765325
8
Properties=species:S:1:pos:R:3:momenta:R:3:forces:R:3:charge:R:1 energy=-194.80391921344128 free_energy=-194.80391921344128 dipole="0.20826510619265817 -0.20699736115826678 0.1998893128361801" pbc="F F F"
B       -1.05782592      -0.59798633      -1.56758916      -0.43433098      -0.04576131       0.48839885       1.68378489       0.69150071      -0.97364017       0.23887223
H        0.80358170       0.02139272       1.99265603       0.30772975      -0.53247734      -0.12150865      -0.21345396       0.14355880       1.27523987       0.14358585
H        1.96094146       1.19845870       1.57045285      -0.02748203      -0.14635494       0.28080683       0.00349152      -0.59889519       0.09724020       0.15363306
H        1.51252091      -0.16724488       0.64479498      -0.00955680      -0.00682329       0.13180670       0.73201218       0.27638135      -0.53590485       0.14196377
H       -1.13653084       0.54826993      -1.63233660       0.01125826       0.19939572       0.09225497      -0.17194178       0.48828800       0.17301573      -0.07965734
H       -1.96094146      -1.19845870      -1.30332424       0.09350212      -0.03014402       0.14329958      -0.87829313      -0.95032984       0.40162959      -0.07007506
H       -0.01600590      -0.99791946      -1.99265603      -0.18567983      -0.05155264       0.04734037      -0.62608458      -0.22717873       0.40159755      -0.08929543
N        1.23566024       0.55783257       1.28109063       0.24455951       0.61371781      -1.06239866      -0.52951513       0.17667490      -0.83917792      -0.43902708
8
Properties=species:S:1:pos:R:3:momenta:R:3:forces:R:3:charge:R:1 energy=-194.92879912429814 free_energy=-194.92879912429814 dipole="0.2881256761375177 -0.13255852031938412 0.21632156572649816" pbc="F F F"
B       -1.07735325      -0.56657264      -1.52909325      -0.41245974       0.52365605      -0.44312079      -1.12301940      -0.04863277       0.43785006       0.24272903
H        0.91041109       0.22554042       2.12991267      -0.28385012      -0.15770916       0.10831963      -0.21308374      -0.49108709       0.56014039       0.14719593
H        1.98312389       1.31559485       1.58725194      -0.26886994       0.12913688      -0.14504476       0.02531528       0.12925099       0.07770814       0.14431613
H        1.80704856      -0.06751797       0.76951827      -0.08748301      -0.62611859       0.06282362      -0.03225784      -0.32665268       0.02619554       0.14335764
H       -1.15037999       0.60790470      -1.35239995       0.02847231      -0.49044193       0.04106586      -0.03829547      -0.64105043      -0.00678063      -0.07475661
H       -1.98312389      -1.31559485      -1.14723968       0.04194290       0.03880089      -0.11653658       1.06620798       0.85736202      -0.40390473      -0.08967720
H       -0.17866937      -0.97969485      -2.12991267       0.19074906       0.18909097      -0.22670369       0.09738882      -0.16685621      -0.02674128      -0.07848642
N        1.30690293       0.61889947       1.30879027       0.79149854       0.39358489       0.71919671       0.21774437       0.68766618      -0.66446749      -0.43467850
8
Properties=species:S:1:pos:R:3:momenta:R:3:forces:R:3:charge:R:1 energy=-194.76320532003356 free_energy=-194.76320532003356 dipole="0.21234952201660579 -0.2099733818406228 0.12362320751297917" pbc="F F F"
B       -1.23710024      -0.49585313      -1.46353384       0.35352982       0.46241266      -0.41234130      -0.37134552       1.69610810       0.89240575       0.23766084
H        0.57094513       0.24332465       2.32851418      -0.10304346      -0.10909264      -0.01809876       0.89625815       0.18855550      -1.37513316       0.14027738
H        1.85841457       1.21800338       1.94802816       0.13898845       0.05450691       0.27560789       0.04257434       0.00645222       0.06418350       0.14071431
H        1.44423100       0.12474099       0.85444272      -0.16588002      -0.09322748      -0.24542421       0.71818029      -2.02518863      -1.59897478       0.15328095
H       -1.40212115       0.62197764      -1.03767119      -0.14289566       0.02080485       0.04614856       0.38196124      -0.54595044      -0.61999586      -0.08651129
H       -1.85841457      -1.21800338      -0.84133797      -0.08916329      -0.37409650       0.11269255      -0.24692779      -0.96023967       0.08090127      -0.07878265
H       -0.53043282      -0.73226626      -2.32851418      -0.31451853      -0.06594479      -0.03279386       0.23941458      -0.19103296      -0.35085226      -0.07245087
N        1.09896667       0.69046206       1.54193125       0.32298270       0.10463699       0.27420913      -1.66011530       1.83129588       2.90746554      -0.43418868
8
Properties=species:S:1:pos:R:3:momenta:R:3:forces:R:3:charge:R:1 energy=-194.68338825324645 free_energy=-194.68338825324645 dipole="0.2151949764686827 -0.1899636660733968 0.28020197742515296" pbc="F F F"
B       -1.28489877      -0.34157668      -1.38884130       0.12622761       0.04097533      -0.26718297       1.44310730      -4.09167072      -2.60166627       0.23816672
H        0.36850547       0.47014441       2.36341816       0.24748108       0.24614770      -0.12004121       0.74427504       0.27163234      -0.55224804       0.14146583
H        1.80518749       1.31632029       2.03052866       0.32972209      -0.14187185       0.09777712      -0.74280057      -0.55378346      -0.17527726       0.14246724
H        1.30193428       0.08566283       1.02819789      -0.09826011      -0.40905791       0.07709950      -0.04721410       0.08085556       0.25303318       0.13891843
H       -1.52794795       0.65674330      -1.16466883      -0.12351512      -0.20126989       0.08560390      -0.96934044       3.79706215       1.25247287      -0.05366669
H       -1.80518749      -1.31632029      -1.03923869       0.12261398       0.04836171       0.04581171      -0.13838266       0.03765433       0.48593847      -0.08237429
H       -0.57623679      -0.54570037      -2.36341816       0.12114023       0.02394144       0.15452022      -0.33046359       0.26171672       0.87095294      -0.10227230
N        0.98192296       0.84495555       1.62162792      -0.72540978       0.39277348      -0.07358828       0.04081902       0.19653307       0.46679411      -0.42270495
8
Properties=species:S:1:pos:R:3:momenta:R:3:forces:R:3:charge:R:1 energy=-194.93362831057988 free_energy=-194.93362831057988 dipole="0.18155883768261621 -0.19943449283614897 0.31645576480174414" pbc="F F F"
B       -1.35158169      -0.37212944      -1.41614624       0.38524022      -0.32363245      -0.50831769      -0.72680633      -0.18083756      -0.17939817       0.24293820
H        0.17116283       0.91527271       2.41236593       0.19828469       0.14331440       0.01125699       0.69664880       0.05830811      -0.58527635       0.14147715
H        1.76932768       1.30696486       2.08297940      -0.14785155      -0.04219202       0.01270716      -0.74068235      -0.28826381      -0.23414100       0.14163203
H        1.04797817       0.02651549       1.33220710      -0.03696613      -0.24734926       0.08326107       0.00429096      -0.01817472       0.02066271       0.13984911
H       -1.76874379       0.70782364      -1.13123439       0.25154876      -0.18316058      -0.21350253       0.49362375      -0.55877160      -0.21702549      -0.07402805
H       -1.76932768      -1.30696486      -0.82308395      -0.16740402      -0.28047561       0.18074158       0.24448535       0.34443491       0.02996658      -0.08820466
H       -0.77517199      -0.63599484      -2.41236593      -0.19120432      -0.07558045      -0.05306125      -0.00812623       0.39955610       0.37310294      -0.08079070
N        0.88660841       0.96857076       1.66534870      -0.29164765       1.00907597       0.48691468       0.03656604       0.24374858       0.79210879      -0.42287309
8
Properties=species:S:1:pos:R:3:momenta:R:3:forces:R:3:charge:R:1 energy=-194.87770914587543 free_energy=-194.87770914587543 dipole="-0.003224107986132186 -0.20792079375422237 0.2618392520351614" pbc="F F F"
B       -1.29804330      -0.25743039      -1.41433099      -0.41949615       0.13026663      -0.73708957      -0.23546913       1.16619791       0.31195540       0.24174196
H        0.12918089       1.26891175       2.41765649       0.04348130       0.29570455      -0.23472652       0.89500294      -0.24122752      -0.60099761       0.13535030
H        1.77264141       1.22647870       2.32512360       0.06251132      -0.20495689       0.15030717       0.66181652      -0.40136185       0.35034239       0.15193457
H        0.80435778       0.05804601       1.49521079       0.05862810      -0.38107724       0.09843488       0.61209551       1.02983466       0.60462689       0.13877828
H       -1.77264141       0.66661408      -0.82144251       0.29359830      -0.21584849       0.41584555       0.25188024      -0.34709418      -0.41372734      -0.08753802
H       -1.45600883      -1.26891175      -0.88261313       0.07234497       0.41218000      -0.06749896       0.17916670      -0.43696593      -0.23927198      -0.07853204
H       -0.72372199      -0.02526494      -2.41765649      -0.02148278       0.11549720      -0.03594661      -0.19156748      -0.38159802       0.34948506      -0.07569457
N        0.94496640       1.03811947       1.81220644      -0.08958506      -0.15176577       0.41067405      -2.17292529      -0.38778508      -0.36241282      -0.42604049
8
Properties=species:S:1:pos:R:3:momenta:R:3:forces:R:3:charge:R:1 energy=-194.83413249708696 free_energy=-194.83413249708696 dipole="-0.02597786147856438 -0.22334297475217083 0.3493980443792947" pbc="F F F"
B       -1.39196140      -0.25310285      -1.35727686      -0.23189831      -0.45275052      -0.23769515       0.59183398      -1.48079512      -2.37767991       0.23807524
H        0.08870073       1.40072510       2.41461859       0.29938519       0.19813244      -0.01257044      -0.56803417       0.05162464       0.35365906       0.14978083
H        1.67512482       1.13246322       2.30933627       0.02184174       0.00150148      -0.17878052       0.49266252       0.59066162       0.34324627       0.14358275
H        0.75146027       0.16043570       1.52920820       0.21118346      -0.25391464       0.01588444      -0.54516860       0.97336024      -0.04539373       0.13608942
H       -1.43428925       0.48137386      -0.53318854       0.27074662      -0.16449759       0.21509594      -0.21597130       0.95816119       1.36555803      -0.05868521
H       -1.67512482      -1.40072510      -1.35081758       0.01773690       0.18048612      -0.09052193      -0.12040557       0.40254561       0.45419651      -0.08665242
H       -0.92143411       0.05402099      -2.41461859       0.07442524      -0.02197797       0.11403880      -0.25215174       0.12035886       0.55740930      -0.09264295
N        0.82208684       1.17081390       1.77860501      -0.66342083       0.51302068       0.17454885       0.61723488      -1.61591705      -0.65099552      -0.42954764
8
Properties=species:S:1:pos:R:3:momenta:R:3:forces:R:3:charge:R:1 energy=-194.66511896592144 free_energy=-194.66511896592144 dipole="-0.013898353808012217 -0.08570611076918148 0.1493309203693686" pbc="F F F"
B       -1.29779479      -0.39136571      -1.27786740       0.09903131       0.74537324       1.24096217      -0.57991200      -0.54653283       0.55685564       0.24214698
H        0.24768257       1.50206303       2.22362239       0.33443736      -0.10513192      -0.25403435      -2.64991111       1.87023809       1.71071262       0.15636303
H        1.82051449       1.02827705       2.21814237       0.14954878      -0.13478492      -0.00087138       0.19089799      -0.23264042       0.27798794       0.14453859
H        0.63214608       0.08383838       1.43950732       0.07202438       0.18193229      -0.15493873       0.07192934       0.13091865       0.38878101       0.14223234
H       -1.34506296       0.42004337      -0.41701894       0.20134297      -0.20792088      -0.56428295      -0.14400860      -0.52648522      -0.11853371      -0.07819837
H       -1.82051449      -1.50206303      -1.19208081      -0.03640243       0.34925355      -0.17761962       0.60353377       1.25964743      -0.05031487      -0.08634490
H       -0.74236929      -0.03730054      -2.22362239      -0.11374374      -0.13282440      -0.22284209       0.11816929      -0.18721131      -0.38987779      -0.07711297
N        0.90653313       0.96491733       1.83581462      -0.70623863      -0.69589695       0.13362695       2.38930131      -1.76793440      -2.37561085      -0.44362470
8
Properties=species:S:1:pos:R:3:momenta:R:3:forces:R:3:charge:R:1 energy=-194.8596562931103 free_energy=-194.8596562931103 dipole="-0.05877803128278859 -0.3052284964567107 0.2547303341783705" pbc="F F F"
B       -1.30696384      -0.33014441      -1.20455645      -0.14848068       0.27836854       0.34010181       0.48974510       1.31345950      -0.67890933       0.23864026
H        0.15060901       1.27159992       2.33401552      -0.07184115       0.21752136      -0.02716679      -1.11378498       0.50199930       1.25025889       0.15210783
H        1.76745246       0.84730645       2.29501307       0.19139418      -0.14727033      -0.05227289      -1.67314545       0.65083906      -0.89060525       0.13222730
H        0.65405096       0.22736490       1.26907796       0.01453097       0.16318920      -0.26247709      -0.07293837      -0.31141706      -0.44783724       0.14153269
H       -1.23176172       0.61810768      -0.50984942       0.05318760      -0.07170572       0.08491641       0.06920861      -0.23388521      -0.30384573      -0.07492045
H       -1.76745246      -1.27159992      -0.82438895       0.08213742      -0.16539700       0.17942047      -0.59330586      -1.27885395       0.64663507      -0.07903791
H       -0.97162536      -0.32254005      -2.33401552       0.06116789      -0.05071303       0.15550051       0.02555484       0.19828790       0.32492908      -0.08404709
N        0.89127666       1.09302930       1.72227008      -0.18209624      -0.22399302      -0.41802242       2.86866611      -0.84042952       0.09937451      -0.42650261
8
Properties=species:S:1:pos:R:3:momenta:R:3:forces:R:3:charge:R:1 energy=-194.72744158983966 free_energy=-194.72744158983966 dipole="-0.057574366463365084 -0.1325690185314633 0.1333466045670355" pbc="F F F"
B       -1.20200189      -0.48233589      -1.21625651      -0.14837498      -0.05549497      -0.71879618      -1.21287161      -0.99304384       1.17183081       0.24303981
H        0.44785157       1.43213488       2.24364954      -0.01801125      -0.07706214      -0.10481419      -1.45579473       0.94929287       0.83117926       0.14939459
H        1.67786662       0.40932096       2.27145228      -0.26222687      -0.13246720       0.01788305       0.29807049      -0.72723161       0.10748682       0.14394601
H        0.58156781       0.35063811       0.98745012      -0.16471449      -0.27730793       0.11333840      -0.85335125      -1.09157750      -0.90131088       0.15301936
H       -1.37095640       0.57711912      -0.80709156      -0.21246327       0.05268499       0.19678461       0.03839952       0.40785586       0.35803555      -0.07910715
H       -1.67786662      -1.43213488      -0.58504491      -0.02287029       0.24515205       0.10795767       0.72664354       0.96303451      -0.74896376      -0.09095537
H       -0.80427846      -0.56446850      -2.27145228       0.05210641       0.11394463       0.13510140       0.45724878      -0.37087915      -0.77074859      -0.07276405
N        0.99720493       0.84973563       1.70341839       0.77655475       0.13055058       0.25254524       2.00165525       0.86254886      -0.04750921      -0.44657319
8
Properties=species:S:1:pos:R:3:momenta:R:3:forces:R:3:charge:R:1 energy=-194.79715174936638 free_energy=-194.79715174936638 dipole="-0.22711761937028926 -0.1300266942140038 0.19357642312400195" pbc="F F F"
B       -1.21499785      -0.62994970      -1.40587867       0.58981607      -0.05336533      -0.59387912       0.83658423       1.50704180      -2.29368104       0.23913819
H        0.43075886       1.42560222       1.94372638       0.17787286       0.23936549      -0.02168596       0.38911509      -0.36083438       0.00551804       0.13856410
H        1.51280570       0.29220627       2.44325359      -0.02931016       0.30796972       0.10823661       0.16499703      -0.72979258       0.70197170       0.15145394
H        0.61017888       0.09856846       1.04386252       0.13904820      -0.12814983      -0.57696616      -0.39561111      -1.05670515      -0.41394173       0.14713694
H       -1.40666771       0.46415035      -1.12592911      -0.01928928      -0.02021288      -0.32947683       0.05217561       0.52679147      -0.00465423      -0.07829703
H       -1.51280570      -1.42560222      -0.75360084       0.01734926       0.13931959       0.18985252      -0.91198663      -2.39896978       2.23043370      -0.07446700
H       -0.78195180      -0.97179317      -2.44325359       0.00445995       0.08241489      -0.07888756       0.03656569       0.37164529       0.08429614      -0.08641853
N        1.09433226       0.70257079       1.65125022      -0.87994689      -0.56734165       1.30280650      -0.17183992       2.14082333      -0.30994258      -0.43711063
8
Properties=species:S:1:pos:R:3:momenta:R:3:forces:R:3:charge:R:1 energy=-194.79783080620908 free_energy=-194.79783080620908 dipole="-0.2639001242628649 -0.09794662594314724 0.033617437910111764" pbc="F F F"
B       -1.16842185      -0.64799999      -1.52220607      -0.23001405      -0.11607577       0.13019218       0.70398973      -0.23262445       0.17800518       0.24259440
H        0.45063871       1.40843475       1.68970318       0.01626655      -0.07002459      -0.10592056      -0.13652373      -0.28712610       0.24045757       0.14334397
H        1.34074994       0.20990265       2.51348146       0.05275931       0.00287651       0.20491243      -0.31059203      -0.37637659       0.26562184       0.15202325
H        0.85853049      -0.00672088       0.84975814      -0.20336186      -0.02267555      -0.08668790       0.04212210       0.42750594       1.22891265       0.13717990
H       -1.34074994       0.47877509      -1.40515887       0.16907743       0.17319311       0.06809302      -0.42423370       0.46738298       0.32018223      -0.07903615
H       -1.22729902      -1.40843475      -0.62872057       0.14161749       0.53207683      -0.24954775      -0.19862599       0.17723274      -0.26605541      -0.08054834
H       -0.63462279      -0.92060216      -2.51348146       0.14492788       0.12127721      -0.03401661      -0.06942308      -0.40895829      -0.21434356      -0.08300325
N        1.05339678       0.60766525       1.65312260      -0.09127276      -0.62064775       0.07297519       0.39328670       0.23296378      -1.75278049      -0.43255378
8
Properties=species:S:1:pos:R:3:momenta:R:3:forces:R:3:charge:R:1 energy=-194.624249330255 free_energy=-194.624249330255 dipole="-0.3301319646054212 0.031869777325263665 0.03483642199992612" pbc="F F F"
B       -0.71357810      -0.68292793      -1.49250709       0.03212209       0.42351236       0.50063615      -1.04008091      -1.09429471       0.30184672       0.24403366
H        0.92651215       1.34113194       1.60868062       0.31466193       0.01075505      -0.21187720       0.39206858       0.55398919       0.15026204       0.14243810
H        1.08919041       0.04486748       2.47336608      -0.18799509      -0.40602433      -0.17150609      -0.00719683      -0.61639397       0.95931848       0.15020860
H        0.99278081      -0.03769827       0.86255909       0.11197688       0.02158098       0.02178619       1.11311405       0.35643588       1.01181421       0.13242847
H       -1.46813493       0.19045537      -1.40492490       0.13319759       0.01553605      -0.55589752       0.32859609       0.82487627      -0.70764882      -0.08037156
H       -1.01928557      -1.34113194      -0.53776858      -0.17778246       0.01703246       0.02259904       0.96582394      -0.25026495      -0.46618732      -0.09457810
H       -0.16758201      -1.10726029      -2.47336608      -0.16619108       0.12990569       0.05201201      -0.23054680       0.53186612       0.89939277      -0.06958838
N        1.46813493       0.48258638       1.66428901      -0.05998987      -0.21229826       0.34224741      -1.52177811      -0.30621382      -2.14879809      -0.42457078
8
Properties=species:S:1:pos:R:3:momenta:R:3:forces:R:3:charge:R:1 energy=-194.9041357387734 free_energy=-194.9041357387734 dipole="-0.33623026604169676 -0.0032312724537571875 -0.00391381821504395" pbc="F F F"
B       -0.93826359      -0.59322344      -1.52248818      -0.21733898      -0.43901900      -0.39871270      -0.48756663      -0.42304832      -0.25357348       0.24300643
H        0.85655305       1.43166538       1.50263274       0.03338518      -0.25659817      -0.07417763      -0.44929542       1.46841292       0.18707854       0.14771724
H        0.91209477       0.12694847       2.46449105       0.12135560       0.00479129       0.01235809       0.38582888       0.29295944      -0.73586641       0.14258620
H        1.03948938       0.07113490       0.83026301      -0.08359675      -0.07675660       0.09657950      -0.16349705      -1.16873132      -0.99866012       0.14443115
H       -1.32737732       0.50421181      -1.47969297       0.03826794       0.34027294       0.20137301       0.17687159      -0.05330947       0.16662737      -0.07727298
H       -1.26213072      -1.43166538      -0.78087007      -0.29892929      -0.08679523       0.07690047      -0.00656898       0.26182040       0.38421817      -0.08426226
H       -0.42019090      -1.01926921      -2.46449105      -0.15565539       0.16876740       0.08787507       0.34041938       0.22507219      -0.27242134      -0.08208171
N        1.32737732       0.57490689       1.62670575       0.56251169       0.34533737      -0.00219582       0.20380823      -0.60317583       1.52259727      -0.43412407
8
Properties=species:S:1:pos:R:3:momenta:R:3:forces:R:3:charge:R:1 energy=-194.5882968083604 free_energy=-194.5882968083604 dipole="-0.47873242393753257 -0.028150904875372022 -0.0795975092514884" pbc="F F F"
B       -1.03388423      -0.67611339      -1.54230929      -0.30018973      -0.32330227       0.12232829       2.63249618       1.88008959      -0.88521271       0.24327489
H        1.06120351       1.32218641       1.67832318       0.10067704       0.03498553      -0.14516871      -0.37252657       0.23110044      -0.27607958       0.14820906
H        1.05428800      -0.11530235       2.43525415       0.05774837      -0.19740531      -0.06733734      -0.63929341      -0.80502063       1.46796754       0.14774119
H        1.07857177      -0.13560935       0.82787120       0.08771393      -0.03883174      -0.23322067      -0.45237487      -0.03591980      -0.75333572       0.14464154
H       -0.84953277       0.45076441      -1.19269693      -0.14055099       0.15831107       0.01117014      -0.61272813      -0.14991497      -0.32391498      -0.09530198
H       -1.33970416      -1.32218641      -0.69162474       0.41819973      -0.00288559      -0.04181992      -0.79501404      -1.37982544       0.64488967      -0.06508715
H       -0.23570157      -0.91452721      -2.43525415      -0.12436088      -0.11520541       0.06827291      -1.21777798      -0.34642921       0.58212372      -0.08296715
N        1.33970416       0.36508746       1.64033334      -0.09923747       0.48433372       0.28577530       1.45721882       0.60592002      -0.45643794      -0.44051040
8
Properties=species:S:1:pos:R:3:momenta:R:3:forces:R:3:charge:R:1 energy=-194.88946096772295 free_energy=-194.88946096772295 dipole="-0.41257078222836535 0.004698145833636337 -0.007128851549772542" pbc="F F F"
B       -1.03297578      -0.60562384      -1.34931585       0.52076662      -1.31206344       0.26128316       0.51326030      -0.84985061      -0.94183846       0.24677477
H        0.83349215       1.46036052       2.04996528      -0.15135937       0.28883364       0.16081601       0.34936608      -0.17183157       0.49377732       0.13964346
H        0.95617843      -0.12249052       2.46379033       0.13034732      -0.09924257      -0.18547396      -0.19485317      -0.14905332      -0.32766249       0.14896490
H        0.92014348       0.46435946       0.84508817      -0.16586155       0.20083726       0.13266919       0.53915263      -0.69178518       1.20011866       0.13605345
H       -1.13004004       0.49885170      -1.05930232       0.06244639       0.15044791      -0.27027841      -0.10246051       0.46058357       0.16933803      -0.07998422
H       -1.29696646      -1.46036052      -0.57764009      -0.10630813       0.11710387       0.05160192       0.08966569       0.27431981      -0.35458915      -0.07972433
H       -0.59262906      -0.86108921      -2.46379033      -0.03779666       0.22663189      -0.26516933      -0.48687461       0.12658475       1.14572082      -0.08703254
N        1.29696646       0.57709432       1.81919456      -0.25223461       0.42745144       0.11455143      -0.70725641       1.00103255      -1.38486471      -0.42469551
8
Properties=species:S:1:pos:R:3:momenta:R:3:forces:R:3:charge:R:1 energy=-194.895369101317 free_energy=-194.895369101317 dipole="-0.34220962095515983 -0.006540632283146031 0.06316891896155287" pbc="F F F"
B       -1.09379569      -0.70651630      -1.40920841      -0.67947280       0.42833933      -0.41877583      -0.27733335      -0.11601884       0.95482234       0.24319920
H        1.00964588       1.39633416       2.27816151       0.35577436      -0.02963106       0.15115053      -0.18823852       0.02532813       0.41185731       0.14809328
H        1.06604820      -0.31522824       2.42541813       0.12795192       0.05444100      -0.11143011       0.25002639       1.72447573      -0.81330871       0.13606234
H        0.66578072       0.44446457       0.97071805       0.01935553      -0.27698256       0.29437735       0.91490775       0.12860831       1.26758097       0.13210451
H       -1.28134439       0.40668578      -1.21137567      -0.46684327      -0.18578337      -0.01558358       0.00420766       0.59532195      -0.16809872      -0.08313943
H       -1.22963748      -1.39633416      -0.48193505       0.08167362       0.01413027       0.25735853       0.06791491      -0.23214447       0.01215437      -0.08746297
H       -0.85070107      -1.14036424      -2.42541813      -0.25542155      -0.24646478       0.17908539       0.21791864      -0.23861498      -0.78132444      -0.07230682
N        1.28134439       0.54076487       1.82834920       0.81698221       0.24195117      -0.33618229      -0.98940348      -1.88695585      -0.88368312      -0.41655012
8
Properties=species:S:1:pos:R:3:momenta:R:3:forces:R:3:charge:R:1 energy=-194.9126692132738 free_energy=-194.9126692132738 dipole="-0.3746613655108707 0.010644756518184953 0.20249694763754755" pbc="F F F"
B       -1.19546920      -0.72574645      -1.48329630      -0.65949656      -0.62623839      -0.34359997       0.15390006      -0.24442482       0.76544432       0.24287611
H        1.33875828       1.38118391       2.39528347       0.26604571      -0.08196798      -0.09548196       0.16681543       0.05247134       0.15198585       0.14675251
H        1.24635584      -0.24187906       2.45420654       0.03173815      -0.06754353      -0.19478589       0.47431703      -0.80244209       1.01706730       0.14806327
H        0.47329879       0.49139356       1.35333509       0.16941335      -0.18661091       0.19873842       0.69999105       0.38807537      -0.21663606       0.13760821
H       -1.32780864       0.40095295      -1.29801212       0.16045202       0.06098034       0.04954377      -0.07494798       0.49184790      -0.28072075      -0.08155621
H       -1.38325013      -1.38118391      -0.53028815      -0.41917390      -0.03732332      -0.23811524      -0.03978915      -0.19954659      -0.22685637      -0.08817301
H       -0.77255125      -1.17970957      -2.45420654       0.35570875      -0.04215308      -0.13415602      -0.03208868      -0.04236216      -0.24213595      -0.07301742
N        1.38325013       0.53114233       1.84832345       0.09531249       0.98085687       0.75785688      -1.34819777       0.35638104      -0.96814835      -0.43255347
8
Properties=species:S:1:pos:R:3:momenta:R:3:forces:R:3:charge:R:1 energy=-194.88860635615245 free_energy=-194.88860635615245 dipole="-0.2500274788713093 0.00814153647264851 0.23857674190614026" pbc="F F F"
B       -1.12746560      -0.70025794      -1.56406702      -0.18108759      -1.27132548      -0.24247434      -0.87268791       0.84148750       0.78786196       0.24359455
H        1.48162322       1.54240191       2.43834761       0.02329117       0.12379345      -0.14136341       0.28989813      -1.02447894      -0.28594958       0.13851627
H        1.49880272      -0.11810055       2.40398829      -0.41590490      -0.12204057       0.06763568      -0.08086288      -1.40780316       1.14793444       0.15409054
H        0.54559358       0.76660734       1.39551335       0.08566647       0.00445197       0.30633334       0.34258085      -0.47397061       0.06869170       0.13851645
H       -1.49880272       0.44632151      -1.40372232      -0.23350669       0.25223294       0.26630867       0.40189839      -1.02579333      -0.16674324      -0.08709221
H       -1.48662238      -1.54240191      -0.83618185      -0.09116971       0.50047769       0.00579007      -0.03101775       0.18550929       0.08347478      -0.08372317
H       -0.48466643      -1.02828445      -2.43834761      -0.06635112       0.05518442       0.21526675       0.51062752       0.00448860      -0.69228057      -0.07278233
N        1.45714888       0.68120167       1.85369103       0.87906236       0.45722557      -0.47749675      -0.56043635       2.90056064      -0.94298948      -0.43112008
8
Properties=species:S:1:pos:R:3:momenta:R:3:forces:R:3:charge:R:1 energy=-194.852631316771 free_energy=-194.852631316771 dipole="-0.16115416907061467 0.03847532589083482 0.21640044649173285" pbc="F F F"
B       -1.23713196      -0.72945160      -1.56749787      -0.63692135       0.58112573      -0.32823053      -0.37769415      -0.42780782       1.12583748       0.24436103
H        1.79299215       1.39833083       2.48424724       0.14028055      -0.02612468      -0.00210344       0.40600550       1.52328097       1.06631564       0.15019380
H        1.46690116      -0.17841149       2.43632642       0.06466849      -0.23321817      -0.12857450      -0.40543874      -0.07822887      -0.00956553       0.14409619
H        0.51054716       0.91021874       1.52457245      -0.03480080      -0.08700186       0.23998973       0.82612407      -0.30851218       0.74616108       0.14111615
H       -1.79299215       0.29762338      -1.47658248      -0.07539498      -0.31898423       0.07706984       0.22620517       0.00251413      -0.42947662      -0.08165255
H       -1.41036489      -1.39833083      -0.56761106       0.03895596      -0.19813920       0.23637205       0.35754908       0.25333216      -0.93840700      -0.09140745
H       -0.61216835      -1.10722141      -2.48424724      -0.14867669      -0.44730235       0.06282711      -0.20018343       0.17649533       0.25209604      -0.07129315
N        1.43368345       0.68953929       1.92980352       0.65188882       0.72964476      -0.15735027      -0.83256751      -1.14107373      -1.81296110      -0.43541401
8
Properties=species:S:1:pos:R:3:momenta:R:3:forces:R:3:charge:R:1 energy=-194.75623911022285 free_energy=-194.75623911022285 dipole="-0.1373753954680816 0.015003388269162983 0.3492144175277915" pbc="F F F"
B       -1.42574667      -0.76501178      -1.53732174      -0.44203886      -0.71646619      -0.43473622      -0.18775906       1.69657901      -1.86189995       0.23658675
H        1.86006866       1.38397454       2.42060195      -0.04409550       0.23615432      -0.05836147      -0.80739611       0.14687547      -0.42288777       0.14443196
H        1.49736357      -0.13480282       2.49091757       0.02583732       0.22191716      -0.20871122       0.19005939      -1.71665576       0.84586540       0.14492720
H        0.35505167       0.76484238       1.83270740       0.13369638       0.18231333      -0.03980430       0.06633423       0.55945473       0.19525629       0.14852486
H       -1.86006866       0.30548376      -1.60488434      -0.08642206       0.10000525      -0.17575190      -0.18376709       0.16262501       0.26452063      -0.08268379
H       -1.34623667      -1.38397454      -0.65969797       0.17580303       0.40039042      -0.26759445      -0.00162827      -1.45769134       2.64388158      -0.06872182
H       -0.99582970      -1.19294878      -2.49091757      -0.19234646       0.13033451       0.08530541       0.37736077      -0.39834368      -1.03764984      -0.08516754
N        1.35221564       0.64682754       1.92514464       0.42956614      -0.55464878       1.09965416       0.54679614       1.00715656      -0.62708636      -0.43789762
8
Properties=species:S:1:pos:R:3:momenta:R:3:forces:R:3:charge:R:1 energy=-194.85176851498173 free_energy=-194.85176851498173 dipole="-0.11515130075380615 -0.0023432293588220867 0.25642075226187744" pbc="F F F"
B       -1.40372642      -0.68867383      -1.55182789      -0.04223171       0.26657039      -0.19598619       0.15070057      -0.20044439       0.05580332       0.24454899
H        1.83079524       1.38432590       2.57039136      -0.11849530      -0.36108833       0.07652225      -0.73037426      -0.75632069      -0.46521535       0.13541128
H        1.58671970      -0.24248575       2.33361492      -0.06065774       0.08407464       0.16322173      -0.44182961      -0.60753146       0.37494581       0.15001977
H        0.36055342       0.90216137       1.81714385       0.15776727      -0.13992835       0.27789483       1.45933250      -0.71732993       0.68351083       0.14181040
H       -1.83079524       0.41437654      -1.48889502      -0.07899979       0.12296092       0.06381914       0.17368421      -0.49657281      -0.04881360      -0.07985897
H       -1.36682658      -1.38432590      -0.58693144      -0.07364150      -0.08391978       0.10854234      -0.07515711       0.40271208      -0.43301508      -0.08302021
H       -0.98336132      -1.13384597      -2.57039136       0.01435434       0.36480119       0.10741424      -0.24536211       0.29775640       0.43480656      -0.08165577
N        1.36247999       0.66054152       1.99660685       0.20190442      -0.25347067      -0.60142835      -0.29099417       2.07773080      -0.60202249      -0.42725550
8
Properties=species:S:1:pos:R:3:momenta:R:3:forces:R:3:charge:R:1 energy=-194.85845650856103 free_energy=-194.85845650856103 dipole="-0.15919397570093638 -0.03790230079822172 0.35167751992295976" pbc="F F F"
B       -1.39918642      -0.60485117      -1.54272521      -0.11501632       0.53605573       0.03454532       1.61654454      -1.88568150      -0.30619781       0.24031476
H        1.89795353       1.33164141       2.58446566      -0.08469444      -0.10059388      -0.00253205       0.59768949       0.24764355       0.35119690       0.14329295
H        1.65380468      -0.23228317       2.22059216       0.25957188       0.17936730      -0.11143351      -0.11289266      -0.78651063       0.32816778       0.15044408
H        0.43899994       0.93685091       2.07853537      -0.06052810      -0.14595346      -0.03763529       0.94424442      -0.75455100      -0.24642675       0.13826790
H       -1.89795353       0.38270690      -1.44478998       0.10131343      -0.05427517      -0.00197801      -0.82423842       1.21950839       0.32141292      -0.06720165
H       -1.06057001      -1.33164141      -0.66642063       0.21462192      -0.11439476      -0.43397291      -0.46860700       0.48636612      -0.09783541      -0.08392321
H       -0.96072968      -0.94890537      -2.58446566      -0.02976447      -0.02744765       0.02438695      -0.32215884       0.18082099       0.08901758      -0.08918282
N        1.44698318       0.69959461       1.95479997      -0.28550389      -0.27275812       0.52861950      -1.43058153       1.29240409      -0.43933520      -0.43201200
8
Properties=species:S:1:pos:R:3:momenta:R:3:forces:R:3:charge:R:1 energy=-194.75687717396005 free_energy=-194.75687717396005 dipole="-0.03944339375048603 -0.04110770862833885 0.3470221751982594" pbc="F F F"
B       -1.38886036      -0.74589386      -1.48622544       0.27555121      -0.43720269      -0.34918329      -1.22847200       2.06186847      -1.39709167       0.24250577
H        1.99451180       1.32011140       2.62170634       0.05295818      -0.03210533       0.17225255       0.17932097      -1.05809078      -0.16355206       0.14288924
H        1.52644405      -0.30034143       2.28635402      -0.16641057      -0.14153240       0.41583915       0.34291939      -1.13419736       0.78324951       0.15524424
H        0.49456951       0.98332946       2.21774692       0.13831074       0.40821478      -0.23827343       0.54436153      -0.63941510      -0.32245348       0.13448992
H       -1.99451180       0.31646420      -1.36432210      -0.06852140      -0.12536178      -0.14766985       0.61674359      -0.88311000      -0.06138473      -0.09947580
H       -1.25445877      -1.32011140      -0.53575637      -0.00421674      -0.16413234      -0.04545969       0.43225917      -0.92545803       0.78360387      -0.06540633
H       -1.18704015      -1.02014576      -2.62170634      -0.00540338       0.01436883       0.08072388       0.18230069      -0.25059576       0.68169375      -0.07762018
N        1.46092374       0.64773202       2.05712082      -0.22226804       0.47775093       0.11177067      -1.06943335       2.82899857      -0.30406520      -0.43262686
8
Properties=species:S:1:pos:R:3:momenta:R:3:forces:R:3:charge:R:1 energy=-194.6959557314981 free_energy=-194.6959557314981 dipole="-0.18782222059224726 -0.0650438894448169 0.2588352720409271" pbc="F F F"
B       -1.37154709      -0.77405365      -1.65426854       0.12489415      -0.90140551       0.38457653       0.94288424       1.53259290       3.97294647       0.24030654
H        1.95309074       1.30117116       2.58304208      -0.16695080       0.40506784      -0.04404934      -0.73007388      -0.07108390      -0.18985469       0.14319566
H        1.56252688      -0.26455355       2.32940565       0.17238061       0.04143009      -0.16977723      -0.13474946      -0.37691541       0.17858429       0.14155634
H        0.41610008       0.86744788       1.84981509       0.12028166       0.04266981       0.02471129       1.72143476      -0.09403682       0.59673477       0.14046998
H       -1.95309074       0.22376897      -1.43664100      -0.22695034      -0.01107307      -0.14164995      -0.15656491      -0.31712157      -0.39400529      -0.08129846
H       -0.65319982      -1.09516079      -0.69461930       0.03748033       0.34243150      -0.06620633      -0.81237366       0.11827242      -1.01122310      -0.09798401
H       -1.23914930      -1.30117116      -2.58304208      -0.03289527       0.09294147       0.10733306       0.02655175      -1.33113791      -2.56012984      -0.06097595
N        1.44284281       0.66295988       1.97322724      -0.02824035      -0.01206213      -0.09493804      -0.85710883       0.53943029      -0.59305260      -0.42527010
8
Properties=species:S:1:pos:R:3:momenta:R:3:forces:R:3:charge:R:1 energy=-194.86793845151377 free_energy=-194.86793845151377 dipole="-0.1497154872213247 -0.04126514223496273 0.34303261345117764" pbc="F F F"
B       -1.29871281      -0.74203855      -1.56024037       0.10899646      -0.28384124       1.07427506      -0.71350353       0.64403298      -1.09411288       0.23931793
H        1.96604636       1.33597849       2.55439233      -0.20316076      -0.00319672      -0.24619516      -0.26935342       0.98035968       0.03316010       0.14348187
H        1.63518116      -0.12844448       2.29006363      -0.16448738       0.15992653      -0.02409715      -0.58449974      -0.78984817      -0.25410971       0.14276978
H        0.50845341       1.00738338       1.73310535       0.32022322       0.19004889       0.02904358       0.65370386      -0.18401785       0.49161448       0.14850825
H       -1.96604636       0.22176153      -1.48109529       0.13555418      -0.09969396      -0.07696279       0.10857441      -0.25872765       0.03827257      -0.08307122
H       -0.63425023      -1.08910703      -0.73666025       0.13663341       0.23003866       0.01910853       0.77928535      -0.34885816       1.29538652      -0.07185099
H       -1.23975631      -1.33597849      -2.55439233      -0.22589961       0.06969592       0.07925977      -0.17158894      -0.03233663      -0.23084843      -0.08435308
N        1.49474236       0.77153799       1.87114036      -0.10785953      -0.26297808      -0.85443185       0.19738201      -0.01060419      -0.27936265      -0.43480255
8
Properties=species:S:1:pos:R:3:momenta:R:3:forces:R:3:charge:R:1 energy=-194.78638919928144 free_energy=-194.78638919928144 dipole="-0.23433665854123142 -0.016321489513342384 0.3838388264488642" pbc="F F F"
B       -1.30049961      -0.81960464      -1.36667684       0.58646580      -0.40358653       1.22307279       0.99287135      -0.11047119      -1.32247966       0.24080598
H        1.99460147       1.39486447       2.45039523      -0.07720283      -0.15680672      -0.07141504      -0.42006157       0.17905271      -0.34774000       0.14203548
H        1.38480831      -0.10706351       2.43661364       0.05981033       0.08990543      -0.03588602      -0.08250648       1.05947243      -0.95416729       0.13175007
H        0.55781603       1.08711622       1.66709151       0.06887522      -0.03456442       0.00387406      -1.69426185       0.83355617      -0.16606963       0.15494582
H       -1.99460147       0.08201200      -1.23421913       0.00306148      -0.02247324      -0.07941255      -0.65487583       0.18595857       0.10090279      -0.07955441
H       -0.37821476      -0.85038372      -0.64395503      -0.01665968      -0.06590256      -0.20437128      -0.19739579      -0.41094671      -0.04735597      -0.07402956
H       -1.27746365      -1.39486447      -2.45039523      -0.16698353      -0.04203435      -0.05225226      -0.13731876       0.34040808       1.27595563      -0.08714311
N        1.45524625       0.76908653       1.85313167      -0.45736679       0.63546239      -0.78360970       2.19354893      -2.07703007       1.46095413      -0.42881026
8
Properties=species:S:1:pos:R:3:momenta:R:3:forces:R:3:charge:R:1 energy=-194.92985183246543 free_energy=-194.92985183246543 dipole="-0.16453358702652923 0.11907194998379964 0.25213937954299687" pbc="F F F"
B       -1.24356846      -0.73256932      -1.47190859      -0.07883150       0.29968994      -0.48361754       0.32149164       0.90425180       1.45766958       0.23982638
H        2.09467079       1.45662149       2.15939458       0.22739383      -0.01015281      -0.07337874       0.12140888       0.87554197       0.03576449       0.14604245
H        1.31858582       0.10017926       2.32582310      -0.01520124       0.16279492       0.27214377      -0.35867280      -0.66150257       0.29118446       0.14177218
H        0.66199678       1.19264095       1.30231506      -0.11190208      -0.02841218      -0.26605303       0.23775378       0.23450668       0.24416244       0.14765299
H       -2.09467079       0.05857857      -1.30324667      -0.05436171       0.16487542       0.24546805       0.13620542      -0.05286801      -0.01541130      -0.08837096
H       -0.33746347      -0.74767599      -0.68171308      -0.12265311      -0.01990149       0.41052375      -0.55188567      -0.09780366      -0.66762709      -0.07822920
H       -1.35979365      -1.45662149      -2.32582310       0.02482520       0.03126235       0.37040423       0.09921177      -0.74865584      -0.76705080      -0.07303159
N        1.52962313       0.80876744       1.65651760       0.13073062      -0.60015614      -0.47549049      -0.00551301      -0.45347037      -0.57869177      -0.43566225
8
Properties=species:S:1:pos:R:3:momenta:R:3:forces:R:3:charge:R:1 energy=-194.78325001328778 free_energy=-194.78325001328778 dipole="-0.17106684395551686 0.19990623838527988 0.26065625502971423" pbc="F F F"
B       -1.27131418      -0.79994165      -1.51002553       1.12176188       0.17147801      -0.77376476      -2.15808178       0.80460530      -1.05395048       0.23805009
H        2.03612182       1.48587778       1.93677309      -0.05915090       0.21429900       0.04367142      -0.43686434       0.23460869      -0.60311915       0.14450458
H        1.22574767       0.20552965       2.39698230       0.08245417       0.05247904       0.29702638       0.02475530      -0.19044675      -0.34873501       0.13649227
H        0.55881426       0.99733489       1.10309798      -0.02677634       0.13775678      -0.21738123       2.19438890      -0.12426078       0.94116586       0.13737064
H       -2.03612182       0.08178979      -1.30885512       0.08419165      -0.28252570       0.06836387       0.39269687      -0.20365689       0.07363834      -0.09028330
H       -0.40706518      -1.02013692      -0.88015821      -0.09719210       0.25126675       0.24041298       1.80478488      -0.29806165       1.38879174      -0.06289728
H       -1.52670432      -1.48587778      -2.39698230      -0.25347592      -0.00528024       0.06596024      -0.03377403      -0.29497588      -0.39749962      -0.08454088
N        1.50329625       0.70766987       1.54906218      -0.85181245      -0.53947364       0.27571110      -1.78790580       0.07218797      -0.00029169      -0.41869612
8
Properties=species:S:1:pos:R:3:momenta:R:3:forces:R:3:charge:R:1 energy=-194.6565954064458 free_energy=-194.6565954064458 dipole="-0.2956425875626888 0.14824696363614961 0.24803407185373816" pbc="F F F"
B       -1.08126068      -0.76790697      -1.59168115       0.16719302      -0.81717095      -0.91441393       0.21770071      -0.58405503      -2.20014156       0.24635850
H        1.90153387       1.65068063       1.80395797      -0.06854924       0.38482620       0.10901310      -0.51740161      -0.16513184      -0.15882938       0.14567121
H        1.23524153       0.30717042       2.51895475      -0.01586382       0.02691735       0.03157811       0.01804122       0.10996174       0.23248666       0.13994478
H        0.70332357       0.67863554       1.00828261       0.11168172      -0.02348762      -0.12494049       1.11028912       0.53513356       0.77362242       0.14012818
H       -1.90153387       0.12899115      -1.69308309      -0.05679303      -0.03135030      -0.10365837       0.88234407      -0.88194043       0.56036422      -0.07603300
H       -0.00784954      -0.79618979      -1.07630676      -0.08149333      -0.05900830      -0.34307292      -0.86904011       0.32772422       0.19249929      -0.06846237
H       -1.13829308      -1.65068063      -2.51895475       0.22158142       0.12225060       0.21529101      -0.22462489       1.13997608       1.45606208      -0.10081080
N        1.52910697       0.71969349       1.64852912      -0.27775675       0.39702302       1.13020348      -0.61730851      -0.48166831      -0.85606373      -0.42679650
8
Properties=species:S:1:pos:R:3:momenta:R:3:forces:R:3:charge:R:1 energy=-194.82788182814681 free_energy=-194.82788182814681 dipole="-0.36986229353918776 0.02331184669426345 0.11792636135097663" pbc="F F F"
B       -0.91679105      -0.77850337      -1.78441079       0.06889343      -0.42512642      -0.58620247       1.59086547      -0.83054312       0.48067758       0.24704848
H        1.58932204       1.72005789       1.95783894      -0.21855044       0.38725063       0.40250495      -0.40891661       1.39493954       0.04000359       0.14846574
H        1.72308540       0.23878961       2.52849132       0.02933534      -0.05090969      -0.05086996       0.31540157       0.54194949      -1.21927813       0.13163740
H        1.19220748       0.46782679       1.01669593       0.19202665      -0.43582960       0.00466972      -1.34916884      -0.50862329      -1.37411471       0.15259419
H       -1.83615192      -0.11339012      -1.76124088      -0.42140845       0.22295477      -0.04024105      -0.66567894       0.37976255      -0.12974980      -0.07230788
H       -0.03349081      -0.53999777      -0.96247598      -0.01772115       0.09743450      -0.34595426      -0.81975102      -0.33072280      -0.91700570      -0.09403972
H       -0.80138591      -1.72005789      -2.52849132       0.12491280      -0.11958445      -0.14320113      -0.10135710       0.78087147       0.56821829      -0.07989682
N        1.83615192       0.81868012       1.65276732       0.24251180       0.32381025       0.75929419       1.43860547      -1.42763384       2.55124888      -0.43350139
8
Properties=species:S:1:pos:R:3:momenta:R:3:forces:R:3:charge:R:1 energy=-194.8104429452709 free_energy=-194.8104429452709 dipole="-0.35172002467081126 -0.10372157380603311 0.11664685345865765" pbc="F F F"
B       -0.83944764      -0.84689194      -1.72333267      -0.08911136       0.11578991       0.02178217      -0.26685240       1.29659783       0.11102264       0.24010569
H        1.39321837       1.66649421       2.26453129      -0.19824950       0.03165408       0.12511981       0.21881173      -1.14801345      -0.61510197       0.13913246
H        1.63796747       0.02109994       2.47836976      -0.15017310      -0.06712562      -0.01724268      -0.09796578       0.08681610       0.09521362       0.14126175
H        1.26796721       0.55877183       0.97063259      -0.02365944       0.08155915      -0.15693456       0.11343099       0.35852664       0.57335788       0.14162853
H       -1.76584369      -0.18051044      -1.87084403       0.25913895      -0.17628434       0.06094452      -0.49556735       0.57521442       0.42426429      -0.08968332
H        0.03244831      -0.44606103      -1.07507778       0.18677073       0.22291065       0.00727723       0.16166149      -0.36988454       0.07634654      -0.07785306
H       -0.89715470      -1.66649421      -2.47836976      -0.08427733       0.03641009       0.13086059       0.60597888      -1.50211545      -0.60936479      -0.07176986
N        1.76584369       0.79112582       1.83645915       0.09956106      -0.24491393      -0.17180708      -0.23949756       0.70285845      -0.05573822      -0.42282218
8
Properties=species:S:1:pos:R:3:momenta:R:3:forces:R:3:charge:R:1 energy=-194.91919027203937 free_energy=-194.91919027203937 dipole="-0.3819030082361339 0.026679890283615067 -0.05063095659772459" pbc="F F F"
B       -0.83612481      -0.69035202      -1.91927197       0.33835431      -0.35228050       0.02324046       0.86035420      -1.12086743      -0.24046631       0.24472040
H        1.35219559       1.80741791       1.94087586       0.03881182      -0.02669417      -0.05914340       0.23473145       0.13348164      -0.55490300       0.13995015
H        1.30396529       0.30199229       2.36030815       0.15155670      -0.05420816       0.00724368       0.18318939      -0.45094995      -0.54226181       0.14056486
H        1.59073171       0.67748653       0.73717200      -0.19950882       0.12003682      -0.15594737      -0.32548014      -0.10705833       0.00685719       0.14931730
H       -1.77456990      -0.03733205      -1.80144787      -0.07437944       0.30113511       0.00343521      -0.22069125       0.12170888      -0.00046676      -0.07119680
H        0.23962053      -0.35677683      -1.59039223       0.02273726       0.11553986      -0.15615970      -0.25077406       0.28262163       0.04855009      -0.08674465
H       -0.83281026      -1.80741791      -2.36030815      -0.18005936       0.00908744       0.21183523      -0.37988855       0.72074287       0.20156143      -0.08648240
N        1.77456990       0.91391957       1.69702338      -0.09751246      -0.11261641       0.12549589      -0.10144104       0.42032068       1.08112917      -0.43012886
8
Properties=species:S:1:pos:R:3:momenta:R:3:forces:R:3:charge:R:1 energy=-194.7962136924837 free_energy=-194.7962136924837 dipole="-0.34905647670979967 0.004699903051122431 -0.02474218262553139" pbc="F F F"
B       -0.76240187      -0.77182428      -2.07545422      -0.46503182       0.21772375       0.34331002      -0.46163718       2.91936873      -0.00500998       0.24875014
H        1.59315220       1.88717724       1.44179007       0.02844280      -0.09899793      -0.14091474      -0.03071734      -0.05147891       0.15895032       0.14209666
H        1.37950547       0.46979665       2.25435172      -0.02413810       0.15153680       0.07198819      -0.29176898      -0.13778432       0.12607493       0.14524676
H        1.47483277       0.50183169       0.58519530       0.02532361      -0.08134587      -0.12778808       0.15415583       0.11065937       0.77205593       0.13932499
H       -1.82723700      -0.07385389      -2.25435172       0.16265658      -0.25592979      -0.12685780       1.66629197      -1.19046838       0.31160085      -0.09260974
H        0.27555775      -0.16664810      -1.83282604       0.29264019       0.24000994       0.04127467      -1.06606331      -0.55771883      -0.20799233      -0.09034965
H       -0.73721390      -1.88717724      -2.17169268       0.23328661      -0.16250199       0.04641546      -0.12936254      -1.16603696      -0.08853554      -0.06531813
N        1.82723700       0.90173257       1.46806610      -0.25317987      -0.01049490      -0.10742772       0.15910154       0.07345930      -1.06714418      -0.42714103
8
Properties=species:S:1:pos:R:3:momenta:R:3:forces:R:3:charge:R:1 energy=-194.83650674644758 free_energy=-194.83650674644758 dipole="-0.4061345438952314 0.007450913208506429 -0.0901955297136108" pbc="F F F"
B       -0.78272669      -0.78518413      -1.91300789       0.77574225      -0.51423576      -0.27267378       0.47905123       1.38720691      -0.03160142       0.24109923
H        1.44628465       1.88037731       1.44890736      -0.02298592       0.03583389       0.00414958      -0.43038621       1.84958687       0.09680093       0.15094017
H        1.06835393       0.54363235       2.30750406       0.15975755      -0.05565778       0.19975190       0.46946869       0.50418509      -0.01572043       0.13945693
H        1.49942007       0.48753156       0.80417984       0.04688969       0.25184663       0.12323801       0.15388403      -0.84222527      -1.23764038       0.14588553
H       -1.72960045      -0.29559339      -2.30750406      -0.20068072      -0.03585902      -0.20313757      -0.69234462       0.61050410      -0.09791234      -0.08098111
H        0.12785628      -0.14176772      -1.56475651      -0.07259733      -0.14136400       0.19602246      -0.10186361      -0.09042000       0.10507302      -0.08590589
H       -0.73136425      -1.88037731      -2.04831417      -0.11105828      -0.24836488       0.12313399       0.32219462      -1.90198532       0.03307996      -0.07386037
N        1.72960045       0.96510706       1.63908418      -0.57506724       0.70780092      -0.17048460      -0.20000412      -1.51685238       1.14792065      -0.43663448
8
Properties=species:S:1:pos:R:3:momenta:R:3:forces:R:3:charge:R:1 energy=-194.84168079773517 free_energy=-194.84168079773517 dipole="-0.36801935991803186 0.026733234890646516 -0.21058401031741608" pbc="F F F"
B       -0.84691525      -0.84327309      -1.74880347      -0.05686286      -0.31850378       0.52963327       1.82818361       0.68901121       1.63754384       0.24619436
H        1.35988818       1.96044441       1.71078067       0.03174412       0.28553034      -0.00829691      -0.27189994       1.29478245      -0.41962678       0.15159058
H        0.81455164       0.53330486       2.20617691      -0.13082473       0.29309712      -0.10606316      -0.07538276       0.05386428       0.46273369       0.13907284
H        1.57248082       0.54740287       0.82048107       0.23176008       0.17193751       0.16533468       0.26408632       0.90507737       0.55270457       0.13970491
H       -1.58465214      -0.12197485      -2.20617691      -0.00045832       0.29034933       0.10288693      -0.61464367       0.52920706      -0.40517095      -0.06970815
H        0.02336826      -0.42144451      -0.96151278      -0.10353330       0.09338396       0.31060848      -1.05402974      -0.35188609      -0.94084802      -0.10307428
H       -0.82332307      -1.96044441      -1.92416559       0.02767878       0.11274405       0.31347842      -0.15627774      -0.86478849      -0.28897072      -0.07256992
N        1.58465214       1.00612599       1.75154238       0.00049625      -0.92853855      -1.30758172       0.07996393      -2.25526780      -0.59836564      -0.43121035
8
Properties=species:S:1:pos:R:3:momenta:R:3:forces:R:3:charge:R:1 energy=-194.85824548151578 free_energy=-194.85824548151578 dipole="-0.3045902880988547 0.08391378185787833 -0.18929621092285984" pbc="F F F"
B       -1.08184422      -0.76994908      -1.44081950      -0.76549018      -0.34634088       0.28878759      -0.90963230      -1.72650439      -1.55459079       0.24682450
H        1.37796668       2.00716288       1.71786196       0.24093348      -0.26269052      -0.15010240      -0.21034302       0.55305168      -0.02055416       0.14707337
H        0.66512358       0.63331355       2.29605345       0.19570464       0.21416183      -0.02747307       0.09727078       0.26452737       0.02974701       0.14259928
H        1.58578571       0.56974438       0.93848253      -0.08609624       0.03173741       0.01499409      -0.00107674       0.67047970       1.27682068       0.13342119
H       -1.58578571      -0.12479902      -2.29605345       0.18222168      -0.07832022       0.15195190       0.18821205      -0.08833320       0.39765104      -0.08309536
H       -0.48619462      -0.28792568      -0.61108371      -0.07155816       0.06666314      -0.13644182       0.42831325       0.23078367       0.69915139      -0.07207958
H       -1.21804921      -2.00716288      -1.59557056      -0.32658062       0.12939552      -0.10656502       0.29404796       1.58680647       0.46188060      -0.09119065
N        1.50605567       1.03120444       1.88524178       0.63086541       0.24539371      -0.03515127       0.11320802      -1.49081130      -1.29010577      -0.42355276
8
Properties=species:S:1:pos:R:3:momenta:R:3:forces:R:3:charge:R:1 energy=-194.85534914933746 free_energy=-194.85534914933746 dipole="-0.2744705927830054 0.02303356792304831 -0.28194946594090026" pbc="F F F"
B       -1.17393172      -0.76189402      -1.49574299      -0.19417071       0.36964434       0.66000368       0.51168949      -1.83602863       1.34621135       0.24404811
H        1.44040016       1.96658218       1.28561899      -0.16173190      -0.05244035      -0.25878110      -0.24787137      -0.61859022       0.28502832       0.14367530
H        0.60501884       0.81822313       2.20022546       0.05117798       0.13688340      -0.06690983      -0.17507998       0.42277060       0.08699770       0.14401246
H        1.58614526       0.31410864       1.02590579       0.06073091       0.33478080       0.31475767       0.08412681       0.92441971       0.58667359       0.13495463
H       -1.58614526       0.01975914      -2.20022546       0.07170300      -0.03064186      -0.22360238      -0.25940436       0.40550612      -0.58364997      -0.06501355
H       -0.68574056      -0.52420549      -0.45520833      -0.07627303      -0.02246834       0.10564045      -0.02101442       0.54465858      -0.16795250      -0.09075583
H       -1.21470323      -1.96658218      -1.57832559       0.00207496       0.06361130      -0.49342215      -0.22567459       0.88913083      -0.58708364      -0.08795558
N        1.47949560       1.05434261       1.75358154       0.24648881      -0.79936929      -0.03768634       0.33322843      -0.73186698      -0.96622485      -0.42296555
8
Properties=species:S:1:pos:R:3:momenta:R:3:forces:R:3:charge:R:1 energy=-194.85300032686388 free_energy=-194.85300032686388 dipole="-0.20987189931759492 -0.003997102621810435 -0.3059932956281246" pbc="F F F"
B       -1.27428312      -0.81299672      -1.38825336       0.09120201      -0.11910333      -0.73349705      -0.71563413      -0.42217898      -0.98605728       0.24510338
H        1.19849482       1.90767650       1.28882543      -0.14517776       0.15959118      -0.01814149       0.78609993      -1.25111305       0.42819664       0.13453497
H        0.34987014       0.81925405       2.03280745      -0.01185623       0.07448326      -0.13628128       0.30608979      -0.53307538       0.20806717       0.14064042
H        1.60953702       0.30821053       1.15016871       0.01714475       0.34228673       0.02537656       0.62552802      -1.50356290      -1.59043335       0.15401477
H       -1.60953702       0.11698050      -2.03280745       0.05738532       0.06314830       0.22914361       0.22726934      -0.26162057       0.16990419      -0.08258033
H       -0.97867196      -0.68111724      -0.29541200      -0.25442474       0.16801781       0.23977647       0.29157824       0.06615232       0.57887857      -0.07809108
H       -1.41186813      -1.90767650      -1.84739374      -0.12583449       0.06723935       0.03242455       0.20420675       0.62083570       0.24675656      -0.08427537
N        1.32748136       0.98046578       1.78224581       0.37156114      -0.75566330       0.36119864      -1.72513794       3.28456287       0.94468749      -0.42934676
8
Properties=species:S:1:pos:R:3:momenta:R:3:forces:R:3:charge:R:1 energy=-194.81419705549166 free_energy=-194.81419705549166 dipole="-0.3583447846791661 -0.030083943734981307 -0.1650836116742931" pbc="F F F"
B       -1.28771421      -0.84426281      -1.35878446      -0.13693088       0.49495038       0.79772833       0.77176185       1.40363573       0.42998812       0.24378233
H        1.27019018       1.90696866       1.33596247       0.06677303       0.29053009      -0.09441810      -0.21658942      -2.17694861       0.50886246       0.13747000
H        0.61787496       0.52589147       2.17556550       0.11276455      -0.02665703      -0.04303372      -0.72693602       0.23680076       0.25575615       0.14692796
H        1.52221181       0.27383306       0.85744465      -0.11957097      -0.20007506       0.11817278      -0.03598675       0.17783559      -0.35587889       0.14140246
H       -1.52221181      -0.03418277      -2.17556550      -0.12204290       0.02553758      -0.06969027      -0.23057459      -0.19535084       0.21542312      -0.08090517
H       -0.90143140      -0.48585929      -0.29507993       0.04522152       0.20270442       0.02399068      -0.44618548      -0.08075444      -0.31721264      -0.08835186
H       -1.05899463      -1.90696866      -1.64910868       0.13065181      -0.15180525      -0.42475524      -0.09441007      -1.12533626      -0.32289658      -0.07431806
N        1.36991780       0.88826329       1.63762529       0.02313383      -0.63518513      -0.30799446       0.97892048       1.76011807      -0.41404173      -0.42600766
8
Properties=species:S:1:pos:R:3:momenta:R:3:forces:R:3:charge:R:1 energy=-194.77366439653434 free_energy=-194.77366439653434 dipole="-0.3945330609508356 0.02053654522132016 -0.2424881847447497" pbc="F F F"
B       -1.13803539      -0.79832762      -1.31300557      -0.31769128      -0.20495045      -0.22422918       0.55445730      -1.58617809      -1.39336660       0.24657359
H        1.23093167       1.91168323       1.35615639      -0.07721286       0.40189781       0.06759232       1.02343301      -1.39908486       0.35325393       0.13329173
H        0.63323447       0.58970715       1.94430400       0.18862122      -0.27064718      -0.20735907      -0.46833510      -0.59999322       0.72566991       0.14408116
H        1.68090701       0.42654411       0.80378350       0.21009627      -0.27079051       0.20518589       0.55553417      -0.43332702      -0.97824397       0.14825451
H       -1.68090701       0.00252151      -1.94430400       0.10069308       0.08792799       0.49414230      -0.24215710       0.01658387      -0.09313695      -0.07525369
H       -0.64845137      -0.52815841      -0.33149562       0.11131421      -0.03571226       0.06763211       0.24162372       0.21871290       0.93798284      -0.07902306
H       -0.84820231      -1.91168323      -1.79547951      -0.08555137       0.04847340       0.16680887      -0.55546520       1.35062132       0.55224957      -0.09188504
N        1.53064953       0.92452361       1.64831365      -0.13026928       0.24380120      -0.56977324      -1.10909081       2.43266511      -0.10440872      -0.42603921
8
Properties=species:S:1:pos:R:3:momenta:R:3:forces:R:3:charge:R:1 energy=-194.54462930231742 free_energy=-194.54462930231742 dipole="-0.2588443845892209 -0.1771447752283834 -0.3104532827907305" pbc="F F F"
B       -1.24703758      -0.68930709      -1.26209861      -0.68271709      -0.05503206      -0.45784344      -1.26908805       0.36145398      -2.00403715       0.24580018
H        1.06599116       1.71837094       1.09941732       0.04974166       0.07944501      -0.25640096       1.46076940      -1.51921355       1.81703456       0.12491450
H        0.68481803       0.38239699       1.88622759       0.26492834      -0.10600713      -0.29517997      -0.74523465      -0.46378634       0.90954600       0.14573406
H        2.02055062       0.31474287       1.08421784       0.22846211      -0.10875095       0.12280121      -0.25217039       1.27885143       1.25173194       0.13306672
H       -2.02055062       0.02712329      -1.88622759      -0.25802282       0.24291569      -0.23188026       0.71119168      -0.41903648       0.94058597      -0.08983144
H       -0.58442087      -0.34830271      -0.42064569      -0.18766460       0.22427309      -0.20009523       0.43615538       0.37189282       0.84982878      -0.07420988
H       -1.11636587      -1.71837094      -1.78057942       0.12730438       0.18741847       0.15965901       0.12271936      -0.31441942       0.21506101      -0.08135704
N        1.50681027       0.94627759       1.78969964       0.45796801      -0.46426212       1.15893964      -0.46434272       0.70425755      -3.97975112      -0.40411709
8
Properties=species:S:1:pos:R:3:momenta:R:3:forces:R:3:charge:R:1 energy=-194.62246347481252 free_energy=-194.62246347481252 dipole="-0.1375591624618065 -0.04668911881708372 -0.2853000039853353" pbc="F F F"
B       -1.39886311      -0.60722188      -1.34792509       0.59518984       0.55795765       0.43891509       2.99289908      -2.97568245       2.23220573       0.24492981
H        0.93170156       1.85381702       1.37053556      -0.07264441       0.24852469       0.00079373       1.01548923      -1.19841469      -0.08324667       0.14167996
H        0.72667797       0.31273837       1.88474949       0.32345210      -0.05042431      -0.19720129      -1.26886801      -1.24213530       0.22670617       0.14379055
H        2.16498253       0.59996001       1.23545188       0.09551175      -0.35973451      -0.12929401       0.36888416       0.25432534      -0.82539019       0.15088822
H       -2.16498253      -0.09180769      -1.88474949      -0.12927120       0.13107970       0.00183139      -2.25775263       1.73668069      -1.61659132      -0.06075318
H       -0.60465491      -0.09412921      -0.59206395       0.08299382       0.17674311      -0.16169430      -0.68628358      -0.28367573      -0.69176726      -0.08686407
H       -1.33374648      -1.85381702      -1.43544106      -0.10040897      -0.17593850       0.15143265      -0.04558214       1.52596138       0.07814217      -0.09726392
N        1.40059216       0.99554546       1.72500064      -0.79482292      -0.52820783      -0.10478326      -0.11878611       2.18294076       0.67994137      -0.43640738
8
Properties=species:S:1:pos:R:3:momenta:R:3:forces:R:3:charge:R:1 energy=-194.8039113784931 free_energy=-194.8039113784931 dipole="-0.12192141810035814 -0.08909670441062642 -0.32084366038805484" pbc="F F F"
B       -1.30382509      -0.52190220      -1.24554209       0.39850524       0.92313968      -0.38472088       0.40444992       0.21113063      -0.50614445       0.24669299
H        1.01130091       1.65612703       1.21886984      -0.15376228      -0.03012977       0.13352772      -0.72399939       1.33107820      -0.27758901       0.14051215
H        0.64330397       0.24529438       1.74617890      -0.12683866      -0.25353694      -0.22827449       0.08249966      -1.07497144      -0.08199331       0.15128708
H        2.21085720       0.74968184       1.30371578       0.05791743      -0.40592178       0.25348236       0.70738009      -1.19834932      -0.10893692       0.15169542
H       -2.21085720       0.02890765      -1.79293753       0.10892323      -0.06959354       0.24405870       0.44928313      -0.49912544       0.45423032      -0.07756137
H       -0.45474726       0.11043048      -0.73384124       0.04568796       0.12222576      -0.00277821      -0.35942223       0.08414943       0.04858804      -0.08846220
H       -1.01479666      -1.65612703      -1.37794691       0.28522971      -0.41030289      -0.17337315      -0.49430460       0.20524744       0.00087275      -0.08023491
N        1.36502785       0.92899374       1.79293753      -0.61566263       0.12411948       0.15807795      -0.06588658       0.94084052       0.47097258      -0.44392915
8
Properties=species:S:1:pos:R:3:momenta:R:3:forces:R:3:charge:R:1 energy=-194.8151744517549 free_energy=-194.8151744517549 dipole="-0.005427493554768369 -0.09972411816790488 -0.339847580896589" pbc="F F F"
B       -1.23221958      -0.51228917      -1.29622838       0.44684625      -0.34445729       0.44387480      -2.11322453       0.62355757      -1.00859767       0.24071032
H        1.10246576       1.56990370       1.15549802      -0.20078889       0.01492907      -0.30620964      -0.71769386       0.76073159      -0.35027067       0.14250388
H        0.68687673       0.09410901       1.68103969      -0.18027865       0.17241827      -0.07516874      -0.27042287      -0.70517761      -0.22213727       0.15009505
H        2.25782901       0.58343134       1.40266705      -0.12540672      -0.30020130      -0.19438469       0.59485164      -0.84617446       0.00133346       0.14659269
H       -2.25782901      -0.12076313      -1.75799439       0.05611335       0.29045692      -0.11261452       0.51020264      -0.16357531       0.25913707      -0.08680205
H       -0.53089436       0.16008683      -0.78748108       0.04514010       0.28721054       0.10077932       1.24502435       1.55060870       0.99955745      -0.07710146
H       -0.93793399      -1.56990370      -1.38955481       0.15519787       0.34082820      -0.16042655       0.35794924      -2.00859572      -0.25231668      -0.07637049
N        1.35778277       0.82130650       1.75799439      -0.19682331      -0.46118442       0.30415002       0.39331338       0.78862525       0.57329431      -0.43962795
8
Properties=species:S:1:pos:R:3:momenta:R:3:forces:R:3:charge:R:1 energy=-194.76851289394978 free_energy=-194.76851289394978 dipole="-0.10799355710839251 -0.1181139110117878 -0.2850026840062605" pbc="F F F"
B       -1.16692875      -0.60347917      -1.21074011       0.03506263      -0.18440198       0.09296884       0.29679082       1.37884433       1.27138782       0.24534786
H        1.00605716       1.55735961       1.18022743      -0.20296859       0.18745647       0.22317826      -0.73725368       0.58740962      -0.45090132       0.14793946
H        0.61572648       0.04438098       1.81945513       0.07469275       0.28339565       0.17365364      -0.47674327      -0.04563594      -0.20032736       0.14879140
H        2.06399950       0.36417404       1.15901578       0.23609356      -0.06521595      -0.29277134       1.07570410      -0.69359267      -0.72760659       0.14465806
H       -2.06399950      -0.17390038      -1.81945513      -0.08624025      -0.00458079       0.24058211      -0.04915412       0.28348989       0.28949825      -0.08070024
H       -0.67395092      -0.00897864      -0.19352480      -0.11936308      -0.16479361       0.32841273      -0.84476725      -0.97166855      -1.62578866      -0.08987487
H       -0.73691584      -1.55735961      -1.65320721       0.24916601       0.20725429      -0.11210710       0.55796871      -0.70194480       0.02434464      -0.07523251
N        1.30714769       0.74384084       1.65031119      -0.18644303      -0.25911408      -0.65391714       0.17745470       0.16309812       1.41939324      -0.44092916
8
Properties=species:S:1:pos:R:3:momenta:R:3:forces:R:3:charge:R:1 energy=-194.79829503884204 free_energy=-194.79829503884204 dipole="-0.1657965756954707 -0.0757987977655359 -0.27768294845706454" pbc="F F F"
B       -1.15134679      -0.59005500      -1.24215203       0.27102903       0.83395190       0.33622223       0.24497195      -1.49858600      -1.08673222       0.24390066
H        0.89936604       1.52338264       1.16350557       0.16725475      -0.29535882      -0.10265959       1.37821173      -1.71521539       0.23618798       0.13579101
H        0.75494625       0.01340644       1.84423110      -0.06701712      -0.01158997      -0.21906043       0.10225975       0.00495223      -0.06232753       0.13854587
H        2.11137824       0.22715481       0.92051773      -0.14185874      -0.39246265      -0.19866802      -0.89540134       0.83343378       0.19778428       0.14397942
H       -2.11137824      -0.06347052      -1.56860564      -0.17438861      -0.08012793      -0.17186304      -0.42080713       0.19496774      -0.50197917      -0.07737641
H       -0.76622172      -0.32731723      -0.22428252       0.13662879      -0.01801326      -0.20518331       0.66674921       0.31009303       1.16378826      -0.07848225
H       -0.64695396      -1.52338264      -1.84423110      -0.26174437      -0.08025209      -0.16646759      -0.50659794       0.98815910       0.41036396      -0.08764206
N        1.44956599       0.69673467       1.56174369       0.07009628       0.04385282       0.72767976      -0.56938622       0.88219552      -0.35708555      -0.41871625
8
Properties=species:S:1:pos:R:3:momenta:R:3:forces:R:3:charge:R:1 energy=-194.80932172302164 free_energy=-194.80932172302164 dipole="-0.2225740649603423 -0.0797644844339242 -0.27106122712887404" pbc="F F F"
B       -1.06370203      -0.56882949      -1.41534745      -0.57397555      -0.17056809      -0.40774790      -0.48611479       0.81301022       1.42164339       0.24485695
H        1.09844688       1.52354303       0.99784237       0.05981934      -0.10527355       0.06046048      -0.04418539       0.15741763      -0.07774109       0.14207246
H        0.88024078       0.24874003       1.92563361      -0.03926442       0.24979889       0.21148565      -2.01633043      -1.62867177       1.43794553       0.15414242
H        1.95421431       0.15297891       0.70769694      -0.11677010      -0.01082982       0.02229631      -0.37511068       0.41569526       0.65108608       0.13867044
H       -1.95421431       0.09324588      -1.84679811       0.10352084       0.03370537      -0.06272204       0.64720073      -0.12981570       0.38275498      -0.07847132
H       -0.55383909      -0.46697353      -0.32081185       0.10459132       0.03208372       0.01614922      -0.54204963       0.40095071      -0.87105517      -0.08960593
H       -0.78399492      -1.52354303      -1.92563361      -0.02195501       0.26038830       0.34498521       0.36912055      -1.09202255      -0.94331695      -0.07675629
N        1.54586840       0.74247053       1.45338441       0.48403358      -0.28930482      -0.18490693       2.44746963       1.06343619      -2.00131677      -0.43490874
8
Properties=species:S:1:pos:R:3:momenta:R:3:forces:R:3:charge:R:1 energy=-194.62038944290248 free_energy=-194.62038944290248 dipole="-0.3294006884858715 0.0310730067634895 -0.13202342230276906" pbc="F F F"
B       -0.85819444      -0.38969147      -1.77416891      -0.17455189       0.37288909      -0.62845707       0.71591730      -2.46746014       1.03627984       0.24670519
H        1.29841756       1.60341293       0.84813571      -0.12523541      -0.06728655       0.14852899      -0.34580283       1.16249322      -0.60612135       0.14228265
H        1.48577057       0.65013586       2.01304012       0.30019566       0.22479044       0.22786949      -0.95871097      -1.22594866       2.91481535       0.15503085
H        1.62969313       0.10201029       0.47619908      -0.18035524       0.11357283       0.41332276       0.04576871      -0.38433903       0.23737002       0.14622462
H       -1.83687132       0.14635501      -2.01304012      -0.23047762      -0.04296150       0.15543133      -0.21184017       0.33412929      -0.37708117      -0.06435492
H       -0.15549808      -0.12357315      -0.87497845       0.17387675       0.23233706      -0.21640536      -0.07375703       0.67742063      -0.28122099      -0.08540821
H       -0.66088797      -1.60341293      -1.98613128      -0.24464908      -0.23190079       0.17308818      -0.46571726       1.44661862      -0.40926292      -0.09509377
N        1.83687132       0.82743753       1.14702239       0.48119684      -0.60144057      -0.27337833       1.29414224       0.45708606      -2.51477879      -0.44538642
8
Properties=species:S:1:pos:R:3:momenta:R:3:forces:R:3:charge:R:1 energy=-194.4501703700499 free_energy=-194.4501703700499 dipole="-0.2991653286550817 -0.023029444867018734 0.15886382501554294" pbc="F F F"
B       -1.04544635      -0.45218219      -1.75991869      -0.24582911       0.21661936      -0.11615825       1.74417851      -0.44698240      -0.24953999       0.23914082
H        1.21022126       1.52164319       0.89566758       0.10538171      -0.07250834       0.12483661      -0.11367963       0.86611231       0.33331187       0.13255732
H        1.83930775       0.80378057       2.25321563       0.03896545       0.23702592       0.30166486      -0.38248600      -0.64283744       0.84037179       0.15935287
H        1.35393281       0.00430148       0.74133967       0.07566803      -0.07289602      -0.12955430      -0.26347146      -1.77060199       0.42288787       0.15597651
H       -1.83930775       0.12652977      -2.25321563       0.21627629      -0.05058332       0.13546236      -1.75265567       1.58207714      -0.43752057      -0.07740250
H       -0.10287462       0.12098609      -1.32171438       0.06145944      -0.25921635      -0.40876228      -0.46911062      -0.57781514       0.10926818      -0.07928352
H       -1.07369157      -1.52164319      -2.20446969      -0.03052974       0.08552147      -0.24192174       0.47561923      -0.55374943       0.57142677      -0.08124963
N        1.69155133       0.74026686       1.28740182      -0.22139208      -0.08396272       0.33443273       0.76160565       1.54379694      -1.59020592      -0.44909187
8
Properties=species:S:1:pos:R:3:momenta:R:3:forces:R:3:charge:R:1 energy=-194.8611781369267 free_energy=-194.8611781369267 dipole="-0.3402821026562325 -0.0283383868038812 0.09864234299458051" pbc="F F F"
B       -0.90096516      -0.39352492      -1.85638431      -0.08163499       0.01683546       0.37122360      -1.18933348       0.89775690      -0.20864035       0.24370783
H        1.37706934       1.51155277       0.79226546       0.17007792      -0.06810458      -0.03568596       0.26075430       0.28749978       0.32253011       0.13908342
H        1.84696172       0.79515865       2.19884470       0.22387070      -0.16770017       0.11265380      -0.32643455      -0.28728255       0.33384743       0.14988827
H        1.40825598      -0.06515071       0.77842745      -0.10468038       0.05699646      -0.17077140       0.57093369       0.28288740       0.97337615       0.13925720
H       -1.90093578       0.30383821      -1.83458956       0.03516326      -0.08299057      -0.06585321       0.54710138      -0.98196579      -0.07238870      -0.09242127
H        0.01475475       0.24969186      -1.59501641       0.16812915       0.14302415      -0.27077993       0.66652358      -0.17258288       0.12056458      -0.07845159
H       -0.88332240      -1.51155277      -2.19884470       0.08766725       0.08962775      -0.00218682      -0.01836135       0.25949395       0.16725704      -0.07221835
N        1.90093578       0.74218834       1.20208338      -0.49859291       0.01231150       0.06139991      -0.51118358      -0.28580681      -1.63654626      -0.42884551
8
Properties=species:S:1:pos:R:3:momenta:R:3:forces:R:3:charge:R:1 energy=-194.86527302808435 free_energy=-194.86527302808435 dipole="-0.32352903558517676 -0.011182257480441736 0.10028044461484466" pbc="F F F"
B       -0.95919156      -0.50991092      -1.74423197      -0.03578798      -0.12318366      -0.00971794       0.42157743       0.14154713      -0.22192229       0.24087585
H        1.38497000       1.44961851       0.94805622      -0.15018918      -0.15602826       0.00893477      -0.68897267       1.31950861      -0.19189892       0.14978298
H        1.77948434       0.59344496       2.37031905      -0.00644596      -0.03196353       0.17623541      -0.27377449       0.08511132      -2.40501473       0.13292632
H        1.33377895      -0.14872662       0.88289701       0.20660683      -0.04206318      -0.02349338      -0.30935791      -0.51504565       0.11355537       0.14365922
H       -1.79955795       0.12210893      -1.31014216      -0.11846412       0.23388029       0.46066465      -0.68760799       0.28911619       0.33286679      -0.08063554
H        0.11533306      -0.10120472      -1.61878880       0.11121965      -0.22171877      -0.07699406       0.32085311      -0.08697954       0.01675145      -0.08165237
H       -1.17500580      -1.44961851      -2.37031905       0.17250200       0.28299048      -0.34526991      -0.04724722      -0.34159504      -0.11961361      -0.07810867
N        1.79955795       0.63327054       1.29205935      -0.17944125       0.05808662      -0.19035954       1.26452975      -0.89166303       2.47527593      -0.42684779
8
Properties=species:S:1:pos:R:3:momenta:R:3:forces:R:3:charge:R:1 energy=-194.63393481035126 free_energy=-194.63393481035126 dipole="-0.3549074865346789 -0.004504046884871582 0.033719759911540394" pbc="F F F"
B       -0.93173429      -0.52134120      -1.66137833       0.07312154       0.39477466       0.38229251      -0.85677223      -0.68401708      -0.30710186       0.24233284
H        1.24063314       1.27721238       0.91122011       0.14347355      -0.12954691      -0.10923933       0.55137456      -0.25325949       0.77386102       0.13714418
H        1.65148743       0.63175502       2.48109968       0.08224913      -0.06111136       0.09736714       0.09355998      -0.50348152      -3.03320591       0.13205693
H        1.45217998      -0.32999661       0.92602650      -0.01331225      -0.10870990      -0.15189346       0.78504325       1.44958508       1.62332549       0.13247773
H       -1.83370832      -0.23700205      -0.99034830       0.03687580      -0.14750543      -0.17777016       0.15126095       0.45654093       0.44315663      -0.08429211
H        0.16562911      -0.20695128      -1.50057460      -0.24009216       0.25431645      -0.06967137       0.12188691       0.08609984      -0.02533624      -0.07090547
H       -1.31407944      -1.27721238      -2.48109968      -0.24454915       0.16994646      -0.31319555       0.59597429       0.14506143      -0.10549032      -0.08635886
N        1.83370832       0.57043186       1.38720780       0.16223353      -0.37216398       0.34211022      -1.44232771      -0.69652919       0.63079120      -0.40245523
8
Properties=species:S:1:pos:R:3:momenta:R:3:forces:R:3:charge:R:1 energy=-194.60130516819345 free_energy=-194.60130516819345 dipole="-0.42991473885128395 0.04027634977955152 -0.014281570475777222" pbc="F F F"
B       -0.96913820      -0.51133090      -1.72499393       0.85530379       0.20068382      -0.14101619       0.48445724       2.39027175       4.04771588       0.24350731
H        1.26202173       1.26085609       1.07702743       0.13518745      -0.18927954       0.11497917       0.72274924      -0.41170637      -0.10583333       0.13910921
H        1.58869985       0.43963720       2.42861471      -0.02633697       0.17666547      -0.06426352       0.80391979      -0.22217209      -1.84843352       0.13010767
H        1.33763965      -0.33318725       0.99434691      -0.02118754      -0.01320681      -0.01345554       0.01131060      -0.54943809      -0.21092159       0.14565565
H       -1.84147638      -0.23034434      -0.88978539      -0.15866847       0.06478051       0.32685164       0.92556541      -0.01105270      -0.94097385      -0.10033685
H        0.15374006      -0.19821130      -1.44345642      -0.01468141       0.13841927       0.09328958      -0.71168897      -0.07537659      -0.44650283      -0.08166535
H       -1.24094907      -1.26085609      -2.42861471      -0.29245357      -0.08056050       0.17512525      -0.68907998      -2.30090941      -2.65354914      -0.06096599
N        1.84147638       0.44996602       1.37462433      -0.47716326      -0.29750222      -0.49151039      -1.54723333       1.18038350       2.15849837      -0.41541165
8
Properties=species:S:1:pos:R:3:momenta:R:3:forces:R:3:charge:R:1 energy=-194.5811881724696 free_energy=-194.5811881724696 dipole="-0.1491974809854878 0.020121262761428386 0.12976132325475398" pbc="F F F"
B       -1.14414640      -0.47017532      -1.59551397       0.37711765      -0.12922506       0.66685882       0.26810710      -0.89069400      -1.19257255       0.24488415
H        1.16414533       1.41714397       1.09626388      -0.33236168      -0.22668994       0.30901790      -0.03672739      -1.81066054       0.15234711       0.14378633
H        1.90136648       0.64934171       2.40341082      -0.07926462       0.12565891      -0.22106096      -0.74036845      -0.60889799      -1.38265632       0.12896279
H        1.26363425      -0.39409226       1.16385745      -0.01859503       0.11661985      -0.06755178      -0.65694529       0.09372891      -0.03823432       0.15524891
H       -1.90136648      -0.04035275      -0.81705372      -0.13302760       0.00046137       0.03798186      -0.03282222      -0.26891404      -0.17904166      -0.07411593
H       -0.07973893       0.03394463      -1.69128750       0.00730645       0.18787441      -0.34980959      -0.32752578      -0.16377031       0.08335644      -0.07956688
H       -1.37261609      -1.41714397      -2.40341082      -0.27176626       0.27966957      -0.30493102       0.09800768       1.32494400       1.29740558      -0.09109058
N        1.55253001       0.51444664       1.42801334       0.45059109      -0.35436911      -0.07050522       1.42827434       2.32426397       1.25939573      -0.42810880
8
Properties=species:S:1:pos:R:3:momenta:R:3:forces:R:3:charge:R:1 energy=-194.86506248015831 free_energy=-194.86506248015831 dipole="-0.2207555572360926 -0.1342098087194656 0.20735407963732813" pbc="F F F"
B       -1.16698215      -0.60500601      -1.59182532      -0.27311715       0.73328046       0.18741117      -0.90349926       0.43234748       1.06142751       0.24272584
H        0.82451927       1.26377436       1.55625255       0.05815163      -0.09088377       0.16501893       0.32367358      -1.05602693      -0.30697739       0.14373191
H        1.83111240       0.27845459       2.41360687       0.04069669      -0.06338667      -0.06906424      -0.11631212       0.24575147      -0.59252442       0.13464005
H        1.09871738      -0.38796732       1.13300735       0.33942505       0.11909137      -0.46866104      -0.38397183       0.47697256      -0.11198445       0.14447293
H       -1.83111240      -0.49937343      -0.58232044      -0.02734860      -0.27109670      -0.25082038       0.51564637      -0.15393663      -0.60436537      -0.09902957
H       -0.20733475       0.08034083      -1.60087407       0.01105555      -0.04683047       0.06922209      -0.22172809      -0.50679074      -0.41590602      -0.06869760
H       -1.69023317      -1.26377436      -2.41360687      -0.14166527      -0.23050676      -0.13796365       0.61567336       0.22792879      -0.02916772      -0.07479608
N        1.50173795       0.48582276       1.45751744      -0.00719789      -0.14966747       0.50485711       0.17051798       0.33375401       0.99949786      -0.42304749
8
Properties=species:S:1:pos:R:3:momenta:R:3:forces:R:3:charge:R:1 energy=-194.6024804787688 free_energy=-194.6024804787688 dipole="-0.34663651848534205 -0.1865070274453049 0.008853209442158502" pbc="F F F"
B       -1.21851670      -0.38970595      -1.59402516       0.41976637       0.29015372      -0.42300662       0.62542266      -0.42918928       1.39696452       0.24074198
H        0.52465770       1.11221021       1.76766571      -0.19637412      -0.16778756      -0.05599561       1.22848942      -0.92042007      -1.06750571       0.14336430
H        1.56016931       0.06427860       2.42303121      -0.13492351      -0.03441810       0.15667555       0.29792775       0.58939371       0.35388557       0.13366759
H        1.51993647      -0.09123163       0.91949571      -0.00956549      -0.01449046      -0.02068865      -0.77713570       0.59085751      -0.84649778       0.15018205
H       -1.56016931      -0.33986927      -0.45617584       0.01621934      -0.03374009       0.21177235      -0.64235938      -0.08936193      -0.70035443      -0.08559817
H       -0.14079909      -0.01426416      -1.64698237      -0.02879989      -0.36879954      -0.14962817       0.69345943       0.60598238      -0.47352743      -0.08450225
H       -1.53871711      -1.11221021      -2.42303121       0.00951818       0.10086676      -0.22512829      -0.67140071      -0.08844049      -0.21147872      -0.07042209
N        1.46543519       0.66176477       1.59394449      -0.07584089       0.22821528       0.50599945      -0.75440347      -0.25882183       1.54851399      -0.42743341
8
Properties=species:S:1:pos:R:3:momenta:R:3:forces:R:3:charge:R:1 energy=-194.573036407618 free_energy=-194.573036407618 dipole="-0.043740094024799496 -0.23589821662644261 0.06300897038081746" pbc="F F F"
B       -1.33910247      -0.43119168      -1.68692708      -0.83345421      -0.00906910      -0.95004660       0.40657135       1.40320394       0.98414086       0.24262726
H        0.42459364       0.89046320       1.70959753       0.07735056       0.10541567       0.14875189       0.60671634      -0.79520521       0.12823171       0.15773505
H        1.95066630       0.31200662       2.51955032       0.07809668       0.17177859       0.02808137      -1.81617578       0.58974252      -1.22881126       0.13073382
H        1.71713398      -0.06269470       0.91984414       0.23906960       0.24375308      -0.02408747      -1.03470372       0.41198860       0.25733405       0.13853107
H       -1.79453031      -0.00293246      -0.64783861       0.26976883       0.26852361       0.02966173       0.30570648      -0.62474636      -0.85003840      -0.08492684
H       -0.26123258      -0.08559935      -1.99628517      -0.36295966       0.04270496       0.35079697       0.00835383      -0.17581725       0.26829675      -0.08440123
H       -1.95066630      -0.89046320      -2.51955032      -0.13367448      -0.14317816       0.07652504      -0.71621653      -0.60200823      -0.39256990      -0.07319619
N        1.36821574       0.53567653       1.66508215       0.66580267      -0.67992866       0.34031708       2.23974804      -0.20715802       0.83341619      -0.42710296
8
Properties=species:S:1:pos:R:3:momenta:R:3:forces:R:3:charge:R:1 energy=-194.77754360736654 free_energy=-194.77754360736654 dipole="0.09109166960081339 0.3227448100426993 -0.09009538859915873" pbc="F F F"
B       -1.43764376      -0.28722246      -1.76689642      -0.10638647      -0.19450527      -0.33541414      -1.20783679      -1.84320025      -0.30688592       0.24420416
H        0.55666282       1.15417991       1.72370779       0.09775345       0.22919786      -0.05392498      -0.91405990       1.14991019       0.06907617       0.15281535
H        2.06361867       0.82723011       2.41792341       0.16787503       0.27875668      -0.26294621      -0.10512971       0.44049471       0.12002385       0.14545185
H        1.75878217       0.44822013       0.84907366      -0.14769672       0.38367110       0.04125920       0.02273670       0.16243936      -0.24594433       0.14090196
H       -1.81486551      -0.09933303      -0.65875481      -0.06691901      -0.14471166       0.18087900       0.34021049       0.21953738      -0.58340125      -0.07295001
H       -0.45679544       0.02989471      -2.27140333      -0.03568801       0.04573744      -0.01495872       0.31292292       0.48485538       0.11955660      -0.07218712
H       -2.06361867      -1.15417991      -2.41792341      -0.07348642       0.00941258       0.26644205       0.56208444       1.14318165       0.77712044      -0.09903305
N        1.35221383       0.59407480       1.75295588       0.16454815      -0.60755874       0.17866380       0.98907185      -1.75721842       0.05045445      -0.43920313
8
Properties=species:S:1:pos:R:3:momenta:R:3:forces:R:3:charge:R:1 energy=-194.80850648975235 free_energy=-194.80850648975235 dipole="0.1454822134812534 0.22509717297986961 -0.07284222825450916" pbc="F F F"
B       -1.40599197      -0.56570528      -1.66086272      -0.81486438       0.13531471      -0.16133584      -0.45250570       0.31764842      -1.30933055       0.23658959
H        0.64655798       0.92207124       1.94020258       0.08955223      -0.11577003      -0.22624646      -0.42953352       0.57567909       0.09489807       0.14836371
H        2.21458553       0.63325327       2.39571366       0.19473066      -0.04520684       0.28443161      -0.25147197       0.12992536       0.10258586       0.14165919
H        1.72901138       0.28278657       0.90014325       0.01688817      -0.17384258      -0.02972043      -0.04887897       0.01055639      -0.46277518       0.14389688
H       -1.53856341      -0.36246789      -0.56937776      -0.17059797      -0.16821374       0.12853666      -0.11211060      -0.07896488       1.24363200      -0.06620383
H       -0.60444847      -0.07590738      -2.29236921       0.03138469       0.17296488      -0.28205758       1.30168237       0.41803128      -0.11526003      -0.08573573
H       -2.21458553      -0.92207124      -2.39571366       0.08554610       0.20229564       0.02881765      -0.72753646      -0.65244445       0.18972595      -0.08461187
N        1.42201803       0.30720624       1.85409410       0.56736050      -0.00754204       0.25757439       0.72035485      -0.72043120       0.25652388      -0.43395795
8
Properties=species:S:1:pos:R:3:momenta:R:3:forces:R:3:charge:R:1 energy=-194.91079492934995 free_energy=-194.91079492934995 dipole="0.03714675298788875 0.3668729458777386 -0.11495950079179959" pbc="F F F"
B       -1.39503461      -0.39623175      -1.73989156       0.37420292       0.70540520       0.49139880      -0.16284410      -0.49453393       0.57918961       0.24108704
H        0.74054864       0.88762774       1.96040822      -0.38986891      -0.00011273       0.30973292      -0.37314371       0.10807040      -0.05870418       0.13976203
H        2.31391483       0.71404618       2.33587344       0.09731684      -0.15422617      -0.06560955      -0.91422996      -0.72127753      -1.40049329       0.13651123
H        1.66689715       0.26180573       0.77812450      -0.06159035      -0.18074547      -0.10712142       0.47448129       0.23337442      -0.07561845       0.14994836
H       -1.37058599      -0.49470239      -0.57008556      -0.05431584      -0.04543684      -0.12681521       0.14776907       0.22308659      -0.15911801      -0.08154072
H       -0.50218498       0.02566858      -2.33587344      -0.02634623      -0.19298243      -0.15138433       0.11330126       0.18089897      -0.12662101      -0.07787342
H       -2.31391483      -0.88762774      -2.24917636       0.29018318       0.22707907       0.06806391      -0.08777023       0.09566905      -0.28606803      -0.08159851
N        1.52579436       0.28821526       1.77212262      -0.22958161      -0.35898063      -0.41826513       0.80243638       0.37471203       1.52743336      -0.42629602
8
Properties=species:S:1:pos:R:3:momenta:R:3:forces:R:3:charge:R:1 energy=-194.7413285411515 free_energy=-194.7413285411515 dipole="0.12419263864573234 0.31427055743176735 -0.07806477868346505" pbc="F F F"
B       -1.42293679      -0.59342714      -1.56055904       0.72877469       0.21823772       0.68153303       0.95473326       0.23273584      -0.73086359       0.23579159
H        0.73676257       0.77818937       2.23532077       0.15380809       0.27761993       0.02597581       1.64712120      -1.58594258      -0.72654870       0.13295964
H        2.31436529       0.03590890       2.24955120      -0.22755708      -0.26682954      -0.09041466      -0.49435480       0.28476718       0.13909812       0.14214854
H        1.46890171       0.08274977       0.85024803      -0.24331785      -0.13244001      -0.44751773      -0.28939630      -0.00085853       0.97679922       0.13831740
H       -1.22384537      -0.66617252      -0.45495814      -0.24435774      -0.15438878       0.13791324      -0.66447828      -0.27664683       1.24053260      -0.06749673
H       -0.43422246      -0.29029198      -2.07201129       0.03944906       0.19269453      -0.18068263       0.38833498       0.20750678      -0.62243979      -0.09655489
H       -2.31436529      -0.77818937      -2.24955120      -0.18915766       0.17902513       0.05391486      -0.66871409      -0.15967540       0.11991430      -0.07157878
N        1.36525429      -0.02818515       1.87934407      -0.01764150      -0.31391899      -0.18072192      -0.87324597       1.29811354      -0.39649216      -0.41358677
8
Properties=species:S:1:pos:R:3:momenta:R:3:forces:R:3:charge:R:1 energy=-194.82176824159413 free_energy=-194.82176824159413 dipole="0.24102737728471837 0.2443505355936803 -0.17427508686975787" pbc="F F F"
B       -1.33212515      -0.64724182      -1.54628718      -0.92717171       0.28433061       0.78979759       0.08828812      -0.36244528       2.11330190       0.24202761
H        1.17331888       0.93060084       2.08668211       0.13251467       0.24923547       0.30560037       0.60234774      -1.63620348      -0.14439441       0.13128929
H        2.39239666      -0.27976815       2.12480775       0.18939822      -0.40407565       0.12088039      -1.09257032       0.45520348      -0.52947135       0.14044784
H        1.40942265       0.00439839       0.77715809      -0.08528748      -0.34596593      -0.30803136       0.26265613      -0.32143293       0.09454197       0.14424459
H       -1.29576405      -0.93060084      -0.31976961       0.07111019      -0.20132309      -0.05529482       0.19493702       0.36445776      -1.62799756      -0.08893972
H       -0.36931124      -0.36074668      -2.12480775       0.12271128      -0.17838450      -0.04177180       0.00202601      -0.02946285      -0.05332594      -0.07682046
H       -2.39239666      -0.63805866      -1.98549562       0.05213152       0.04773342      -0.03158406      -0.27344074       0.03446155      -0.43051226      -0.07600312
N        1.42721104      -0.06054101       1.79150426       0.44459332       0.54844966      -0.77959631       0.21575604       1.49542175       0.57785766      -0.41624602
8
Properties=species:S:1:pos:R:3:momenta:R:3:forces:R:3:charge:R:1 energy=-194.6661657451066 free_energy=-194.6661657451066 dipole="0.36011730770783523 0.22086531562153458 -0.052261842109858646" pbc="F F F"
B       -1.27276447      -0.72427995      -1.56070344       0.06461967      -0.71311396       0.22936504      -0.91076971      -0.41251463      -0.89234527       0.23895556
H        1.51557389       0.97766502       1.97971437       0.03283610       0.22939165       0.28980683       0.07751584      -2.19858978      -0.96474769       0.12939338
H        2.36039009      -0.46175444       2.07538217       0.08765280      -0.04671440      -0.11146541      -0.12295975      -0.02724121       0.09999806       0.14117118
H        1.82828068      -0.00800242       0.61500488       0.52117040       0.07815993      -0.32976671      -0.31768260       0.17090036       0.53062865       0.14258717
H       -1.46169603      -0.90604863      -0.45455913       0.06018493       0.21672699       0.18348474       0.66983658       0.12988208       1.07396790      -0.07165685
H       -0.22105690      -0.46023416      -2.07538217      -0.15195455       0.18506348       0.13903173      -0.97593524      -0.16495381       0.29002302      -0.07534092
H       -2.36039009      -0.97766502      -2.05686328      -0.09015884      -0.10086001      -0.14584222       1.22381095       0.45014325      -0.47695862      -0.09186667
N        1.55849260      -0.04705134       1.60753094      -0.52435053       0.15134632      -0.25461402       0.35618394       2.05237374       0.33943395      -0.41324283
8
Properties=species:S:1:pos:R:3:momenta:R:3:forces:R:3:charge:R:1 energy=-194.92254516300176 free_energy=-194.92254516300176 dipole="0.28152198774195586 0.22994405664459872 -0.1195722536055595" pbc="F F F"
B       -1.51461116      -0.66918049      -1.48256512       0.22136479       0.20620789      -0.36960818      -0.30548244      -0.44894782       0.55156660       0.23921176
H        1.17582039       0.96791677       1.83716806      -0.02824877       0.02332689      -0.15958496       0.18789036       0.14839096       0.56292133       0.14531011
H        2.21844120      -0.26868693       2.33853084       0.05654098      -0.05668151      -0.33928794      -0.15808412       0.41231450       0.05506315       0.14533270
H        1.62810430      -0.16297786       0.80508552      -0.20344482      -0.50117178      -0.19362511      -0.30984921      -0.16554308       1.16318994       0.13358542
H       -1.75105398      -0.94996567      -0.36523764      -0.30510071      -0.09009231      -0.20655666       0.05570971       0.15359499      -0.29956409      -0.07516720
H       -0.53759500      -0.17629227      -1.78870903       0.16621095       0.21816724      -0.29933396       0.73415562       0.43929240      -0.01130955      -0.08180915
H       -2.21844120      -0.96791677      -2.33853084      -0.12163629       0.21157362       0.05058803      -0.47455827      -0.13945481      -0.24175083      -0.08214908
N        1.38375023      -0.01983920       1.81692077       0.21431386      -0.01133004       1.51740877       0.27021837      -0.39964714      -1.78011655      -0.42431456
8
Properties=species:S:1:pos:R:3:momenta:R:3:forces:R:3:charge:R:1 energy=-194.82587670273296 free_energy=-194.82587670273296 dipole="0.2931307565125631 0.15885287382837252 -0.21808800348295992" pbc="F F F"
B       -1.41887672      -0.64708394      -1.54962926      -0.23243593       0.55606305       0.47622711      -0.02771108       0.51196497      -0.78481995       0.24177227
H        1.22286957       0.94368494       1.72486163      -0.23243671       0.06661674      -0.19085426       0.08603288      -0.48227988       0.35661139       0.14110445
H        2.33733864      -0.11117139       2.31034701      -0.07213685       0.09048545       0.13502256       0.41055179       0.09628298       0.47003332       0.14547809
H        1.58612682      -0.43450557       0.90414814      -0.07140703      -0.02450572      -0.00818344      -0.54932629       0.54502833       1.95269951       0.12982330
H       -1.43479228      -0.94368494      -0.44640155       0.38628253      -0.14740200      -0.35604098      -0.33985743      -0.40535381       0.54413031      -0.07229600
H       -0.43731349      -0.03909224      -1.82433411       0.22745271      -0.04911434      -0.14138376      -0.47173803      -0.23550969      -0.35216792      -0.08904678
H       -2.33733864      -0.83616004      -2.31034701       0.18716143      -0.03568432      -0.13450339       0.85108346       0.13235518       0.59689651      -0.08031274
N        1.42140579      -0.05032478       1.90729292      -0.19248016      -0.45645887       0.21971615       0.04096470      -0.16248808      -2.78338317      -0.41652260
8
Properties=species:S:1:pos:R:3:momenta:R:3:forces:R:3:charge:R:1 energy=-194.74246581426368 free_energy=-194.74246581426368 dipole="0.28180360105736096 0.2512752446930212 -0.0771835470960582" pbc="F F F"
B       -1.35912838      -0.50896722      -1.58987756       0.54797109       0.11564568       0.38364335      -1.61081511      -2.26927122       0.74904609       0.23971858
H        0.97928809       1.07357647       1.95708738      -0.39329718       0.40102396       0.03175773       0.43783141      -0.78044844      -0.98021435       0.14837436
H        2.14159947      -0.02292416       2.37383988      -0.22166376      -0.45818161       0.29075226      -0.84607233       0.18695039       0.05291845       0.12924575
H        1.66776380      -0.19531261       0.89914936       0.06711581       0.37904965      -0.04181247      -0.75094352       0.93950889      -0.30499409       0.14986898
H       -1.37692772      -1.07357647      -0.52712372       0.00730478       0.04147266      -0.15050510       0.11819899       0.55716452      -0.58895579      -0.08307753
H       -0.60013292       0.25864745      -1.83118718      -0.35666439       0.33013134       0.15802827       1.04930189       1.22671182      -0.40748871      -0.06875715
H       -2.14159947      -0.95846639      -2.37383988       0.02649877      -0.15785363      -0.03922787       0.45097381       0.48830802       0.24631636      -0.08781965
N        1.28972425       0.10406660       1.79370555       0.32273488      -0.65128806      -0.63263617       1.15152488      -0.34892400       1.23337204      -0.42755335
8
Properties=species:S:1:pos:R:3:momenta:R:3:forces:R:3:charge:R:1 energy=-194.80745049546366 free_energy=-194.80745049546366 dipole="0.23239993683176907 0.25535441241307 -0.005199136037056425" pbc="F F F"
B       -1.31179112      -0.48972042      -1.72127614       0.09811488       0.07061520      -0.13036391       0.91761259      -0.07822244       2.06871010       0.23855621
H        0.91301617       1.04388451       1.86856818      -0.11241097       0.29439319      -0.09923806       0.30226615      -0.73989779      -1.10267029       0.13967193
H        1.93714302       0.04380355       2.50654910      -0.31933081       0.21246929      -0.12377058       0.01437000      -0.48138842      -0.77169740       0.13501384
H        1.85492309       0.02902524       0.83869585      -0.07038078       0.10820412       0.11342825       0.50445615       0.42454042      -0.69847767       0.15414238
H       -1.11591721      -1.04388451      -0.65288086       0.37716013      -0.06195429      -0.03499661      -0.26258973       0.32558162      -0.94093851      -0.08633457
H       -0.78776052       0.55042851      -1.78801127      -0.13609202      -0.14834506       0.21306810      -0.17662173      -0.00433041      -0.37177593      -0.08119642
H       -1.93714302      -1.00470017      -2.50654910      -0.06605502      -0.30470988      -0.27474102      -0.47281783      -0.23756577      -0.75717246      -0.07099489
N        1.33454542       0.11495356       1.67300019       0.22899458      -0.17067257       0.33661383      -0.82667560       0.79128278       2.57402216      -0.42885849
8
Properties=species:S:1:pos:R:3:momenta:R:3:forces:R:3:charge:R:1 energy=-194.8103911853225 free_energy=-194.8103911853225 dipole="0.22047276854458395 0.17528895124966112 -0.03795205689180678" pbc="F F F"
B       -1.33646987      -0.43993013      -1.67793902       0.14223521       0.17391708      -0.46149887       0.27853341      -0.03923096      -0.13699670       0.24441021
H        0.87671940       1.08713188       1.59965599      -0.11379973       0.40256241      -0.01889089       1.00998328      -1.17946182       0.24664976       0.14423319
H        1.90552866       0.05075014       2.53998671      -0.01634991       0.12609438       0.28645362       0.00361731       0.57861173       0.37140658       0.14344083
H        1.76666643      -0.23552917       0.98123479      -0.23194645       0.08211189      -0.21315981       0.18541424       0.10862015      -0.92113625       0.14358243
H       -1.02557400      -0.96696241      -0.63173429       0.09783198      -0.26279348       0.33414091      -0.33259653       0.48103651      -0.89485442      -0.07456344
H       -0.97862275       0.70652058      -1.89797051       0.00370996       0.09447199       0.11471972      -0.43107715      -1.11138148       0.19607453      -0.08574900
H       -1.90552866      -1.08713188      -2.53998671       0.17595406      -0.27015689       0.20817798       0.49300048       0.67608745       0.83903046      -0.08404492
N        1.28299294       0.14174219       1.75991851      -0.05763512      -0.34620738      -0.24994265      -1.20687503       0.48571844       0.29982604      -0.43130929
8
Properties=species:S:1:pos:R:3:momenta:R:3:forces:R:3:charge:R:1 energy=-194.83034947342716 free_energy=-194.83034947342716 dipole="0.30443665842471457 0.14451366765271154 -0.07103904076213978" pbc="F F F"
B       -1.34899383      -0.42259488      -1.78741652       0.55108237      -0.13320178       0.61216196      -0.66278658      -0.90555971      -0.62105192       0.23855250
H        1.11151779       1.23541383       1.50740059      -0.19591013      -0.10275523       0.06787575       0.76636127      -1.33696774       0.16931031       0.14589167
H        2.00489761      -0.01258034       2.35516796       0.09682497      -0.19712041      -0.16986855      -0.43793815       0.84565930      -0.03744716       0.14041910
H        1.64942703      -0.26690298       0.82706859      -0.23425296      -0.03399868      -0.09753072      -0.49839497       0.79394521       0.10955718       0.13751285
H       -0.96312512      -0.83358777      -0.78212842      -0.21067637      -0.17554206      -0.11800526       0.36514220       0.43466858       0.35276488      -0.06929590
H       -1.17593276       0.59601825      -2.31746980      -0.40472212      -0.08260782      -0.13894865       0.17034982       0.07325991       0.28720456      -0.07526589
H       -2.00489761      -1.23541383      -2.35516796      -0.11577116      -0.01906399       0.35684331       0.13405922       0.40200250      -0.01612355      -0.09388123
N        1.29240291       0.22103305       1.65841077       0.51342540       0.74428997      -0.51252785       0.16320718      -0.30700805      -0.24421430      -0.42393310
8
Properties=species:S:1:pos:R:3:momenta:R:3:forces:R:3:charge:R:1 energy=-194.48468518156386 free_energy=-194.48468518156386 dipole="0.2039695537258782 0.15672813822742798 -0.2346252109190236" pbc="F F F"
B       -1.46196600      -0.57686629      -1.50977101      -0.31579603       0.51153166       0.32099784       2.19670644       1.43707621       0.22021576       0.24059945
H        1.09844866       1.27561354       1.69465922       0.13885266       0.01455266      -0.14904229      -0.36732790      -0.98217898      -0.05352962       0.14063013
H        2.20907370       0.15132187       2.02506892      -0.06777704       0.11035146      -0.00194446      -1.41649220       0.05179817       0.56058173       0.13180913
H        1.22629025      -0.20131502       0.88034052      -0.01793715       0.11135060      -0.34939700      -0.91596069       0.66494442       0.86117440       0.13988206
H       -0.55387510      -0.74502189      -0.74921270       0.26418496      -0.10061547      -0.08729449      -0.91785505      -1.05167656       0.08239840      -0.08545247
H       -1.12954500       0.50930559      -1.88197571      -0.12271144      -0.42344409      -0.03639354      -1.07557036      -0.19843212      -0.45881454      -0.09365707
H       -2.20907370      -1.27561354      -2.02506892      -0.01768300      -0.09681360      -0.21670573      -0.20666932      -0.19113315       0.14935102      -0.06033581
N        1.16407418       0.24370514       1.83306915       0.13886704      -0.12691322       0.51977967       2.70316907       0.26960202      -1.36137715      -0.41347541
8
Properties=species:S:1:pos:R:3:momenta:R:3:forces:R:3:charge:R:1 energy=-194.73707100985686 free_energy=-194.73707100985686 dipole="0.3002455510467871 0.04923677453420765 -0.16448862691678193" pbc="F F F"
B       -1.32526970      -0.57226509      -1.58530492      -0.42717777      -0.46454366      -0.42400024      -1.15445632       0.04407243      -0.58014659       0.24357856
H        1.44152403       1.27488975       1.89438096       0.07886117       0.11545347       0.29209908      -0.01980721      -0.69981469      -1.01081891       0.15168977
H        2.13590319      -0.21495393       2.12153676      -0.16068100      -0.02968051       0.02396475       0.41714443       0.12307572       0.50098087       0.13400717
H        1.21279630      -0.19575259       0.84245263       0.18089132       0.08778913      -0.03257853      -0.12190751       1.52402103       0.36997862       0.14750775
H       -0.74752796      -1.07328043      -0.71185431      -0.13150047      -0.08444066       0.10322190       0.27652350       0.33298147      -0.00815981      -0.07290550
H       -1.34802246       0.57506266      -1.92961553      -0.02353760       0.31145582       0.15930784       0.37473116      -0.73302713       0.41482147      -0.07907733
H       -2.13590319      -1.27488975      -2.12153676       0.02589402      -0.14299149       0.06738370       0.50562223       0.35180203       0.17314657      -0.09065784
N        1.33933903       0.27004754       1.75258333       0.45725033       0.20695791      -0.18939851      -0.27785028      -0.94311086       0.14019778      -0.43414259
8
Properties=species:S:1:pos:R:3:momenta:R:3:forces:R:3:charge:R:1 energy=-194.8179751179118 free_energy=-194.8179751179118 dipole="0.44926265444010166 -0.012170187706184981 -0.15539464164248765" pbc="F F F"
B       -1.22133296      -0.59308577      -1.68103109      -0.00746727       0.24139366       0.25812470      -1.05290373      -0.28951117      -0.03900765       0.23623000
H        1.77309917       1.30351217       1.75036679       0.30226740      -0.19822852       0.06051305      -0.31725750      -0.27940178      -0.10574724       0.14006731
H        1.99393092      -0.21857432       2.19796524       0.02606859      -0.00045028      -0.17444664       0.33644638      -0.59012067       0.31958372       0.14505307
H        1.44247748       0.08413532       0.66453975       0.41148588      -0.55053323       0.00482235      -0.13188116       0.40772258       1.58704775       0.13596625
H       -0.74124514      -0.70069078      -0.64240358       0.04203471       0.12391267      -0.08814104       0.24409935      -0.34971692       0.15193034      -0.06726236
H       -1.27910089       0.41542816      -2.18387410      -0.08912985      -0.16746507      -0.30985134       0.46833519       1.20332577      -0.43289423      -0.08362814
H       -1.99393092      -1.30351217      -2.19796524       0.13264401      -0.00311207       0.04625145       0.34013573      -0.56478461       0.31991485      -0.08464880
N        1.36604235       0.36445693       1.68590159      -0.81790346       0.55448285       0.20272747       0.11302575       0.46248680      -1.80082754      -0.42177734
8
Properties=species:S:1:pos:R:3:momenta:R:3:forces:R:3:charge:R:1 energy=-194.71635623182647 free_energy=-194.71635623182647 dipole="0.23917145274847784 -0.07722512253895979 -0.02054935916392271" pbc="F F F"
B       -1.35248494      -0.40655401      -1.59020747       0.26580569      -0.24708084      -0.23665642      -0.50268538       0.43748851      -2.60074914       0.24158322
H        1.74204437       1.42987184       1.69650722      -0.16323135      -0.28589278      -0.09372369       0.73733034       0.35701686       0.48232985       0.15017752
H        1.45372227      -0.15105035       2.26182598      -0.26657184      -0.13918248      -0.02004174       0.74319942      -0.52518180       0.73887016       0.15248323
H        1.26448219       0.24985754       0.64660643       0.09063181       0.05152301       0.20537037      -0.05284420       0.52371787       2.00660294       0.12605364
H       -0.79759099      -0.34817499      -0.63121604       0.04351936      -0.11619024       0.26879563       0.58909449      -0.16122937       1.53262899      -0.06408677
H       -1.32511445       0.62415423      -2.26182598      -0.04279099       0.01219903      -0.07665791      -0.27360948      -1.08143190       0.56570287      -0.09374035
H       -1.74204437      -1.42987184      -2.09382713      -0.15128228       0.33653349      -0.34315690       0.17908313       0.80289969       0.49722804      -0.08264358
N        1.21766997       0.59136791       1.66408778       0.22391960       0.38809082       0.29607066      -1.41956832      -0.35327985      -3.22261371      -0.42982691
8
Properties=species:S:1:pos:R:3:momenta:R:3:forces:R:3:charge:R:1 energy=-194.63089401780013 free_energy=-194.63089401780013 dipole="0.427603152919664 -0.04042894533449563 -0.12851590463952572" pbc="F F F"
B       -1.16604494      -0.51177054      -1.71521574       0.03958618      -0.43736269       0.19731982      -1.62213252      -0.97360179       0.25457442       0.24011944
H        1.83529872       1.38172304       1.76740790       0.03385643       0.07877834      -0.13935371       0.65805941       0.48947720       0.49518493       0.14799039
H        1.68761172      -0.22158773       2.22390774      -0.22608933      -0.12107691      -0.01585186       1.17041563      -1.63546820       1.38558429       0.15679215
H        1.47453795       0.25264961       0.61638672       0.12254656       0.13091376       0.02288199      -0.11502928       0.29774261       2.40927360       0.12535919
H       -0.82965564      -0.76132651      -0.62177623       0.10394139      -0.01833382      -0.50389765       0.40462951       0.25452188      -0.27062710      -0.07220586
H       -1.36273475       0.55366476      -2.11781095      -0.24016504      -0.13204573       0.13913292       0.45459206       0.23479035      -0.06476576      -0.07433565
H       -1.83529872      -1.38172304      -2.22390774      -0.31414609       0.03460466      -0.28118577       0.76610577       0.48464187       0.07873837      -0.09302033
N        1.39451358       0.50195642       1.67056930       0.48046991       0.46452240       0.58095426      -1.71664059       0.84789608      -4.28796275      -0.43069933
8
Properties=species:S:1:pos:R:3:momenta:R:3:forces:R:3:charge:R:1 energy=-194.78155756019504 free_energy=-194.78155756019504 dipole="0.3470164386241812 -0.17824096094423286 -0.11056217288207291" pbc="F F F"
B       -1.46875061      -0.44750614      -1.64196400      -0.44765602       0.01135575       0.53621698       0.30515478      -0.59769109       0.09061473       0.24358862
H        1.98065347       1.32683479       1.75759256       0.04175427      -0.12148493      -0.36746383      -0.40015164      -0.12976863       0.07905560       0.14248027
H        1.49133118      -0.09896047       2.38603060       0.06798116      -0.27967275       0.08573826      -0.17730343       0.50140480       0.45919757       0.14070130
H        1.16220117       0.18456504       0.88471977       0.02794453       0.08574003       0.18013008      -0.30646970       1.22107894       1.03021220       0.13330662
H       -0.74924286      -0.78705393      -0.73176673       0.02051189      -0.18236318      -0.11992574      -0.63896598       0.83970759      -0.52286820      -0.08196892
H       -1.98065347       0.57520075      -1.93217938      -0.11150232       0.06769098      -0.00569663       0.42092557      -0.21043745       0.55201044      -0.07203201
H       -1.66381543      -1.32683479      -2.38603060       0.15749707      -0.05385127      -0.18019595      -0.08653715      -0.03483150      -0.12256094      -0.08884394
N        1.17325829       0.69640495       1.82128264       0.24346942       0.47258536      -0.12880317       0.88334754      -1.58946265      -1.56566139      -0.41723194
8
Properties=species:S:1:pos:R:3:momenta:R:3:forces:R:3:charge:R:1 energy=-194.88037007782614 free_energy=-194.88037007782614 dipole="0.22428019115986136 -0.1777320057575761 -0.20546269126107133" pbc="F F F"
B       -1.39651571      -0.48208378      -1.64028655      -0.04996442       0.32151308      -0.02281507       0.06302954      -0.75464232      -0.44788917       0.24276407
H        2.02146791       1.37151848       1.59402875       0.16820323       0.01534702      -0.35164847       0.75433385       0.20144933      -0.15769648       0.15003277
H        1.67015795      -0.10883479       2.38152774       0.21732533      -0.30102396      -0.28383997      -0.19991731       1.64943851      -0.73590706       0.13363281
H        0.88516618       0.31771635       1.01017145       0.13302488      -0.04004864      -0.09602872       0.33260542       0.59883325       0.51010021       0.13702877
H       -0.50473194      -0.53031194      -0.93850865       0.25359525      -0.09349978      -0.05570421       0.75578342      -0.20809584       0.49549951      -0.08714297
H       -2.02146791       0.45703615      -1.56275671      -0.37249505      -0.42332490       0.10452385      -0.73436939       0.66839790      -0.17825374      -0.07415868
H       -1.59523022      -1.37151848      -2.38152774      -0.26230319      -0.02430246      -0.21524514      -0.08032165       0.29136782       0.12984547      -0.08034279
N        1.30334171       0.73976311       1.85762634      -0.08738604       0.54533964       0.92075773      -0.89114387      -2.44674865       0.38430126      -0.42181398
8
Properties=species:S:1:pos:R:3:momenta:R:3:forces:R:3:charge:R:1 energy=-194.84445698813218 free_energy=-194.84445698813218 dipole="0.08068090949739855 -0.12774632694838997 -0.22940815326780745" pbc="F F F"
B       -1.35836950      -0.49624929      -1.50406245      -0.11215603       0.23567068       0.09442384       1.17085360      -0.37613266      -0.08767193       0.24325169
H        1.94020354       1.30916137       1.72672609       0.12505530      -0.14108474       0.02533543       0.83083693      -0.29861162       0.06965895       0.15070174
H        1.56382523      -0.32298388       2.22224932      -0.09916653      -0.09026887      -0.08013109       0.72879776       0.31868801      -0.11308889       0.14821598
H        0.60360226       0.54766619       1.24200218      -0.17249097       0.32759374       0.24095984       0.31763528       0.05301658       0.53432473       0.13375736
H       -0.28934391      -0.67418168      -1.01051813       0.12675702      -0.10379935      -0.12945085      -0.63325808       0.30251584       0.01772579      -0.08744008
H       -1.94020354       0.47942828      -1.53318405       0.35286186      -0.00369539       0.01356328      -0.22231834       0.72950996       0.37659443      -0.07328178
H       -1.71451479      -1.30916137      -2.22224932       0.23426452      -0.06031380       0.06682561      -0.30534698      -0.65642415      -0.29815598      -0.08179125
N        1.27806861       0.62188017       2.01883239      -0.45512517      -0.16410228      -0.23152606      -1.88720015      -0.07256196      -0.49938710      -0.43341365
8
Properties=species:S:1:pos:R:3:momenta:R:3:forces:R:3:charge:R:1 energy=-194.5869059834357 free_energy=-194.5869059834357 dipole="0.08420487443716519 0.0027958146576853847 -0.42071816460742223" pbc="F F F"
B       -1.24913305      -0.49632686      -1.56744089       0.23578209      -0.13279533       0.28232615      -3.82370962       0.29214450      -0.89556134       0.24350547
H        2.14006050       0.93533538       1.67959155      -0.16898279      -0.23224173       0.02331198      -0.34247196      -0.32491102       0.22399911       0.13870542
H        1.18602885      -0.45524786       1.76599899      -0.14514450       0.06054892      -0.33871419      -0.09151383       2.13184297       0.40107346       0.13477092
H        0.49876356       1.18982323       1.67786997      -0.02235116       0.12130544      -0.08853400       1.43471561      -1.72561767       0.75351694       0.13326054
H       -0.27273070      -0.79295771      -1.15733843       0.14543675      -0.09368417      -0.22301611       1.63610506      -0.62801260       0.42443848      -0.06186784
H       -1.77968813       0.53335497      -1.32842138       0.06797696       0.11831299      -0.00588850       0.64814687       0.05247976       0.03826669      -0.08871831
H       -2.14006050      -1.18982323      -2.09702964      -0.10007990       0.12676914      -0.24821563       1.54962243       0.28722922       0.44361615      -0.09283164
N        1.27863688       0.56281916       2.09702964      -0.01263745       0.03178473       0.59873029      -1.01089456      -0.08515516      -1.38934950      -0.40682456
8
Properties=species:S:1:pos:R:3:momenta:R:3:forces:R:3:charge:R:1 energy=-194.7590669338155 free_energy=-194.7590669338155 dipole="0.020744490114096514 0.019421031512316212 -0.2552760625909045" pbc="F F F"
B       -1.34422570      -0.57258931      -1.53603566      -0.19331845      -0.00597572      -0.11137745      -0.39666157       0.50370118      -0.32536493       0.23665528
H        2.11945254       0.70140228       1.92809430      -0.11174124      -0.22128922       0.20517018       0.65581499       0.06785608      -0.32274726       0.14727260
H        0.97978356      -0.50380028       1.63023190       0.06427425       0.20456502      -0.06961302       0.42347471       1.38404398       0.55237523       0.13608048
H        0.54618061       1.09933970       1.83354789       0.08792973      -0.05811892       0.07762641      -0.23129846       0.16438510      -0.22127386       0.14447418
H       -0.32432027      -1.00389713      -1.59210086      -0.12051990       0.14786689      -0.30153061       1.67622049      -0.42158888       0.38692381      -0.07420676
H       -1.66331144       0.46909685      -1.25305679       0.03001388       0.08890411       0.03631796       0.12103823       1.09725618       0.75339618      -0.07787160
H       -2.11945254      -1.09933970      -2.13030326      -0.03455642       0.08879997       0.03891246      -1.39130490      -1.17720424      -0.79835152      -0.08453572
N        1.19583476       0.39564018       2.13030326       0.27791815      -0.24475213       0.12449407      -0.85728350      -1.61844940      -0.02495764      -0.42786846
8
Properties=species:S:1:pos:R:3:momenta:R:3:forces:R:3:charge:R:1 energy=-194.513174133843 free_energy=-194.513174133843 dipole="0.08114462384072764 0.11237998669235737 -0.4356417962288983" pbc="F F F"
B       -1.28761396      -0.57143954      -1.83677515       0.18435166       0.28579565      -0.85067834       1.35352251      -0.99568473       0.65253781       0.24363071
H        2.23202630       0.69316478       2.00260329      -0.08110523      -0.16596521      -0.14620844       1.08799203      -0.35843723       0.09834895       0.14116609
H        1.15464853      -0.47260273       1.49423826       0.19540753      -0.15869833       0.06615808      -0.12134864       1.54147159       0.14725643       0.14527839
H        0.84490085       1.29295854       1.65764023      -0.15239295       0.14637384       0.12207382      -0.30307174      -1.54983824      -0.15950653       0.14224639
H       -0.05570234      -0.77920331      -2.01857731      -0.06728073       0.21523380      -0.01636173      -1.89464896      -0.23071578      -0.26678927      -0.08864710
H       -1.42168842       0.37184184      -1.22711917       0.15378999      -0.02731362      -0.01496317      -0.27468070       1.21441172       0.27438663      -0.08180988
H       -2.23202630      -1.29295854      -1.74546768      -0.02019587      -0.00724515       0.26730374       0.82588650       0.01457862      -0.65054089      -0.07316504
N        1.27675817       0.41758968       2.01857731      -0.21257440      -0.28818099       0.57267604      -0.67365101       0.36421405      -0.09569312      -0.42869957
8
Properties=species:S:1:pos:R:3:momenta:R:3:forces:R:3:charge:R:1 energy=-194.6948875700585 free_energy=-194.6948875700585 dipole="-0.002322629139720392 0.15766645380630578 -0.36315221078400617" pbc="F F F"
B       -1.35500375      -0.30652284      -1.91751924       0.29507708       0.32164995       0.15742068       0.74028395      -3.00413024      -0.61653795       0.23920668
H        2.04693108       0.98146968       1.93943203      -0.15667965      -0.38824894      -0.19844246       1.78204301       1.00769422      -0.27194528       0.14725055
H        1.14982730      -0.25133038       1.52974122       0.29669136       0.18586432       0.20854102      -0.59230161      -0.08388292      -0.36181162       0.14601075
H        0.44996976       1.26707010       1.96792549      -0.07979898       0.01820792       0.05626551       0.57196577      -1.03881571      -0.21778346       0.14168251
H       -0.27058036      -0.68223240      -2.11613085      -0.27725805       0.24603943      -0.07802501       0.46183375       0.28898293      -0.15428218      -0.09520480
H       -1.47058880       0.70781624      -1.51625763       0.21621275       0.19675372      -0.17677867      -0.77078958       1.77211937       0.62539585      -0.06244125
H       -2.04693108      -1.26707010      -2.03454854      -0.14578852      -0.42555721      -0.43819115      -0.42428990       0.94574821       0.15639649      -0.08156097
N        1.19117427       0.55950543       2.11613085      -0.14845597      -0.15470920       0.46921008      -1.76874539       0.11228415       0.84056815      -0.43494347
8
Properties=species:S:1:pos:R:3:momenta:R:3:forces:R:3:charge:R:1 energy=-194.83848832767285 free_energy=-194.83848832767285 dipole="-0.03894607904157891 0.004466933037840243 -0.38940246323744826" pbc="F F F"
B       -1.15494294      -0.40867490      -1.90232254      -0.46046096       0.16433420       0.27405045      -1.66618713      -0.22158149       0.31710953       0.24301519
H        2.10384082       0.81607473       1.68021611      -0.09070093      -0.30930340      -0.57833667       1.43438736       0.50873632      -1.08775681       0.15221338
H        1.09036018      -0.41601973       1.95295434       0.53065996       0.25104755      -0.00794233      -0.12704334      -1.31444283      -0.40602839       0.14668041
H        0.52291449       1.08659770       1.96750114      -0.12162364       0.15109986      -0.17000339       0.41713395      -0.11380270       0.06236528       0.13918100
H       -0.06830350      -0.79935821      -1.93330513      -0.09864634      -0.03030671      -0.02721645       0.09852912       0.16118938      -0.05526358      -0.06947469
H       -1.58196640       0.57940024      -1.42195890       0.20640569      -0.04339534       0.18374224       0.75375183       0.06204859      -0.09855252      -0.08282148
H       -2.10384082      -1.08659770      -2.18567841       0.21797257      -0.24270898      -0.06110809       0.82173467       0.00089526      -0.15093681      -0.09071706
N        1.33559352       0.50542732       2.18567841      -0.18360634       0.05923283       0.38681424      -1.73230647       0.91695746       1.41906331      -0.43807676
8
Properties=species:S:1:pos:R:3:momenta:R:3:forces:R:3:charge:R:1 energy=-194.91484821972085 free_energy=-194.91484821972085 dipole="-0.07704276026239908 -0.05565696911997307 -0.36002605438478" pbc="F F F"
B       -1.26169536      -0.51393046      -1.75367331      -0.23588548       0.27821363       0.26460116       1.68589931      -0.64596047       0.18182860       0.24175718
H        2.15404543       0.64087135       1.74712518      -0.10402386      -0.04716118       0.19996020       1.17433989       0.03110534      -0.80767961       0.15017201
H        1.05393313      -0.49586117       2.20288930       0.20699185      -0.36641823      -0.02165887       0.08371834      -0.46975166      -0.16050781       0.14465584
H        0.58892482       1.01729704       1.86499160       0.36548372      -0.01788378      -0.21540030      -0.21749354       0.19824893      -0.14723978       0.14232346
H       -0.18755596      -1.01729704      -1.83742794       0.02968400      -0.25546011      -0.07446367      -0.44171140       0.06304088      -0.18928780      -0.09174732
H       -1.28651464       0.36883207      -1.04940771      -0.00242524      -0.09034418      -0.08126703      -0.35960086       0.89538178       0.50998988      -0.07867605
H       -2.15404543      -0.98574509      -2.24936675       0.01477278      -0.02278675      -0.14803471      -0.87791717      -0.30885194      -0.49071483      -0.07131188
N        1.33269604       0.46288009       2.24936675      -0.27459776       0.52184059       0.07626322      -1.04723457       0.23678714       1.10361136      -0.43717323
8
Properties=species:S:1:pos:R:3:momenta:R:3:forces:R:3:charge:R:1 energy=-194.80126232010676 free_energy=-194.80126232010676 dipole="-0.04078047648739269 -0.0723311165730913 -0.2977530331078036" pbc="F F F"
B       -1.26658416      -0.46093967      -1.71300083       0.54197122       0.64421270      -0.63517134       0.85663093      -1.60455122      -0.89477219       0.24336803
H        2.17563323       0.64971763       1.92341208      -0.12805635      -0.23305951      -0.01053028       1.08096588       0.35019814      -0.88562016       0.15260312
H        1.06744104      -0.54552628       2.25542235       0.26515500      -0.43224252       0.08136294       0.42013226       1.32024934      -0.06204086       0.13175662
H        0.53671210       0.96495812       1.89864668      -0.09025013       0.18259297       0.05908500      -0.62096438       0.74540232      -0.79731633       0.14980607
H       -0.15311622      -0.92011696      -1.75074213      -0.09030609       0.05173794       0.44528886      -0.80325736      -0.03426871      -0.23410578      -0.09253063
H       -1.29317892       0.45134589      -1.07193394       0.09616844       0.04670082      -0.18119648      -0.57005455       1.26628078       0.74905335      -0.07376486
H       -2.17563323      -0.96495812      -2.29482847      -0.24954143      -0.25942391       0.00818071       0.52262113       0.37560937       0.39113530      -0.07705145
N        1.28996950       0.47716810       2.29482847      -0.34514067      -0.00051847       0.23298060      -0.88607391      -2.41892003       1.73366667      -0.43418690
8
Properties=species:S:1:pos:R:3:momenta:R:3:forces:R:3:charge:R:1 energy=-194.87812114573953 free_energy=-194.87812114573953 dipole="-0.0029324308262077877 -0.1918340378965138 -0.3271687057829696" pbc="F F F"
B       -1.31388420      -0.40574980      -1.72912863      -0.20442206      -0.45946099      -0.18576864       0.47029495       0.47554095      -0.04575670       0.24775262
H        2.14124782       0.65788051       1.88703599       0.14172210       0.07988003       0.17686466       0.83515048      -0.08730159      -0.05992205       0.14562232
H        1.04839720      -0.46310847       2.40620593      -0.20616821       0.03116809       0.47860024       0.24889720       1.14934436      -0.09448434       0.13737509
H        0.61664493       0.93448531       1.64724434       0.16194526       0.02608099      -0.08562882      -0.60779385       0.13789599      -0.15738336       0.14499438
H       -0.23597311      -0.92743170      -1.73838193       0.22668368      -0.02615180       0.06887705      -0.59342976       0.30889696       0.15629389      -0.08669294
H       -1.42090212       0.67798699      -1.15085697      -0.03445855       0.11990684      -0.00354683      -0.12084475      -1.29538044      -0.66240249      -0.08409790
H       -2.14124782      -0.93448531      -2.40620593      -0.05557192       0.32696848       0.14296814       0.25143884       0.51458171       0.56616442      -0.07692728
N        1.25124678       0.55957796       2.32818246      -0.02973030      -0.09839163      -0.59236581      -0.48371311      -1.20357795       0.29749062      -0.42802629
8
Properties=species:S:1:pos:R:3:momenta:R:3:forces:R:3:charge:R:1 energy=-194.82548513148967 free_energy=-194.82548513148967 dipole="0.13734556953699545 -0.20550707305282884 -0.31835313681357563" pbc="F F F"
B       -1.25931456      -0.23442513      -1.78990307      -0.25817596      -0.13427734      -0.17427355      -2.36949859       0.43900459      -0.95077414       0.23982975
H        2.19512219       0.85571375       2.00024668       0.18220180      -0.05518026       0.01018369       0.69659992      -0.16800032       0.16936686       0.14515184
H        0.98887108      -0.20177028       2.46404089       0.01911230       0.01062606      -0.14625020       0.43962661       1.41139590      -0.29982716       0.13666144
H        0.74831429       1.05994868       1.41288492      -0.03273586      -0.00839201      -0.18102147      -0.35483294      -0.01287641       0.07571484       0.14298543
H       -0.54225781      -1.05994868      -1.69713153      -0.23114092      -0.17865323      -0.03554046       1.76049464      -1.20187174       0.46349389      -0.06943509
H       -1.32743792       0.77796398      -1.26830517       0.06602872       0.20046671       0.10956681       0.35168000       0.46510741       0.35070113      -0.07438253
H       -2.19512219      -0.53681357      -2.46404089      -0.12711367       0.01019038      -0.11939400       0.26624904       0.30212509       0.14983352      -0.09595516
N        1.23187438       0.80608021       2.26740535       0.38182359       0.15521969       0.53672919      -0.79031867      -1.23488452       0.04149106      -0.42485567
8
Properties=species:S:1:pos:R:3:momenta:R:3:forces:R:3:charge:R:1 energy=-194.7972561868327 free_energy=-194.7972561868327 dipole="-0.05285890036646247 -0.22744441198154547 -0.18620797378675527" pbc="F F F"
B       -1.24944308      -0.18059713      -2.00952413      -0.38860714       0.52347130       0.04166225       0.69139400      -0.94162072      -0.41213490       0.24452820
H        2.26249409       0.65700772       1.72284995      -0.04602095      -0.15782674       0.01440382      -0.49975155      -0.46357251       0.74276776       0.13941671
H        0.93596529       0.04416634       2.63216390      -0.07227716       0.10602478      -0.04591575       0.00708271      -0.41589255      -0.34262382       0.15136126
H        0.79942068       1.10299166       1.29443391       0.14468892      -0.28090494      -0.06646357      -0.35225705      -0.45312283       0.64001830       0.13952864
H       -0.48520586      -1.10299166      -1.90448087      -0.06284682      -0.10998183      -0.53092395      -0.77624829       0.17193175      -0.15049234      -0.09225012
H       -0.72601657       0.76184247      -1.58567886       0.36694972      -0.09664306      -0.39995898      -0.53513618       0.52053688       0.00088595      -0.07889071
H       -2.26249409      -0.28858894      -2.63216390       0.05667693       0.09361602      -0.10360899       0.62562735       0.25333301       0.57219951      -0.07332426
N        1.32647818       0.80692561       2.11859094       0.00143650      -0.07775551       1.09080518       0.83928903       1.32840698      -1.05062044      -0.43036971
8
Properties=species:S:1:pos:R:3:momenta:R:3:forces:R:3:charge:R:1 energy=-194.62482731592746 free_energy=-194.62482731592746 dipole="0.0414037809187562 -0.25939595509408475 -0.24390592289519025" pbc="F F F"
B       -1.24273567      -0.09277023      -2.00825923       0.24849271       1.35262422      -0.25602918      -1.12520384       2.82543500       0.17914854       0.24202983
H        2.27948977       0.77324669       1.71903573       0.03063777       0.15888550      -0.19164238      -1.96639652      -0.14032535       0.90063681       0.12760117
H        1.08605443      -0.03597123       2.52373751       0.00960445      -0.17906561      -0.20905101      -1.06950179      -3.85667589       1.49080266       0.15979478
H        0.68780388       1.07078339       1.37275981       0.16822914      -0.20354384       0.28006292      -0.37375182      -0.28877879      -0.09369193       0.14562503
H       -0.73723919      -1.07078339      -1.99270349      -0.04737555       0.06502425       0.10307874       0.99792005      -1.51725734       0.13401139      -0.06436628
H       -0.87646171       0.95147246      -1.52244852       0.08008483      -0.21993548       0.13111028       0.18551909      -0.97984516      -0.17436606      -0.09096350
H       -2.27948977       0.06258251      -2.52373751      -0.19090050      -0.00438425       0.32209375      -0.05126830      -0.32480221      -0.12631508      -0.08663060
N        1.28242226       0.78297048       2.12735550      -0.29877285      -0.96960480      -0.17962313       3.40268313       4.28224976      -2.31022634      -0.43309042
8
Properties=species:S:1:pos:R:3:momenta:R:3:forces:R:3:charge:R:1 energy=-194.8539613208017 free_energy=-194.8539613208017 dipole="0.014075909181008381 -0.17253093896366015 -0.3060238459116435" pbc="F F F"
B       -1.13906807      -0.10489060      -2.02280870       0.83068956      -0.25106147       0.31507700      -0.60732221      -0.44761423      -0.11900041       0.24045082
H        2.24984838       0.76957852       1.51658195      -0.06529220      -0.04496616      -0.11060963      -1.00939379      -0.15778809       0.53462059       0.13289168
H        1.22473877      -0.27685423       2.28295709      -0.18298167      -0.05228985      -0.15844861      -0.52233074      -0.16733015      -0.37176218       0.14891094
H        0.62189353       1.11101789       1.38846761      -0.06679941       0.08848771       0.22055443       0.65083523      -1.14489591       0.80310716       0.14120757
H       -0.59782983      -1.11101789      -2.04422369       0.06672366       0.05909648      -0.07954798       0.12110615      -0.58449762      -0.13697562      -0.07828053
H       -0.59490625       0.79314391      -1.64728336      -0.20203568       0.02911766      -0.19980952       0.87116346       1.25176083       0.48070993      -0.08140380
H       -2.24984838       0.04627685      -2.28295709      -0.06890409       0.12761955       0.11139024      -0.37777980      -0.21600913      -0.21280081      -0.08070072
N        1.33741015       0.68246911       2.01508332      -0.31140016       0.04399609      -0.09860593       0.87372169       1.46637431      -0.97789866      -0.42307597
8
Properties=species:S:1:pos:R:3:momenta:R:3:forces:R:3:charge:R:1 energy=-194.78629686819508 free_energy=-194.78629686819508 dipole="-0.033205791958426066 -0.16970785588585635 -0.3041682458599796" pbc="F F F"
B       -1.09085782      -0.21117762      -2.00267279       0.18336949      -0.24774847      -0.67065078       0.97287401       1.69396573       0.36360712       0.24471610
H        2.18812263       0.76106516       1.63525786      -0.12214113       0.14484957       0.20771959      -0.43315758      -0.62734383       0.68009630       0.13769967
H        1.01943912      -0.25078619       2.24549102      -0.05490315      -0.27731295      -0.00279338      -0.78934518      -2.54346721      -0.07517254       0.15724431
H        0.68626779       1.21537361       1.52883529       0.24571159       0.05157978      -0.03277655      -0.33026818      -0.60221515       0.48830322       0.13962550
H       -0.59681641      -1.21537361      -2.24549102      -0.21176787       0.07459567       0.06036893       0.20519762      -0.37734123       0.03372985      -0.07245049
H       -0.43617500       0.76573595      -1.61558621       0.14030485      -0.14981596      -0.11057686      -0.55841963      -1.22264961      -0.32059272      -0.09590401
H       -2.18812263       0.01154843      -2.23134305       0.32495504      -0.02399482      -0.05476213      -0.61349861      -0.09061224      -0.06471285      -0.07631807
N        1.29072293       0.65834897       2.13913192      -0.50552884       0.42784719       0.60347117       1.54661755       3.76966353      -1.10525839      -0.43461301
8
Properties=species:S:1:pos:R:3:momenta:R:3:forces:R:3:charge:R:1 energy=-194.6949411706861 free_energy=-194.6949411706861 dipole="0.027819086431493383 -0.14368307195228563 -0.4217965039647178" pbc="F F F"
B       -1.03595925      -0.12813568      -2.06587194      -0.07547703      -0.88070366      -0.70730004       0.71656422      -1.64719483       0.32295532       0.24198764
H        2.15533842       1.01960212       1.83602992      -0.25431572       0.09921918       0.02372454       0.25540636       0.17041750       0.21310752       0.14375372
H        1.09279425      -0.02439649       2.29903796      -0.21509734       0.07688646      -0.04777466      -0.57628228      -3.57531662       0.46577739       0.15470988
H        0.58485339       1.25017820       1.55485450       0.03293272      -0.11266414       0.05122324       0.61123776      -0.05918197       1.02842166       0.13443163
H       -0.62190109      -1.25017820      -2.09270143      -0.11333153       0.03929125       0.00966707       0.19857742       0.47944067      -0.04350517      -0.09775782
H       -0.29176429       0.66908172      -1.66494415       0.18966028       0.21969588      -0.19972564      -0.39456434       0.32361238      -0.17566339      -0.07356061
H       -2.15533842      -0.17203571      -2.29903796      -0.03326533       0.00020219      -0.00362936      -0.51411012       0.84883060      -0.09299604      -0.07063184
N        1.25543814       0.90966423       2.29226741       0.46889395       0.55807285       0.87381485      -0.29682901       3.45939227      -1.71809729      -0.43293260
