B  H  N 
 1.0000000000000000
    12.0000000000000000    0.0000000000000000    0.0000000000000000
     0.0000000000000000   12.0000000000000000    0.0000000000000000
     0.0000000000000000    0.0000000000000000   12.0000000000000000
 B   H   N  
   1   6   1
Cartesian
  8.0774683626773900  5.3605801760307656  5.6336904792817215
  3.4788900256074093  6.6802025550310011  7.4615717601128573
  3.6353517165451699  7.7973553382312133  6.1794700927727000
  4.8184616350549128  6.4495146962484711  6.2668295792327022
  7.6280033002618417  5.7769451635861060  4.5384282398871427
  8.1718106470951035  4.2026446617687867  5.8462652123071841
  8.5211099743925871  6.1107380934400615  6.4781681833434739
  4.0268405601664341  7.0139560448834004  6.6953628735999438
