8
Lattice="12.0 0.0 0.0 0.0 12.0 0.0 0.0 0.0 12.0" Properties=species:S:1:pos:R:3:momenta:R:3:forces:R:3 energy=-439.9915417601043 pbc="T T T"
B        5.74140981       6.09897017       4.97359090      -0.08657778       0.01714007       2.42835996      -0.34740025       1.19273018       2.59247708
H        6.28588777       6.95449873       7.38800572      -0.00374580       0.34867202      -0.00093195       0.01353318       0.33088428       0.00035102
H        7.13335389       5.48664741       7.05444799       0.20133076      -0.09682438      -0.18910544       0.77930422      -0.40032305      -0.06122454
H        5.46192189       5.44050204       7.38915415      -0.11841350       0.01977133      -0.07372408      -1.01953749      -0.66892864       0.53800853
H        4.86664611       6.85335086       4.97059371      -0.07984062       0.04172786       0.04783101      -0.42669312       0.48423876       0.29842971
H        5.41755033       5.04550127       4.82990899      -0.22407941       0.28013631       0.05786077      -0.15590684      -2.05683974      -0.38067654
H        6.71707344       6.50933729       4.61084585      -0.18587081       0.09583038       0.01778061       1.58041931       0.28584618      -0.77035062
N        6.23729726       5.98697828       7.01760637      -0.02359410       0.09925967      -1.15302845      -0.42371901       0.83239204      -2.21701463
8
Lattice="12.0 0.0 0.0 0.0 12.0 0.0 0.0 0.0 12.0" Properties=species:S:1:pos:R:3:momenta:R:3:forces:R:3 energy=-440.0057868316859 pbc="T T T"
B        5.15186356       6.29428573       6.41095553       1.28422512      -0.31240136       0.49787761       4.38946824       0.50779295      -1.31427512
H        7.02840526       6.45857530       4.95473767      -0.05134675       0.01842524      -0.09291742      -0.13366884      -0.09409494       0.24356420
H        6.49387401       4.82637764       4.98754616      -0.10880221      -0.02401574       0.07453284      -0.05954803       0.66631656       0.57989170
H        7.36092504       5.48032651       6.36372522      -0.01921963       0.12027653       0.00482400      -0.92630082       0.30711559      -1.16628074
H        5.70840543       7.17362236       6.86822652       0.00641793       0.02932596      -0.07570245      -0.40465347       1.24426096       0.91972902
H        5.05366971       5.41666063       7.04526233      -0.10417425       0.00773406      -0.11540484      -1.50050226      -2.24268689       1.98834785
H        4.63907496       6.48418788       5.46507130      -0.18938340       0.12161217       0.18011340      -2.58796151       0.58035913      -1.75356512
N        6.64015023       5.70557573       5.58397293      -1.22133580       0.66347983       0.40634731       1.22316669      -0.96906338       0.50258821
8
Lattice="12.0 0.0 0.0 0.0 12.0 0.0 0.0 0.0 12.0" Properties=species:S:1:pos:R:3:momenta:R:3:forces:R:3 energy=-440.1816409911098 pbc="T T T"
B        5.49928927       5.64611101       5.42236948      -0.97178335      -0.65363232      -0.55416900       0.00209937       0.99196008       2.17665909
H        6.14568419       7.28299531       6.70746105       0.03566648       0.19089140       0.08563914      -0.62998893       1.56965761       0.17754909
H        7.41975801       6.51147968       5.98413078       0.18341498       0.04598452      -0.01128716       1.12218664      -0.00984636      -0.28565049
H        6.63180751       5.88079701       7.35214853       0.21533423      -0.10262410       0.10912369       0.37806871      -0.97968909       0.80763311
H        4.58024199       5.64019385       6.14138027       0.13687007       0.12300143       0.05280249      -0.80059453      -0.64988711      -0.82821725
H        6.09781225       4.71700469       5.25082944       0.10596492       0.04268663       0.07661924       0.01155761      -1.97620267      -0.95273622
H        5.56458843       6.45732464       4.64785147       0.01492660       0.00977607       0.06919644      -0.84598442       0.51046303      -1.95096092
N        6.51296480       6.36549164       6.45009601       0.06298083       0.47833452       0.10217094       0.76265556       0.54354451       0.85572360
8
Lattice="12.0 0.0 0.0 0.0 12.0 0.0 0.0 0.0 12.0" Properties=species:S:1:pos:R:3:momenta:R:3:forces:R:3 energy=-440.05321392980363 pbc="T T T"
B        6.49238650       6.06220340       6.86741404      -0.94302223      -0.05506242      -1.14731885       0.25954665      -0.90858157      -4.05194091
H        4.48219631       6.14569790       5.75084360      -0.01575140      -0.06482724       0.01352915       0.49001507      -0.20848404      -0.90085338
H        5.53992118       5.13978481       4.65916092      -0.14550626       0.03668459       0.22004504      -0.23786418       1.55007033       1.06575770
H        5.74329481       6.96336676       4.76606323      -0.07582339       0.01517666      -0.13929511      -0.84963460      -1.90587846       0.70058929
H        5.98953793       6.90610258       7.34083908       0.04441187       0.18228928      -0.02329134      -1.15392154       2.33425560       1.59161136
H        7.51780369       6.25149646       6.36091327       0.28428959       0.09561088      -0.00689667       0.52594110      -0.06406061       0.35618406
H        6.20532621       5.03663324       7.19676061       0.10052876      -0.08370531      -0.01940227      -0.01523905      -1.74185798       1.09430205
N        5.41626985       6.04023552       5.25769040       0.47567735       0.04459530       1.01382532       0.98115654       0.94453673       0.14434982
