8
Lattice="12.0 0.0 0.0 0.0 12.0 0.0 0.0 0.0 12.0" Properties=species:S:1:pos:R:3:momenta:R:3:forces:R:3 energy=-440.2044575090125 pbc="T T T"
B        6.30686171       5.98849599       6.97768525       0.50936377      -0.23840868       0.60660520      -0.64321549      -1.19222590      -2.80492415
H        4.90398424       6.66569203       5.01909489      -0.08950363      -0.06368977      -0.20266969       0.03809794      -0.08292067       0.09863536
H        4.95303353       4.94342268       4.98134730      -0.12722195       0.02861650      -0.12980130       0.04584318      -0.05934901       0.37434793
H        6.27589693       5.85199903       4.41049957      -0.06332169       0.00741793      -0.18472025       0.44536163       0.07382840       0.02370715
H        6.64377660       7.05657732       6.83833386       0.01141698       0.05039354       0.34223509       0.51834493       1.40692280       0.16847468
H        7.09601576       5.15280638       6.85395035      -0.01453458       0.22403508       0.03496651       0.48199252      -0.33951918       0.28662167
H        5.37268052       5.76337868       7.58950043       0.27840477       0.19753523       0.04729350      -0.86702013      -0.13121176       0.74865326
N        5.51601703       5.81757259       5.12363338      -0.84335175       0.31817544       0.22437800      -0.01940458       0.32447531       1.10448410
8
Lattice="12.0 0.0 0.0 0.0 12.0 0.0 0.0 0.0 12.0" Properties=species:S:1:pos:R:3:momenta:R:3:forces:R:3 energy=-439.9650385751776 pbc="T T T"
B        6.62385141       5.84135317       5.34656713       0.22091645       0.72509288      -0.07567657       0.14828739       0.86408318       1.45896831
H        6.07912417       5.90485725       7.61206265       0.05686715      -0.00625214       0.10626881      -0.28864254       0.00836388       0.08169387
H        4.66569849       5.40208351       6.69410211       0.02752144       0.02381141       0.07970310      -0.06336371      -0.13841088       0.08439244
H        5.13634720       7.07923695       6.73315866       0.16355058      -0.08274713       0.00789709      -0.03922537      -0.02628042       0.04514749
H        7.33430151       6.71652076       5.28246580      -0.40427422      -0.01545674      -0.02581218       0.50575308       1.42279146       0.77575570
H        6.11752209       5.79677501       4.38793735      -0.10004885      -0.04199871       0.10327014      -2.53982254       0.05938287      -2.12861178
H        7.24712977       4.92076305       5.38416041      -0.37096520      -0.19314135      -0.12117990       0.59337909      -1.93654415       1.30161296
N        5.45261445       6.08223805       6.78898844      -0.02194142       0.25342690       0.85915260       1.68363461      -0.25338595      -1.61895899
8
Lattice="12.0 0.0 0.0 0.0 12.0 0.0 0.0 0.0 12.0" Properties=species:S:1:pos:R:3:momenta:R:3:forces:R:3 energy=-440.0428020700967 pbc="T T T"
B        7.07566152       5.82729155       6.05246789      -0.48558029      -0.08472994      -0.18513033      -3.59088659      -0.26447063       0.61014709
H        4.61554731       5.12984159       5.70243918       0.12426117      -0.08569616      -0.03501728       0.25255543      -0.25447967       0.04171518
H        4.83819123       6.62385166       4.91550920      -0.03174054       0.01714560       0.02836611       0.31744927       0.13554287      -0.23438681
H        4.71399701       6.56651671       6.62663241       0.14376138      -0.06631189       0.17166565       0.23994827      -0.13734394      -0.22849463
H        6.91686879       5.32043350       7.08449080      -0.14454966       0.23891169      -0.24197334       0.60020939       0.25692271       0.60225798
H        7.38445269       6.89940056       5.87136921      -0.07860566       0.04068249       0.02514023       0.72144856       1.33919112       0.19614566
H        7.15866837       5.10059944       5.21595910      -0.16959010       0.07947261       0.04358324       0.75968832      -1.35916765      -1.70827620
N        5.07547177       6.06756921       5.76790034       0.27632582       0.42632570       0.99043231       0.69958736       0.28380519       0.72089172
8
Lattice="12.0 0.0 0.0 0.0 12.0 0.0 0.0 0.0 12.0" Properties=species:S:1:pos:R:3:momenta:R:3:forces:R:3 energy=-439.9824196991702 pbc="T T T"
B        6.18421495       6.04473945       5.05466800      -0.49837927       0.54328593      -0.94758832      -2.28070942      -1.74483584       3.50591560
H        5.05415200       5.33450514       7.00307719      -0.07615058       0.19096549       0.24674040       0.05650106       0.18159693      -0.03804057
H        5.09269455       7.05286512       7.07476063      -0.02607625      -0.08940828       0.32103225       0.19357638      -0.20313206      -0.45390854
H        6.49469146       6.15349555       7.41107214       0.08950418      -0.03023489       0.11517879       0.08244277      -0.05028678      -0.14917869
H        6.43044062       4.94713488       5.19483840      -0.08208616      -0.05750632      -0.01908241       0.85830336      -1.20970750      -0.78809534
H        6.94584800       6.78058199       5.23866013      -0.00290638      -0.01096811      -0.06104722       2.97524944       2.53607708      -0.91048308
H        5.19194824       6.24732860       4.58892786       0.13126909      -0.11739976       0.15672882      -1.30748422       0.67540104      -1.61455642
N        5.64074077       6.18546544       6.80079808       0.04730983       0.21720191       1.09799510      -0.57787936      -0.18511287       0.44834703
8
Lattice="12.0 0.0 0.0 0.0 12.0 0.0 0.0 0.0 12.0" Properties=species:S:1:pos:R:3:momenta:R:3:forces:R:3 energy=-440.1976909717316 pbc="T T T"
B        5.28787628       5.51584162       5.50179809       0.84645458       0.83042860       1.14073197       3.46764663       1.60976571       0.57940100
H        6.13185812       7.36671855       6.70740400      -0.06619513      -0.19587836      -0.29068382       0.33456922      -0.50883639      -0.53349951
H        7.37569376       6.65853851       5.69375179      -0.19287396      -0.10642167       0.05904791      -0.62246157      -0.34502029       0.93412770
H        6.82882654       5.92409070       7.25687844       0.01918514       0.05009756      -0.23830428       0.27412230       0.21319374      -1.02586455
H        4.62430624       5.49201700       6.38339284      -0.21335556      -0.17081889       0.00271115      -2.14299278      -0.81363768       1.45278165
H        5.98790698       4.63328145       5.26261381      -0.05546159      -0.37887214      -0.23960671      -0.53577645      -0.98921864      -0.69511199
H        5.09002672       6.33833003       4.74312156      -0.24645736       0.10281534      -0.21118323      -0.78714314       0.12415308      -1.39131422
N        6.56472231       6.45266453       6.36517189      -0.38046079       0.04807917      -0.31602545       0.01203580       0.70960047       0.67947993
8
Lattice="12.0 0.0 0.0 0.0 12.0 0.0 0.0 0.0 12.0" Properties=species:S:1:pos:R:3:momenta:R:3:forces:R:3 energy=-440.0376056859428 pbc="T T T"
B        5.50719409       5.61080833       5.76146334       0.69406655       0.50751691       0.32747393      -2.57344727      -1.82336545      -0.70596054
H        6.25779563       7.37176898       6.65921363       0.04281623       0.18820763       0.03808872      -0.34834136       1.25953643       0.25152444
H        7.28811783       6.72760430       5.48957087       0.14280685       0.06346925      -0.08113290       1.35895111       0.36125400      -1.00426478
H        7.18159930       6.07887319       7.08500030       0.26611769      -0.06441815      -0.04298523       1.12244509      -0.84078564       0.82424761
H        4.71188217       5.28730292       6.53146937      -0.24777110      -0.14152712       0.04583148       0.16233566       0.55159730       1.35799034
H        5.78167577       4.62823102       5.28037356      -0.20570479       0.00698802       0.01837010       1.84089876      -1.12341461      -0.19990507
H        4.89130878       6.05429592       4.91499970      -0.13984441      -0.22443239       0.00456808      -0.01702927       1.77330158      -0.66691594
N        6.70633974       6.52203841       6.29781289      -0.82570135      -0.16627187      -0.39837952      -1.54581272      -0.15812361       0.14328394
8
Lattice="12.0 0.0 0.0 0.0 12.0 0.0 0.0 0.0 12.0" Properties=species:S:1:pos:R:3:momenta:R:3:forces:R:3 energy=-440.15921933581274 pbc="T T T"
B        5.20621937       5.49797913       5.80158786       0.68314647       0.67140143       0.67527256       3.10390249       1.59794248      -0.10262046
H        6.14321264       7.39713804       6.74022069      -0.34556980       0.08858777      -0.01896661       0.13626251      -0.52984113      -0.62736065
H        7.04795266       6.89017812       5.35137276      -0.07053662      -0.07358338      -0.28204339      -0.42585192      -0.54539946       1.06446305
H        7.22119828       6.11433662       6.94279683       0.07099546      -0.25458026       0.01135158      -0.58348540       0.14104544      -1.09515569
H        4.77880172       5.50030634       6.84951487       0.06379257      -0.03222914      -0.09698560      -1.43967274      -0.79730739       0.93317083
H        5.90503359       4.60286196       5.47960338      -0.15172722       0.01792774      -0.08069585      -1.23043404      -0.45117205      -0.47086716
H        4.79291912       6.29462586       5.05720317       0.03348571      -0.09772620       0.00853378      -1.06815594      -0.88741190      -0.66314703
N        6.52570267       6.53592318       6.22908002      -0.52339074      -0.17099703      -0.29385047       1.50743505       1.47214401       0.96151711
8
Lattice="12.0 0.0 0.0 0.0 12.0 0.0 0.0 0.0 12.0" Properties=species:S:1:pos:R:3:momenta:R:3:forces:R:3 energy=-439.93283907538273 pbc="T T T"
B        5.33660256       5.31262072       6.46711895      -0.56380115      -0.28228798       0.82504712       2.35836575       2.17173425      -0.67237475
H        6.61745089       7.51877421       6.06350853      -0.06306991       0.03404807      -0.03802283      -0.48809561       0.66936752       0.54232790
H        6.16922697       6.88348253       4.56305994      -0.05465540       0.05947807      -0.04042312      -0.61479336       0.10138638      -1.51184065
H        7.56174787       6.34928858       5.42933777      -0.03043931      -0.06842481      -0.20792476       1.22075501      -1.09118812      -0.40666090
H        5.97224796       5.33655922       7.43694006      -0.18777284      -0.16566359      -0.29459194       0.01294601      -0.40509879       0.42975054
H        5.46662723       4.48122579       5.70396522      -0.00655675      -0.07469735       0.25456951      -0.14797153      -1.14694554      -0.53800555
H        4.43825213       6.00846918       6.42812683       0.07658969      -0.15519690       0.03411001      -1.17537988       0.36953330       0.00683700
N        6.60204941       6.68468565       5.45781919       0.52207635       0.84363160      -0.63203493      -1.16582637      -0.66878902       2.14996642
8
Lattice="12.0 0.0 0.0 0.0 12.0 0.0 0.0 0.0 12.0" Properties=species:S:1:pos:R:3:momenta:R:3:forces:R:3 energy=-440.04660546555215 pbc="T T T"
B        6.50804446       5.98555638       6.46584647       0.09500488       0.23330631      -0.08420880       4.27122809       0.43593957       3.86284903
H        5.69389082       6.08388227       4.47635164      -0.07134832      -0.10808761       0.27750861       1.05525347       1.19416312      -0.88604253
H        4.53665116       6.35202690       5.57785933       0.26570054      -0.07375218       0.01302405      -0.34143242       0.66722012       0.75877938
H        5.09506026       4.88014383       5.19658468      -0.13999617       0.29306730      -0.01864863      -0.06593364      -1.25070525       1.03447629
H        7.46334884       5.28486097       6.24533508       0.10817516       0.06084224      -0.09145754      -1.04652391       0.42450519      -0.33053651
H        6.07825881       5.68234296       7.52364836      -0.03739260      -0.05213416       0.25608000      -0.17533296       0.09282941      -0.37894432
H        6.86954708       7.11985617       6.48882123       0.04851096       0.15606406      -0.16333674      -0.42184732      -0.46819571      -0.21355343
N        5.43906850       5.83660247       5.45130482      -0.54016930      -0.34082823      -0.27657787      -3.27541131      -1.09575644      -3.84702791
8
Lattice="12.0 0.0 0.0 0.0 12.0 0.0 0.0 0.0 12.0" Properties=species:S:1:pos:R:3:momenta:R:3:forces:R:3 energy=-439.97309143191836 pbc="T T T"
B        5.82697171       5.96678983       5.22184281      -0.47921083       0.21260574       0.62110724       0.33921256      -0.92475715      -2.32523633
H        6.75465012       5.37755590       6.94097460       0.04249468      -0.04169269      -0.04477144      -0.03702719      -0.88318389       0.69447488
H        5.12854842       6.00048874       7.16228829       0.01789642       0.07808763       0.10398775      -0.68922128      -0.33107602       0.95431997
H        6.47549306       7.00273500       6.89467414       0.00586758       0.02022122      -0.02336534       0.01657678       0.90676332       0.33659820
H        6.87145158       5.92187058       4.83771171       0.16707152      -0.00882945       0.04118845       1.46550807       0.41977411      -1.17620670
H        5.18130978       6.79500480       4.92417542      -0.08688677      -0.18167378      -0.07125008      -1.20338413       2.06367187      -0.99865078
H        5.34453219       4.99726500       5.01359038      -0.01231008      -0.04764065      -0.00521919      -1.04693733      -1.82139541      -0.27725845
N        6.03815373       6.08521316       6.68962839       0.09544100       0.12382396      -0.70223423       1.15527251       0.57020317       2.79195920
8
Lattice="12.0 0.0 0.0 0.0 12.0 0.0 0.0 0.0 12.0" Properties=species:S:1:pos:R:3:momenta:R:3:forces:R:3 energy=-440.0792507589298 pbc="T T T"
B        5.77228248       5.60184281       6.76896938       0.11110775      -0.32923542       1.54789380       0.54438983       1.56662274      -2.19780095
H        5.73339905       6.25957506       4.54077982      -0.03235378      -0.18306987       0.02877361      -0.69520529      -0.73352159      -1.71468920
H        7.30877657       6.45297368       5.22608459       0.04666654       0.00115365      -0.13677857       2.67205770      -0.43382299      -0.60574931
H        6.04433170       7.42914008       5.64652220      -0.09197054       0.06840394      -0.11367757      -0.63581710       3.13752588       0.80022613
H        4.69122343       6.07790189       6.75427245      -0.35269231       0.10964336       0.02130438       0.12184862      -0.77446744       0.78960759
H        6.59841926       6.01283076       7.45922018       0.00908272      -0.10501576       0.02440529      -0.10215607       0.04212399       1.11407104
H        6.00989719       4.57085992       6.32960144      -0.08436903      -0.17516724      -0.25649041      -0.52712687      -1.17460319       0.32543139
N        6.32344589       6.54852887       5.30377749       0.10003349       0.79602457      -1.21046311      -1.37799082      -1.62985740       1.48890330
