B  H  N 
 1.0000000000000000
    12.0000000000000000    0.0000000000000000    0.0000000000000000
     0.0000000000000000   12.0000000000000000    0.0000000000000000
     0.0000000000000000    0.0000000000000000   12.0000000000000000
 B   H   N  
   1   6   1
Cartesian
  3.9381401678205177  5.4451913415332669  5.4953143861931180
  9.0015677914100145  5.2523221054756686  7.1067986230045967
  8.7853224852388117  6.1610010967460020  5.5784379507826571
  8.5492205947112154  6.8490898497919996  7.2202969050943224
  4.9103223507322156  5.6560044903955262  4.7797030949056776
  3.9855835176513454  5.4927661483070498  6.6111654551378285
  2.9984322085899864  5.1509101502080004  5.0058225854133207
  8.5188771877627154  6.0507171006388347  6.6201186507542333
