B  H  N 
 1.0000000000000000
    12.0000000000000000    0.0000000000000000    0.0000000000000000
     0.0000000000000000   12.0000000000000000    0.0000000000000000
     0.0000000000000000    0.0000000000000000   12.0000000000000000
 B   H   N  
   1   6   1
Cartesian
  6.3254235271617816  6.1016309445208625  6.6294223504191621
  4.9705812253917259  6.6460067233338052  4.7708431581444870
  4.8131101355501542  6.0008156077373105  6.2824867747871451
  5.1863301455121942  5.0721617919264093  4.8648979335970921
  7.1868898644498520  6.9863317140783447  6.4729413904585442
  5.2979141303994837  6.3111513457701403  7.2291568418555130
  6.7421903290061911  5.0136682859216553  6.9528516235048983
  5.3429713362226181  5.9482187366378110  5.3530964210909531
