8
Lattice="12.0 0.0 0.0 0.0 12.0 0.0 0.0 0.0 12.0" Properties=species:S:1:pos:R:3:momenta:R:3:forces:R:3 energy=-439.9785711444865 pbc="T T T"
B        5.96130265       6.08016426       4.91592666       0.30759339       0.27545591      -1.02019119       0.38483202       0.95456772       1.87683897
H        5.54506836       6.91702127       7.34507552      -0.08532181       0.06367911       0.34885331       0.09634083      -0.33418811      -0.06429908
H        6.57756138       5.51344283       7.46753149       0.20343750       0.05663858       0.16837532       0.26616468      -0.15506256      -0.04292285
H        4.88681029       5.32361072       7.10835350      -0.27897037      -0.12438386      -0.07364523      -0.54337050      -0.39966117       0.21162127
H        5.20732274       6.95139070       4.66253101       0.02906022       0.33299580      -0.24783448       0.18974251      -0.06209480       0.37524238
H        5.65081538       5.04860930       4.53246851      -0.15790935      -0.30125582      -0.28260809      -0.20412898      -0.99169599       0.12917958
H        7.11318971       6.32534847       4.94255259       0.34644300      -0.10125413       0.00263494      -0.24317629       0.04271969      -0.13594418
N        5.71996960       5.92386791       7.05734794      -1.09327695      -0.77416783       1.05167464       0.05359572       0.94541523      -2.34971608
8
Lattice="12.0 0.0 0.0 0.0 12.0 0.0 0.0 0.0 12.0" Properties=species:S:1:pos:R:3:momenta:R:3:forces:R:3 energy=-440.1934657029294 pbc="T T T"
B        5.42104847       5.28091486       6.38689394       0.55098178       0.59738665      -0.79493721       1.14978554       0.15767995      -0.90146940
H        7.59914404       6.30902514       5.99374655      -0.21751732      -0.04610861       0.11523952      -0.82884470       0.89236900       0.02800738
H        6.18186855       7.55491947       6.11848702      -0.10345146      -0.21460629      -0.05410986       1.25207852      -0.98527975      -0.34612321
H        6.47465573       6.57735370       4.64694824       0.00906423      -0.12850140       0.16388720       0.33534420       0.37697941       1.47369233
H        5.45755579       4.44508053       5.51484194       0.07437524       0.26317509       0.03941939       0.03789176       0.84461044       0.59531971
H        4.40085596       5.88264324       6.46208656       0.05500361       0.13331236      -0.16977246       0.51011547      -0.22099494       0.19887212
H        6.03770740       4.96314909       7.35305176      -0.01403099       0.13570687      -0.30144845      -0.64446332       0.26188953      -0.19579213
N        6.63570701       6.66787804       5.71136755      -0.83439078      -1.11718440       0.96699526      -1.81190747      -1.32725364      -0.85250679
8
Lattice="12.0 0.0 0.0 0.0 12.0 0.0 0.0 0.0 12.0" Properties=species:S:1:pos:R:3:momenta:R:3:forces:R:3 energy=-440.1273841880271 pbc="T T T"
B        6.64280784       6.06420850       6.36204806      -0.08665947      -0.14411277      -0.03512923       2.71823717      -0.68089532       1.69451154
H        4.53802986       6.24329785       5.81175014      -0.07341567       0.03948472      -0.31400601      -0.04359692      -0.17771749       0.33494128
H        5.36084493       4.95700630       5.05363128       0.00985193       0.18372869       0.08978194      -0.10113884      -0.14156784      -0.13727754
H        5.59354391       6.59119069       4.58324618      -0.13563931      -0.04752053       0.09266461       0.19264854      -0.18247901      -0.38807064
H        7.16705526       7.04299370       6.39344503      -0.16328310      -0.03880995       0.41967509       0.26019397       2.25980531      -0.75339699
H        7.46197014       5.30740722       6.12391584       0.00785923      -0.16314506       0.16879745       0.28704869      -0.96877373      -0.82697737
H        6.34588731       5.88234553       7.41675382       0.11005467      -0.15180291       0.05106978      -1.32763697      -0.61180572       1.74607120
N        5.46272298       5.94278996       5.40287804      -0.12605866      -0.03683960      -0.50593961      -1.98575565       0.50343380      -1.66980149
