8
Lattice="12.0 0.0 0.0 0.0 12.0 0.0 0.0 0.0 12.0" Properties=species:S:1:pos:R:3:momenta:R:3:forces:R:3 energy=-440.0559587701001 pbc="T T T"
B        6.55260291       6.27841333       5.13164259      -0.25435884      -0.03854349       0.60264270      -1.37149887       0.03816490       2.27941396
H        5.77677780       6.08330857       7.59155909       0.08225333      -0.03373382       0.07661458       0.25809646       0.19671749       0.19111890
H        5.38458357       4.63440092       6.76218554       0.09993449      -0.07049049       0.05858767       0.30364498      -0.36566778      -0.07142185
H        4.39920264       5.99484498       6.58052831       0.00324510       0.14726412      -0.11152064      -0.03012345       0.23514678      -0.22123312
H        5.99268014       7.36559908       4.97044683       0.08747985      -0.04007070       0.04422432       1.08340955      -1.28795918       0.00470285
H        6.23289070       5.38373360       4.40844091       0.08255117       0.09354207      -0.01301533       0.48884568       0.58103003       0.14133256
H        7.60079736       6.21698450       5.76517439      -0.19966605      -0.17002608       0.09426149      -1.03649344       0.21653292      -1.21571905
N        5.38374709       5.67371780       6.72053067      -0.34004963      -0.23229357      -0.78352925       0.30411909       0.38603485      -1.10819425
8
Lattice="12.0 0.0 0.0 0.0 12.0 0.0 0.0 0.0 12.0" Properties=species:S:1:pos:R:3:momenta:R:3:forces:R:3 energy=-440.13865596288326 pbc="T T T"
B        6.42805366       6.21915053       5.18393047      -0.42561178      -0.33662201       0.95126952       0.08793181       0.11500002       0.81674967
H        4.42716082       6.04538602       6.63637966      -0.17702245      -0.11771293      -0.21871987       0.73721665       0.18819442       0.55235150
H        5.96491530       6.13830826       7.67122263       0.09327976       0.09323217       0.00693652      -1.15452474      -0.58586189      -1.10835597
H        5.42873530       4.63487409       6.79710531       0.01149687      -0.15334751      -0.02942683       0.21008360       1.28532830       0.37476151
H        5.90840082       5.62840760       4.32877737      -0.03504695       0.25345647      -0.09259977      -0.28044466      -0.52429319       0.16703827
H        7.57283918       5.96599481       5.38063463       0.12460787      -0.07044794      -0.03722760      -0.68968972      -0.24707248       0.35211322
H        6.24587119       7.36512591       5.06810277       0.23920664       0.08279195      -0.04221307      -0.24788934       0.20859676       0.44436312
N        5.41329127       5.71045887       6.84448138      -0.27061241      -0.09655939      -0.56983237       1.33731638      -0.43989194      -1.59902132
8
Lattice="12.0 0.0 0.0 0.0 12.0 0.0 0.0 0.0 12.0" Properties=species:S:1:pos:R:3:momenta:R:3:forces:R:3 energy=-440.30178539854603 pbc="T T T"
B        6.69996452       6.28912491       5.43378917      -0.69837923      -0.35885138       1.35838257      -1.36029265       0.17187986       0.33959137
H        4.45979252       5.93772700       6.33731040       0.22120936      -0.19040657       0.13940773      -0.74861882       0.43503749      -0.01137056
H        5.68013058       6.13451959       7.60169869       0.00521368      -0.20734321      -0.18045341      -0.18947638       0.17308852       0.42244634
H        5.51350367       4.64077471       6.72932408      -0.19533421       0.19394859      -0.07472553      -0.00237635      -0.53125645       0.18713494
H        6.07247067       6.25137928       4.39830131      -0.07657677      -0.10838682       0.03221789       0.49473429       0.16369724       1.03999523
H        7.54020748       5.47068954       5.51635954      -0.23397640      -0.11244824       0.11451681      -0.12316261       0.11764088       0.22335690
H        6.91751244       7.35922529       5.93013393      -0.17813042      -0.13075681       0.28696941      -0.05876180      -0.71714683      -0.57724617
N        5.36419310       5.66233010       6.73822542       0.65511538       0.52102171      -1.71255370       1.98795431       0.18705928      -1.62390804
8
Lattice="12.0 0.0 0.0 0.0 12.0 0.0 0.0 0.0 12.0" Properties=species:S:1:pos:R:3:momenta:R:3:forces:R:3 energy=-440.27066991657364 pbc="T T T"
B        6.88142191       6.41459674       6.09429434       0.28425408      -0.06372655       0.38114461      -0.22373667       0.52864263      -0.22583036
H        4.48546220       6.59741212       6.34375895      -0.01073097      -0.03186056      -0.06790210       0.11783665      -0.67140917      -0.08654124
H        5.18332721       4.91801970       6.51328432       0.07466590       0.01170018      -0.02604275      -0.71616901       0.90953144      -0.71549561
H        4.98480533       5.71325412       4.88062972      -0.01780630       0.09302825      -0.02128979      -0.23309260      -0.27093274       1.05922423
H        7.14639865       7.08198030       5.14249879       0.17847332       0.03874352      -0.04204826      -0.78213526      -0.29094183       0.41749396
H        7.51453780       5.43915834       6.08821141       0.13053985       0.02526225      -0.04593027      -0.26969334      -0.44195244       0.08983731
H        6.92254827       7.00097213       7.11937028       0.03337590      -0.00792121       0.11932533      -0.33512119      -0.24822587      -0.28229153
N        5.06461961       5.81178763       5.93882609      -0.97403933      -0.30175021      -0.31905415       2.44211142       0.48528800      -0.25639675
8
Lattice="12.0 0.0 0.0 0.0 12.0 0.0 0.0 0.0 12.0" Properties=species:S:1:pos:R:3:momenta:R:3:forces:R:3 energy=-440.2003388065641 pbc="T T T"
B        6.44419225       5.95943585       6.82293700      -0.69484152      -0.23967926      -0.39524764      -1.05094556      -0.32600326      -0.98258913
H        4.52350444       6.71595401       5.60412744      -0.14890619       0.10226441      -0.16649168       0.24266003      -0.69090423      -0.27763115
H        5.09081812       5.14303686       4.97347507      -0.00860052       0.04891406      -0.14678109      -0.11860567       0.12344731      -0.24197234
H        5.88664257       6.68568021       4.54601943      -0.14661518       0.20201459      -0.01949921      -0.09841297      -0.51108865       0.09881763
H        6.28015371       6.93892979       7.36129061      -0.07820179       0.11414580       0.04281479      -0.21483720       1.30832786       0.26925865
H        7.47649556       5.74408610       6.43209518      -0.12694566      -0.03503010      -0.08720744       1.32629911       0.13104484      -1.02303592
H        6.12248248       5.06107021       7.45398057      -0.15237007      -0.12910624      -0.05837875      -1.05482744      -0.72957788       0.03112888
N        5.32352314       6.12582676       5.23806846       0.96133620      -0.37375031       0.80220141       0.96866970       0.69475401       2.12602338
8
Lattice="12.0 0.0 0.0 0.0 12.0 0.0 0.0 0.0 12.0" Properties=species:S:1:pos:R:3:momenta:R:3:forces:R:3 energy=-440.30164591510857 pbc="T T T"
B        5.98163511       5.57985936       6.89187860      -0.44573022      -0.42155056       0.36274537       0.04142855       0.29621179      -1.99848219
H        4.86401137       6.33577891       4.80557047      -0.03328809       0.16515921      -0.05732502       0.63634846      -0.23555503      -0.06651425
H        6.56126969       5.91751477       4.50995774      -0.10044723      -0.02557139      -0.02257585       0.17622389       0.04525032      -0.33941919
H        6.07095526       7.45585972       5.25818589      -0.04020585      -0.00137437      -0.03965732       0.44937045      -0.26152987      -0.11302821
H        5.43290011       6.39574194       7.49004226      -0.06014681      -0.19913620       0.08123005      -0.28827106       0.29504875       0.44186142
H        7.13598863       5.52565134       6.97168667      -0.30311859      -0.06845488       0.10907431       0.37795145       0.04734873       0.25131644
H        5.44818613       4.54414028       6.72468853       0.29572635      -0.00817516       0.13108008      -0.07819827       0.23703431      -0.09299952
N        5.87729411       6.44094331       5.08528439       0.34801749       0.29280389      -0.58911298      -1.31485348      -0.42380900       1.91726549
8
Lattice="12.0 0.0 0.0 0.0 12.0 0.0 0.0 0.0 12.0" Properties=species:S:1:pos:R:3:momenta:R:3:forces:R:3 energy=-440.16317660686855 pbc="T T T"
B        6.00600468       5.54722522       6.91272353      -0.33490423      -0.15755309      -0.50900557       0.24106952       1.62785390      -1.47719520
H        5.27025713       6.80301042       4.82658733      -0.01584639       0.02490193      -0.03560117      -0.59935089      -0.22607976      -0.29718044
H        6.77668387       5.97481458       4.56845928      -0.05132007       0.04969040       0.08652904       0.27488534       0.07320804      -0.20973077
H        6.67214574       7.51852368       5.43304761      -0.13095438       0.08396780      -0.10093941       0.49951481      -0.02263544       0.08046299
H        5.03814668       5.99570832       7.32715162      -0.03947937      -0.09722681      -0.09547722      -0.76664852       0.43271608       0.15735963
H        6.96185332       5.91420374       7.43154072      -0.00305037       0.24201633      -0.02441953       0.69630970      -0.07598798       0.30839459
H        5.93081736       4.48147632       6.51752572      -0.21963019      -0.03077528      -0.17773071       0.14340407      -0.90316795      -0.46387327
N        6.22712793       6.61965558       5.16527290       0.39948074      -0.42568760       0.82801448      -0.48918403      -0.90590688       1.90176247
8
Lattice="12.0 0.0 0.0 0.0 12.0 0.0 0.0 0.0 12.0" Properties=species:S:1:pos:R:3:momenta:R:3:forces:R:3 energy=-440.2428218689446 pbc="T T T"
B        5.44508864       5.64264204       5.26425371       0.31392022       0.30592940      -0.08823373       0.63066961       0.86697779       1.18486053
H        7.54845455       6.29139664       6.49228181      -0.29145277      -0.05925271      -0.24834748       0.97890044      -0.44637307      -0.28026571
H        6.29577352       6.04245283       7.64388992      -0.13207192      -0.28222391      -0.11658877      -0.21160149       0.24306446       0.06123720
H        6.34829860       7.46178467       6.57126592      -0.03779933      -0.15796187      -0.14368390      -0.36578982       0.75395698       0.34136564
H        6.12958394       5.90517367       4.35611008       0.02089878      -0.22779722      -0.07480655       0.04946940      -0.08989815      -0.06305282
H        4.45154545       6.26064613       5.36050699      -0.05940499       0.05300768      -0.14901696       0.16714797       0.11576266       0.08913378
H        5.35677015       4.53821533       5.61461031      -0.15400998      -0.14746609      -0.14517230       0.24857632      -0.27827612       0.05189179
N        6.57088320       6.47188888       6.73586179      -0.07349262       0.19119560       0.93593835      -1.49737243      -1.16521454      -1.38517041
8
Lattice="12.0 0.0 0.0 0.0 12.0 0.0 0.0 0.0 12.0" Properties=species:S:1:pos:R:3:momenta:R:3:forces:R:3 energy=-440.2639076149709 pbc="T T T"
B        5.61959041       5.78638444       5.22662177       0.44965468       0.13775813       0.62463627       1.09886845      -0.49753463       0.58513297
H        7.33617119       5.77947896       6.86175581      -0.15652692      -0.17833388      -0.03874833      -0.49874858       0.34834532       0.30944517
H        5.73019674       6.01034371       7.56233805      -0.34331706      -0.19022293      -0.11811718       0.33371802       0.70950253       0.21565549
H        6.63602247       7.37460942       6.67239110       0.20120936      -0.02016975      -0.19680153      -0.38725580      -0.31934346       0.78782457
H        6.48151682       5.97116114       4.43766195       0.14030122       0.23394158      -0.03600120      -0.24793140       0.23681115       0.35108999
H        4.66382881       6.45904795       5.12189127       0.03601215       0.09872774       0.12816236       0.10193673      -0.07345111       0.24964168
H        5.48942545       4.62539058       5.44790936       0.11586071       0.02123713       0.16199261      -0.24144057       0.63188645       0.05534841
N        6.45870563       6.36316956       6.89907557      -0.85759644      -0.42828413      -0.55510595      -0.15914685      -1.03621625      -2.55413827
8
Lattice="12.0 0.0 0.0 0.0 12.0 0.0 0.0 0.0 12.0" Properties=species:S:1:pos:R:3:momenta:R:3:forces:R:3 energy=-440.356890273842 pbc="T T T"
B        5.88938466       5.92348250       5.05577268       0.01263655       0.24267994      -0.62918554      -0.76098812      -0.51781024       1.06765750
H        6.65918137       5.19038762       7.13764934      -0.04259042      -0.09936762       0.27744872      -0.67643906       0.68600366       0.18712695
H        5.01531134       5.82527417       7.22692870      -0.17812372      -0.03247146       0.04887637      -0.18093653       0.32976261       0.53484445
H        6.45757395       6.93455048       7.15501640       0.17923334      -0.04521419       0.18806310      -0.47328324      -0.09304253       0.32864201
H        6.98468866       5.62665825       4.77307130       0.03614073      -0.03139559      -0.18169885       0.07881227       0.41828753      -0.01370359
H        5.43700752       6.98214188       4.78191479      -0.02903597      -0.03264412      -0.16391757       0.42703886      -0.28527455       0.04964943
H        5.12707312       5.01785812       4.89871187       0.05298407      -0.05978676      -0.10969409       0.34867704       0.52376704       0.22551420
N        6.00286772       6.00945634       6.97351824      -0.33185492      -0.17780854       0.54835803       1.23711878      -1.06169352      -2.37973096
8
Lattice="12.0 0.0 0.0 0.0 12.0 0.0 0.0 0.0 12.0" Properties=species:S:1:pos:R:3:momenta:R:3:forces:R:3 energy=-440.2935613850321 pbc="T T T"
B        6.28407584       6.09820894       5.08151501       0.32441253       0.16680524      -0.24724215       0.46030348       0.15996843       1.86163755
H        5.78609521       4.72129851       7.14080765      -0.04284455      -0.04652108      -0.05527713      -0.08201333       1.06331208      -0.22430229
H        4.67179513       6.04247249       6.83368958      -0.15557174       0.08305719      -0.15519937       0.10912507       0.23090968       0.44186817
H        6.32807497       6.37811585       7.47369543       0.30093616      -0.16900000      -0.10802326      -0.65719489      -0.21361175       0.00871430
H        7.32820487       5.53160901       5.07656511      -0.05153866      -0.09957910       0.36660623      -0.59664683      -0.15416923      -0.12701512
H        6.46377044       7.27870149       5.12953153      -0.11837183       0.11345678       0.33687683      -0.57358290      -0.56295207      -0.14669655
H        5.35593814       5.65234076       4.52630457      -0.10040445      -0.15859213       0.15332643       0.19596311       0.11155093      -0.24722398
N        5.67302259       5.76141573       6.92659213      -0.55525696      -0.20259768      -0.31991005       1.14404628      -0.63500806      -1.56698209
8
Lattice="12.0 0.0 0.0 0.0 12.0 0.0 0.0 0.0 12.0" Properties=species:S:1:pos:R:3:momenta:R:3:forces:R:3 energy=-440.2339625945598 pbc="T T T"
B        6.22338160       6.10285739       5.33069686      -0.24620741      -0.20367645       0.98290359       2.01394710       1.15954153      -2.49506818
H        5.47287812       4.77663054       6.90379300      -0.12533329       0.06193069      -0.19347922       0.14051146       0.13022295      -0.35768170
H        4.69604099       6.26616656       6.98738408      -0.11263299       0.04870799      -0.21643840       1.20875519      -0.11771413      -0.54692421
H        6.34367216       6.07033033       7.52350914       0.12797988      -0.37441477      -0.04782138      -0.61461645       0.13606239      -0.78789315
H        7.30395901       5.71895950       5.19959504       0.01039630       0.18300494       0.19838885       0.39776064      -0.85393551       0.61434186
H        6.36029139       7.22336946       5.15982933       0.09804601       0.02520319       0.11737149      -0.45512665       1.14557219       0.45421980
H        5.60301500       5.70437670       4.47649086      -0.07374933      -0.16867696       0.18279743      -1.26475883      -0.82101384      -0.49909967
N        5.65622099       5.81461617       6.72518489      -0.11417628       0.08587246      -1.05524459      -1.42647247      -0.77873559       3.61810525
8
Lattice="12.0 0.0 0.0 0.0 12.0 0.0 0.0 0.0 12.0" Properties=species:S:1:pos:R:3:momenta:R:3:forces:R:3 energy=-440.2341140481984 pbc="T T T"
B        6.72246048       6.28173224       5.81869711       0.30165836      -0.05482404       0.36704282      -0.56090630       0.16224222       0.06038354
H        4.65535513       5.16751904       5.71157229       0.12125051       0.09869685      -0.03109279      -0.34186146      -0.15129222       0.13580196
H        4.56854547       6.44329878       6.95113906       0.13262189      -0.06296453      -0.23984101       0.27986645      -0.92245864      -0.08520690
H        5.47770398       4.88155037       7.25148859       0.02130719      -0.06262803      -0.36598050      -0.72720858       0.58652076      -0.21932988
H        7.43145453       5.37220581       5.72688981      -0.14534197      -0.00355181      -0.04770132      -0.04205412      -0.58533072       0.46923182
H        7.04809618       7.11844963       6.56351527      -0.18388887      -0.05790870      -0.13800496      -0.15058912      -0.13790719       0.28359952
H        6.49927568       6.68975052       4.74851141       0.10658446       0.02634503       0.17424266      -0.76069157       0.04598442       0.06214157
N        5.06162004       5.58217509       6.57546651      -0.74417147      -0.18933693       0.25311917       2.30344470       1.00224137      -0.70662164
8
Lattice="12.0 0.0 0.0 0.0 12.0 0.0 0.0 0.0 12.0" Properties=species:S:1:pos:R:3:momenta:R:3:forces:R:3 energy=-440.26748478561797 pbc="T T T"
B        6.58278574       5.88568453       6.57162717       0.34998340      -0.13938530       1.13107566      -0.39332362       0.73016896      -1.04290842
H        5.51560315       6.85862542       4.69966502      -0.28438656      -0.17503852       0.05116650      -0.49773986      -1.00669042       0.21873952
H        4.42833321       5.86484653       5.75461522      -0.06120921       0.05401214      -0.25250346       0.37891679      -0.10385609      -0.97255429
H        5.67815418       5.06977434       4.67656763       0.06440751       0.24012612      -0.19062748      -0.85053082       0.43525926      -0.07229290
H        7.57166679       5.69731458       5.96470046       0.05151840      -0.17920141       0.21886102      -0.23294144      -0.29817997       0.32298762
H        6.14425751       5.13673827       7.32343237       0.05962864      -0.06916953       0.01973926      -0.03817841      -1.02776751      -0.04834116
H        6.50922100       6.93022566       7.05138550       0.11250079      -0.07754611       0.09839996      -0.00638892       0.74341484      -0.16111130
N        5.30583444       5.92476817       5.16598290      -0.72176661       0.00914179      -1.10717400       1.64018628       0.52765092       1.75548093
8
Lattice="12.0 0.0 0.0 0.0 12.0 0.0 0.0 0.0 12.0" Properties=species:S:1:pos:R:3:momenta:R:3:forces:R:3 energy=-440.25771076489497 pbc="T T T"
B        6.45687464       5.91246764       6.89931517      -0.09786362      -0.46832703       0.51657255      -0.97002003       0.17625358      -1.65576364
H        5.62072879       7.16218940       4.91871618      -0.15055997       0.00164330      -0.24118698       0.26498304       0.31011382      -0.11317219
H        4.46954757       6.03852653       5.43428011      -0.22988393       0.39627752      -0.21904326      -1.25440077      -0.45539766       0.25542438
H        5.85870923       5.49845376       4.56088415      -0.06720602       0.10187013      -0.32912197       0.38286970      -0.97753621      -0.92433567
H        7.53045243       5.89957598       6.51080947       0.00774615       0.22209055       0.02804497       0.92434622       0.29174687      -0.46080862
H        6.12911569       4.83781060       7.20104911      -0.13369650      -0.09741805      -0.12900415      -0.60128808       0.02980912       0.33492502
H        6.13002044       6.88847296       7.43911585      -0.20937510      -0.09312057      -0.00278880      -0.22263818      -0.11959987       0.42507860
N        5.45005175       6.17789926       5.19648640       0.43874653      -0.41010143       0.34454125       1.47614809       0.74461036       2.13865213
8
Lattice="12.0 0.0 0.0 0.0 12.0 0.0 0.0 0.0 12.0" Properties=species:S:1:pos:R:3:momenta:R:3:forces:R:3 energy=-440.24115847232895 pbc="T T T"
B        5.15866417       5.36553268       5.91342562       0.36804560       0.24844892      -0.36604762       0.67767543       1.97084495       0.07718094
H        6.30918736       7.62444226       5.70743641      -0.03918205      -0.05648009      -0.24510198      -0.62035844       1.16772807      -0.43755265
H        7.42690599       6.34168487       5.51411127      -0.13528915       0.18714089      -0.21707084       0.02546627      -0.00336882       0.05804469
H        6.82542846       6.74945200       7.08671952       0.01820929      -0.01333276       0.06915507       0.22155859       0.04498360       0.77096614
H        4.57309401       5.61592699       6.87366372      -0.38937933      -0.07954335      -0.32380343      -0.32252906       0.22769529       0.43754828
H        5.71449344       4.37555774       5.94656738      -0.16020208      -0.06215762       0.05344011       0.82915611      -0.85663111      -0.09659188
H        4.66317917       5.68673858       4.91328048      -0.16160118      -0.09498137       0.05357764       0.00478487       0.05462239      -0.28029425
N        6.64085021       6.73625472       6.07627167       0.06958413      -0.46654101       0.94475298      -0.81575376      -2.60587436      -0.52930128
8
Lattice="12.0 0.0 0.0 0.0 12.0 0.0 0.0 0.0 12.0" Properties=species:S:1:pos:R:3:momenta:R:3:forces:R:3 energy=-439.92625983209064 pbc="T T T"
B        5.79395585       6.04116068       4.92567305      -0.06014920      -0.23690081      -1.06947668      -0.47294918      -0.65290384       1.18886535
H        5.45508356       7.02118887       7.34434231      -0.37410780       0.10029706       0.20277661       0.47492631      -1.33972842      -0.36778969
H        6.77100802       5.83980614       7.35723282       0.27486790       0.02189724       0.04170673       0.56393131      -0.09609863       0.11264829
H        5.14349938       5.28796639       7.24545843      -0.11699943      -0.13227817       0.24415264      -0.78787303      -0.76561623       0.38588796
H        5.10557454       6.92849471       4.68245784      -0.02313405       0.39604866      -0.21635464      -0.59409221       0.55729572       0.31243410
H        5.33383129       4.97881113       4.64276718      -0.18226758      -0.09691677      -0.20809107       0.44587592       0.40408819       0.62400173
H        6.89442546       6.26492754       4.68008685       0.39965688      -0.13666683      -0.10170067       0.76213256      -0.17744401       0.20596308
N        5.80379910       6.04465543       7.06748004       0.41667226      -0.00263482       1.05859790      -0.39195168       2.07040723      -2.46201082
