8
Lattice="12.0 0.0 0.0 0.0 12.0 0.0 0.0 0.0 12.0" Properties=species:S:1:pos:R:3 pbc="T T T"
B        6.00000000       6.00000000       5.29300000 
H        6.00000000       6.94700000       7.10900000 
H        6.82000000       5.52700000       7.10900000 
H        5.18000000       5.52700000       7.10900000 
H        4.99400000       6.58100000       4.89400000 
H        6.00000000       4.83800000       4.89400000 
H        7.00600000       6.58100000       4.89400000 
N        6.00000000       6.00000000       6.69900000 
