8
Lattice="12.0 0.0 0.0 0.0 12.0 0.0 0.0 0.0 12.0" Properties=species:S:1:pos:R:3:momenta:R:3:forces:R:3 energy=-440.13232627817 free_energy=-440.13232627817 stress="8.4692300246616e-05 0.00047970934945168 -0.00027809375870746 0.00047970934945168 -0.00085199962069297 -0.00045713922152991 -0.00027809375870746 -0.00045713922152991 0.0026583946944908" pbc="T T T"
B        6.12550306       6.13010092       4.95287284       0.66746436       0.60626542      -0.35978817      -0.06106154       0.30296871       1.36777545
H        5.66958426       6.90560461       7.39984252      -0.19700798       0.13552323       0.08530500      -0.19020659       0.67235327      -0.00296789
H        6.90337094       5.75405732       7.38231145       0.10775842      -0.05118744       0.44838619       1.05699031      -0.34410498       0.16220793
H        5.26654174       5.25329306       7.26537648       0.06449880      -0.36603621       0.20008115       0.26870537       0.13976033      -0.32439150
H        5.01501593       6.37638587       4.60015748      -0.17187633      -0.05802798      -0.18156763       0.50172015       0.01999154       0.41604483
H        6.52141241       5.06963751       4.73177836       0.29201313      -0.28796565      -0.14260248      -0.06315640      -0.72356673       0.01855018
H        6.98498407       6.93036249       4.81989974       0.09226974       0.40344147      -0.11942460      -0.47461209       0.16209887       0.28285592
N        5.97572191       5.99417912       7.01581530      -0.00528965      -0.28702356       1.39990845      -1.03438029      -0.22777792      -1.90523051
8
Lattice="12.0 0.0 0.0 0.0 12.0 0.0 0.0 0.0 12.0" Properties=species:S:1:pos:R:3:momenta:R:3:forces:R:3 energy=-440.29976159683 free_energy=-440.29976159683 stress="-0.0012132491591086 -0.0005508729545066 1.8029910622615e-05 -0.0005508729545066 -0.0015991460263334 0.0004172001784192 1.8029910622615e-05 0.0004172001784192 -0.0033276582397674" pbc="T T T"
B        6.16046954       6.19845900       5.32693277       0.24569595       0.07121704       1.49613402       1.13290949       0.04502201      -1.74684155
H        4.74772562       5.99873928       6.99829181       0.14744654      -0.12768946      -0.00790596      -0.13934887       0.01353015      -0.24178581
H        6.36609746       6.25796693       7.40304527      -0.14448766      -0.12169074       0.08034417      -0.01992777      -0.01769115       0.25141449
H        5.87985852       4.71567553       6.87976670       0.17233359       0.23510600       0.06186796      -0.18523306       0.57646167      -0.11564207
H        5.53046498       5.66251504       4.59695473       0.02912538      -0.10102270       0.15801245      -1.37880991      -1.17242117      -1.46939620
H        7.25227438       5.87913340       5.19645881       0.10347143      -0.00421782       0.24473761       0.80324441       0.13656196       0.04593332
H        5.93775652       7.28432447       5.29118972      -0.24744231      -0.03221703       0.21089603       0.04853765       2.11538694      -0.19755335
N        5.73728399       5.76488390       6.71656611       0.27475478       0.14544419      -1.33476730      -0.25147827      -1.70004598       3.47923714
8
Lattice="12.0 0.0 0.0 0.0 12.0 0.0 0.0 0.0 12.0" Properties=species:S:1:pos:R:3:momenta:R:3:forces:R:3 energy=-440.17917860684 free_energy=-440.17917860684 stress="0.0028823192668824 0.00025378439514091 -0.00036103013618715 0.00025378439514091 0.002740908783575 -5.8287711515448e-05 -0.00036103013618715 -5.8287711515448e-05 0.0016424476396008" pbc="T T T"
B        6.20226929       6.97809907       5.81381768       0.57571053       1.10717635       0.31106482      -1.04175710      -0.69690736       0.30701735
H        6.60298588       4.60744299       6.40790712      -0.02607392      -0.10450899       0.05027766      -1.18704885       0.71664616       0.13664671
H        5.39047373       4.54528684       5.20236635       0.18293413      -0.11264559      -0.07806194       0.21243732       1.02617992       0.62484152
H        4.87388090       5.03960076       6.79832315      -0.04058371      -0.19590568      -0.12067310       1.70019069       0.20406199      -0.96582697
H        6.48484731       7.25239343       6.95610215      -0.35106008      -0.07153128      -0.06320369      -0.22831053      -0.25530080      -0.91435138
H        5.14604019       7.45471316       5.41122615      -0.04193813      -0.19667101       0.21692930       1.27295895      -0.58013046       0.40605689
H        7.12611910       6.96412945       5.04389785      -0.09871944      -0.33775825       0.39361616      -0.72772232      -0.26410039       0.47988174
N        5.69891836       5.10216360       6.07609726       0.48518540      -0.01153926       0.36304015      -0.00839422      -0.13556880      -0.07202535
8
Lattice="12.0 0.0 0.0 0.0 12.0 0.0 0.0 0.0 12.0" Properties=species:S:1:pos:R:3:momenta:R:3:forces:R:3 energy=-440.27194942365 free_energy=-440.27194942365 stress="-0.00094319856419627 0.0010226634566093 -0.0005413795643983 0.0010226634566093 -0.00023497969364796 -0.00133048934249 -0.0005413795643983 -0.00133048934249 -0.0022357320480464" pbc="T T T"
B        6.44551626       6.69421262       5.58716392      -0.50771937      -0.22803826       1.26961225      -1.84264907      -1.64629255       1.31317098
H        4.65691667       5.10121057       5.92452800       0.29337697       0.37146297      -0.27813319      -0.87572962      -0.28200664      -1.45321000
H        5.20253830       5.40083366       7.37766671      -0.07806710       0.10986380      -0.09575449      -0.29048266       1.19943011       2.29731329
H        6.12892528       4.49257954       6.46070106      -0.09427008      -0.19849681       0.19083066       1.11211791      -1.24356093      -0.61995993
H        6.61275735       6.11191632       4.62233329       0.25325306       0.07985112       0.09446575       0.36909588      -0.07978220      -1.12402830
H        7.34308333       6.79818494       6.28549182       0.34187468       0.31003411      -0.08728354       0.77484698       0.37067025       0.45107177
H        5.61848507       7.50742046       5.59213882      -0.22570788       0.01907013      -0.11653280       0.03466984       0.48152481      -0.13491984
N        5.52472673       5.31381977       6.42263714       0.70008634      -0.38742453       0.09167067       0.71583695       1.19735658      -0.73388364
