B  H  N 
 1.0000000000000000
    12.0000000000000000    0.0000000000000000    0.0000000000000000
     0.0000000000000000   12.0000000000000000    0.0000000000000000
     0.0000000000000000    0.0000000000000000   12.0000000000000000
 B   H   N  
   1   6   1
Cartesian
  4.0190369533108186  5.6909817831508489  4.9716887775921252
  8.5158108931485970  6.6383511910848787  7.9527429237185343
  7.4008626967287343  5.3108179326800897  7.8980473297300282
  7.7434505429445455  6.0726381304531749  6.5856813557784788
  4.6045656803035246  5.2131481299088014  4.0472570762814648
  3.7576268222422433  6.8761012088611473  4.8591808983207176
  3.4841891068514022  5.1238987911388509  5.8378805524173396
  8.2105897563252661  5.7732759678611529  7.4890372016655373
