B  H  N 
 1.0000000000000000
    12.0000000000000000    0.0000000000000000    0.0000000000000000
     0.0000000000000000   12.0000000000000000    0.0000000000000000
     0.0000000000000000    0.0000000000000000   12.0000000000000000
 B   H   N  
   1   6   1
Cartesian
  4.1484934982664514  5.8345079764766234  5.1623802561136518
  7.7199839953826350  5.5197031260462630  7.5790213984327037
  6.7566055465600785  6.9308506220347121  7.8930656007191917
  8.3766721318755799  7.0465805060947933  7.0996213452888224
  4.0314836332640152  4.9534194939052050  6.0222238582924223
  4.7812009827517752  6.8875589755530147  5.2415333614268853
  3.6233278681244210  5.5907667359349542  4.1069343992808074
  7.5074974350735006  6.4601196769128704  7.3300055692216297
