
  **** **** ******  **  PROGRAM STARTED AT               2026-04-15 15:05:17.663
 ***** ** ***  *** **   PROGRAM STARTED ON               cbe-dt-319.che.ncsu.edu
 **    ****   ******    PROGRAM STARTED BY                               rverma7
 ***** **    ** ** **   PROGRAM PROCESS ID                               3121168
  **** **  *******  **  PROGRAM STARTED IN /home/rverma7/My_Program/0.3_sparc/ex
                                           amples/CP2K/MD/NVE

 CP2K| version string:                                       CP2K version 2023.2
 CP2K| source code revision number:                                  git:65cca6c
 CP2K| cp2kflags: omp libint fftw3 libxc elpa parallel mpi_f08 scalapack cosma x
 CP2K|            smm plumed2 spglib mkl sirius libvori libbqb libvdwxc
 CP2K| is freely available from                            https://www.cp2k.org/
 CP2K| Program compiled at                       Wed Dec 18 11:39:34 AM EST 2024
 CP2K| Program compiled on                               cbe-dt-319.che.ncsu.edu
 CP2K| Program compiled for                                                local
 CP2K| Data directory path                     /home/prg/Softwares/cp2k_gcc/data
 CP2K| Input file name                                              cp2k/job.inp
 &GLOBAL
   BLACS_GRID SQUARE
   BLACS_REPEATABLE F
   PREFERRED_DIAG_LIBRARY ELPA
   PREFERRED_DGEMM_LIBRARY BLAS
   EPS_CHECK_DIAG -1.0000000000000000E+000
   ELPA_KERNEL AUTO
   ELPA_NEIGVEC_MIN 16
   ELPA_QR F
   ELPA_QR_UNSAFE F
   PREFERRED_FFT_LIBRARY FFTW3
   FFTW_WISDOM_FILE_NAME /etc/fftw/wisdom
   FFTW_PLAN_TYPE ESTIMATE
   EXTENDED_FFT_LENGTHS F
   FFT_POOL_SCRATCH_LIMIT 15
   ALLTOALL_SGL F
   PRINT_LEVEL LOW
   PROGRAM_NAME CP2K
   PROJECT_NAME "cp2k/job"
   OUTPUT_FILE_NAME 
   RUN_TYPE ENERGY_FORCE
   WALLTIME 
   ECHO_INPUT T
   ECHO_ALL_HOSTS F
   ENABLE_MPI_IO T
   TRACE F
   TRACE_MASTER T
   TRACE_MAX 2147483647
   FLUSH_SHOULD_FLUSH T
   CALLGRAPH NONE
   CALLGRAPH_FILE_NAME 
   SEED 2000
   SAVE_MEM F
 &END GLOBAL
 &FORCE_EVAL
   METHOD QS
   STRESS_TENSOR ANALYTICAL
   &DFT
     BASIS_SET_FILE_NAME BASIS_MOLOPT
     POTENTIAL_FILE_NAME GTH_POTENTIALS
     UKS F
     ROKS F
     MULTIPLICITY 1
     CHARGE 0
     EXCITATIONS NONE
     PLUS_U_METHOD MULLIKEN
     RELAX_MULTIPLICITY  0.0000000000000000E+000
     SUBCELLS  2.0000000000000000E+000
     AUTO_BASIS "X" "X"
     SURFACE_DIPOLE_CORRECTION F
     SURF_DIP_DIR Z
     SURF_DIP_POS -1.0000000000000000E+000
     SURF_DIP_SWITCH F
     CORE_CORR_DIP F
     SORT_BASIS DEFAULT
     &SCF
       MAX_ITER_LUMO 299
       EPS_LUMO  1.0000000000000001E-005
       MAX_SCF 500
       MAX_SCF_HISTORY 0
       MAX_DIIS 4
       LEVEL_SHIFT  0.0000000000000000E+000
       EPS_SCF  1.0000000000000000E-004
       EPS_SCF_HISTORY  0.0000000000000000E+000
       CHOLESKY RESTORE
       EPS_EIGVAL  1.0000000000000001E-005
       EPS_DIIS  1.0000000000000001E-001
       SCF_GUESS RESTART
       NROW_BLOCK 32
       NCOL_BLOCK 32
       ADDED_MOS 0
       ROKS_SCHEME HIGH-SPIN
       ROKS_F  5.0000000000000000E-001
       ROKS_PARAMETERS -5.0000000000000000E-001  1.5000000000000000E+000  5.0000000000000000E-001  5.0000000000000000E-001 \
         1.5000000000000000E+000 -5.0000000000000000E-001
       NOTCONV_STOPALL F
       &OT T
         ALGORITHM STRICT
         IRAC_DEGREE 4
         MAX_IRAC 50
         ORTHO_IRAC CHOL
         EPS_IRAC_FILTER_MATRIX  0.0000000000000000E+000
         EPS_IRAC  1.0000000000000000E-010
         EPS_IRAC_QUICK_EXIT  1.0000000000000001E-005
         EPS_IRAC_SWITCH  1.0000000000000000E-002
         ON_THE_FLY_LOC F
         MINIMIZER CG
         SAFE_DIIS T
         N_HISTORY_VEC 7
         BROYDEN_BETA  9.0000000000000002E-001
         BROYDEN_GAMMA  5.0000000000000000E-001
         BROYDEN_SIGMA  2.5000000000000000E-001
         BROYDEN_ETA  6.9999999999999996E-001
         BROYDEN_OMEGA  1.1000000000000001E+000
         BROYDEN_SIGMA_DECREASE  6.9999999999999996E-001
         BROYDEN_SIGMA_MIN  5.0000000000000003E-002
         BROYDEN_FORGET_HISTORY F
         BROYDEN_ADAPTIVE_SIGMA T
         BROYDEN_ENABLE_FLIP T
         LINESEARCH 2PNT
         STEPSIZE -1.0000000000000000E+000
         GOLD_TARGET  1.0000000000000000E-002
         PRECONDITIONER FULL_ALL
         CHOLESKY REDUCE
         PRECOND_SOLVER DEFAULT
         ENERGY_GAP -1.0000000000000000E+000
         EPS_TAYLOR  9.9999999999999998E-017
         MAX_TAYLOR 4
         ROTATION F
         ENERGIES F
         OCCUPATION_PRECONDITIONER F
         NONDIAG_ENERGY F
         NONDIAG_ENERGY_STRENGTH  1.0000000000000000E+000
       &END OT
       &OUTER_SCF T
         TYPE NONE
         OPTIMIZER NONE
         BISECT_TRUST_COUNT 10
         EPS_SCF  1.0000000000000000E-004
         DIIS_BUFFER_LENGTH 3
         EXTRAPOLATION_ORDER 3
         MAX_SCF 3
         STEP_SIZE  5.0000000000000000E-001
       &END OUTER_SCF
     &END SCF
     &LS_SCF
       LS_DIIS F
       INI_DIIS 2
       MAX_DIIS 4
       NMIXING 2
       EPS_DIIS  1.0000000000000001E-001
       MAX_SCF 500
       EPS_SCF  9.9999999999999995E-008
       MIXING_FRACTION  4.5000000000000001E-001
       EPS_FILTER  9.9999999999999995E-007
       EPS_LANCZOS  1.0000000000000000E-003
       MAX_ITER_LANCZOS 128
       MU -1.0000000000000001E-001
       FIXED_MU F
       EXTRAPOLATION_ORDER 4
       S_PRECONDITIONER ATOMIC
       S_SQRT_METHOD NEWTONSCHULZ
       S_SQRT_ORDER 3
       PURIFICATION_METHOD SIGN
       SIGN_METHOD NEWTONSCHULZ
       SUBMATRIX_SIGN_METHOD NEWTONSCHULZ
       SIGN_ORDER 2
       SIGN_SYMMETRIC F
       DYNAMIC_THRESHOLD F
       NON_MONOTONIC T
       MATRIX_CLUSTER_TYPE ATOMIC
       SINGLE_PRECISION_MATRICES F
       RESTART_WRITE F
       RESTART_READ F
       S_INVERSION SIGN_SQRT
       REPORT_ALL_SPARSITIES T
       PERFORM_MU_SCAN F
       CHECK_S_INV F
     &END LS_SCF
     &QS
       EPS_DEFAULT  1.0000000000000000E-010
       EPS_PGF_ORB  9.9999999999999998E-013
       EPS_PPL  1.0000000000000000E-002
       EPS_FILTER_MATRIX  0.0000000000000000E+000
       EPSFIT  1.0000000000000000E-004
       EPSISO  9.9999999999999998E-013
       EPSSVD  1.0000000000000000E-008
       EPSRHO0  9.9999999999999995E-007
       ALPHA0_HARD  0.0000000000000000E+000
       FORCE_PAW F
       MAX_RAD_LOCAL  2.5000000000000000E+001
       GAPW_1C_BASIS ORB
       MIN_PAIR_LIST_RADIUS  0.0000000000000000E+000
       LS_SCF F
       ALMO_SCF F
       TRANSPORT F
       KG_METHOD F
       REF_EMBED_SUBSYS F
       CLUSTER_EMBED_SUBSYS F
       HIGH_LEVEL_EMBED_SUBSYS F
       DFET_EMBEDDED F
       DMFET_EMBEDDED F
       STO_NG 6
       LMAXN1 -1
       LMAXN0 2
       LADDN0 99
       QUADRATURE GC_LOG
       PW_GRID NS-FULLSPACE
       PW_GRID_LAYOUT -1 -1
       PW_GRID_BLOCKED FREE
       EXTRAPOLATION ASPC
       EXTRAPOLATION_ORDER 3
       METHOD GPW
       CORE_PPL ANALYTIC
     &END QS
     &MGRID
       NGRIDS 3
       CUTOFF  4.0000000000000000E+002
       PROGRESSION_FACTOR  3.0000000000000000E+000
       COMMENSURATE F
       REALSPACE F
       REL_CUTOFF  5.0000000000000000E+001
       MULTIGRID_SET F
       SKIP_LOAD_BALANCE_DISTRIBUTED F
     &END MGRID
     &XC
       DENSITY_CUTOFF  1.0000000000000000E-010
       GRADIENT_CUTOFF  1.0000000000000000E-010
       DENSITY_SMOOTH_CUTOFF_RANGE  0.0000000000000000E+000
       TAU_CUTOFF  1.0000000000000000E-010
       FUNCTIONAL_ROUTINE DEFAULT
       2ND_DERIV_ANALYTICAL T
       3RD_DERIV_ANALYTICAL T
       STEP_SIZE  1.0000000000000000E-003
       NSTEPS 3
       &XC_FUNCTIONAL NO_SHORTCUT
         &PADE T
         &END PADE
       &END XC_FUNCTIONAL
     &END XC
   &END DFT
   &SUBSYS
     SEED 12345
     &CELL
       A  1.2000000000000000E+001  0.0000000000000000E+000  0.0000000000000000E+000
       B  0.0000000000000000E+000  1.2000000000000000E+001  0.0000000000000000E+000
       C  0.0000000000000000E+000  0.0000000000000000E+000  1.2000000000000000E+001
       ALPHA_BETA_GAMMA  9.0000000000000000E+001  9.0000000000000000E+001  9.0000000000000000E+001
       CELL_FILE_FORMAT CP2K
       PERIODIC XYZ
       MULTIPLE_UNIT_CELL 1 1 1
       SYMMETRY NONE
     &END CELL
     &COORD
 B 4.534859120000000132e+00 5.529755190000000376e+00 4.423223799999999706e+00
 H 7.744458810000000248e+00 6.964885370000000187e+00 8.690419889999999370e+00
 H 7.025495669999999748e+00 6.328029950000000348e+00 7.481785010000000291e+00
 H 8.308597419999999900e+00 7.271037589999999717e+00 7.194059179999999998e+00
 H 4.926355789999999679e+00 5.814865379999999639e+00 3.309580110000000630e+00
 H 3.691402580000000100e+00 4.728962410000000283e+00 4.755454320000000124e+00
 H 5.004701729999999849e+00 5.931267820000000413e+00 5.497636660000000397e+00
 N 7.976740829999999782e+00 6.505209950000000241e+00 7.806834470000000081e+00
       UNIT "angstrom"
       SCALED F
     &END COORD
     &KIND "B"
       BASIS_SET "SZV-MOLOPT-SR-GTH"
       AUX_BASIS_SET ""
       RI_AUX_BASIS_SET ""
       LRI_BASIS_SET ""
       AUX_FIT_BASIS_SET ""
       CORE_CORRECTION  0.0000000000000000E+000
       MAGNETIZATION  0.0000000000000000E+000
       ELEMENT "B"
       POTENTIAL_FILE_NAME "-"
       POTENTIAL_TYPE ""
       POTENTIAL "GTH-PADE"
       KG_POTENTIAL_FILE_NAME "-"
       KG_POTENTIAL "NONE"
       COVALENT_RADIUS  0.0000000000000000E+000
       VDW_RADIUS  0.0000000000000000E+000
       MAX_RAD_LOCAL  2.4566439727513359E+001
       LEBEDEV_GRID 50
       RADIAL_GRID 50
       MM_RADIUS  0.0000000000000000E+000
       DFTB3_PARAM  0.0000000000000000E+000
       LMAX_DFTB -1
       MAO -1
       SE_P_ORBITALS_ON_H F
       GPW_TYPE F
       GHOST F
       FLOATING_BASIS_CENTER F
       NO_OPTIMIZE F
       PAO_BASIS_SIZE 0
     &END KIND
     &KIND "N"
       BASIS_SET "SZV-MOLOPT-SR-GTH"
       AUX_BASIS_SET ""
       RI_AUX_BASIS_SET ""
       LRI_BASIS_SET ""
       AUX_FIT_BASIS_SET ""
       CORE_CORRECTION  0.0000000000000000E+000
       MAGNETIZATION  0.0000000000000000E+000
       ELEMENT "N"
       POTENTIAL_FILE_NAME "-"
       POTENTIAL_TYPE ""
       POTENTIAL "GTH-PADE"
       KG_POTENTIAL_FILE_NAME "-"
       KG_POTENTIAL "NONE"
       COVALENT_RADIUS  0.0000000000000000E+000
       VDW_RADIUS  0.0000000000000000E+000
       MAX_RAD_LOCAL  2.4566439727513359E+001
       LEBEDEV_GRID 50
       RADIAL_GRID 50
       MM_RADIUS  0.0000000000000000E+000
       DFTB3_PARAM  0.0000000000000000E+000
       LMAX_DFTB -1
       MAO -1
       SE_P_ORBITALS_ON_H F
       GPW_TYPE F
       GHOST F
       FLOATING_BASIS_CENTER F
       NO_OPTIMIZE F
       PAO_BASIS_SIZE 0
     &END KIND
     &KIND "H"
       BASIS_SET "SZV-MOLOPT-SR-GTH"
       AUX_BASIS_SET ""
       RI_AUX_BASIS_SET ""
       LRI_BASIS_SET ""
       AUX_FIT_BASIS_SET ""
       CORE_CORRECTION  0.0000000000000000E+000
       MAGNETIZATION  0.0000000000000000E+000
       ELEMENT "H"
       POTENTIAL_FILE_NAME "-"
       POTENTIAL_TYPE ""
       POTENTIAL "GTH-PADE"
       KG_POTENTIAL_FILE_NAME "-"
       KG_POTENTIAL "NONE"
       COVALENT_RADIUS  0.0000000000000000E+000
       VDW_RADIUS  0.0000000000000000E+000
       MAX_RAD_LOCAL  2.4566439727513359E+001
       LEBEDEV_GRID 50
       RADIAL_GRID 50
       MM_RADIUS  0.0000000000000000E+000
       DFTB3_PARAM  0.0000000000000000E+000
       LMAX_DFTB -1
       MAO -1
       SE_P_ORBITALS_ON_H F
       GPW_TYPE F
       GHOST F
       FLOATING_BASIS_CENTER F
       NO_OPTIMIZE F
       PAO_BASIS_SIZE 0
     &END KIND
   &END SUBSYS
   &PRINT
     &STRESS_TENSOR ON
       ADD_LAST NO
       COMMON_ITERATION_LEVELS 0
       FILENAME __STD_OUT__
       LOG_PRINT_KEY F
       COMPONENTS F
     &END STRESS_TENSOR
   &END PRINT
 &END FORCE_EVAL

 GLOBAL| Force Environment number                                              1
 GLOBAL| Basis set file name                                        BASIS_MOLOPT
 GLOBAL| Potential file name                                      GTH_POTENTIALS
 GLOBAL| MM Potential file name                                     MM_POTENTIAL
 GLOBAL| Coordinate file name                                      __STD_INPUT__
 GLOBAL| Method name                                                        CP2K
 GLOBAL| Project name                                                   cp2k/job
 GLOBAL| Run type                                                   ENERGY_FORCE
 GLOBAL| FFT library                                                       FFTW3
 GLOBAL| Diagonalization library                                            ELPA
 GLOBAL| DGEMM library                                                      BLAS
 GLOBAL| Minimum number of eigenvectors for ELPA usage                        16
 GLOBAL| Orthonormality check for eigenvectors                          DISABLED
 GLOBAL| Matrix multiplication library                                     COSMA
 GLOBAL| All-to-all communication in single precision                          F
 GLOBAL| FFTs using library dependent lengths                                  F
 GLOBAL| Grid backend                                                       AUTO
 GLOBAL| Global print level                                                  LOW
 GLOBAL| MPI I/O enabled                                                       T
 GLOBAL| Total number of message passing processes                             1
 GLOBAL| Number of threads for this process                                   16
 GLOBAL| This output is from process                                           0
 GLOBAL| Stack size for threads created by OpenMP (OMP_STACKSIZE)        default
 GLOBAL| CPU model name                                 Intel(R) Xeon(R) w3-2435
 GLOBAL| CPUID                                                              1003
 GLOBAL| Compiled for CPUID                                                    0

 *** HINT in environment.F:904 :: The compiler target flags (generic) used ***
 *** to build this binary cannot exploit all extensions of this CPU model  ***
 *** (x86_avx512). Consider compiler target flags as part of FCFLAGS and   ***
 *** CFLAGS (ARCH file).                                                   ***


 MEMORY| system memory details [Kb]
 MEMORY|                        rank 0           min           max       average
 MEMORY| MemTotal             65065512      65065512      65065512      65065512
 MEMORY| MemFree              11673024      11673024      11673024      11673024
 MEMORY| Buffers                 10160         10160         10160         10160
 MEMORY| Cached               29389384      29389384      29389384      29389384
 MEMORY| Slab                  6963740       6963740       6963740       6963740
 MEMORY| SReclaimable          5420672       5420672       5420672       5420672
 MEMORY| MemLikelyFree        46493240      46493240      46493240      46493240


 GENERATE|  Preliminary Number of Bonds generated:                             0
 GENERATE|  Achieved consistency in connectivity generation.

 *******************************************************************************
 *******************************************************************************
 **                                                                           **
 **     #####                         ##              ##                      **
 **    ##   ##            ##          ##              ##                      **
 **   ##     ##                       ##            ######                    **
 **   ##     ##  ##   ##  ##   #####  ##  ##   ####   ##    #####    #####    **
 **   ##     ##  ##   ##  ##  ##      ## ##   ##      ##   ##   ##  ##   ##   **
 **   ##  ## ##  ##   ##  ##  ##      ####     ###    ##   ######   ######    **
 **    ##  ###   ##   ##  ##  ##      ## ##      ##   ##   ##       ##        **
 **     #######   #####   ##   #####  ##  ##  ####    ##    #####   ##        **
 **           ##                                                    ##        **
 **                                                                           **
 **                                                ... make the atoms dance   **
 **                                                                           **
 **            Copyright (C) by CP2K developers group (2000-2023)             **
 **                      J. Chem. Phys. 152, 194103 (2020)                    **
 **                                                                           **
 *******************************************************************************


 TOTAL NUMBERS AND MAXIMUM NUMBERS

  Total number of            - Atomic kinds:                                   3
                             - Atoms:                                          8
                             - Shell sets:                                     8
                             - Shells:                                        10
                             - Primitive Cartesian functions:                 39
                             - Cartesian basis functions:                     14
                             - Spherical basis functions:                     14

  Maximum angular momentum of- Orbital basis functions:                        1
                             - Local part of the GTH pseudopotential:          2
                             - Non-local part of the GTH pseudopotential:      0


 SCF PARAMETERS         Density guess:                                   RESTART
                        --------------------------------------------------------
                        max_scf:                                             500
                        max_scf_history:                                       0
                        max_diis:                                              4
                        --------------------------------------------------------
                        eps_scf:                                        1.00E-04
                        eps_scf_history:                                0.00E+00
                        eps_diis:                                       1.00E-01
                        eps_eigval:                                     1.00E-05
                        --------------------------------------------------------
                        level_shift [a.u.]:                             0.000000
                        --------------------------------------------------------
                        Outer loop SCF in use 
                        No variables optimised in outer loop
                        eps_scf                                         1.00E-04
                        max_scf                                                3
                        No outer loop optimization
                        step_size                                       5.00E-01

 -------------------------------------------------------------------------------
 -                                                                             -
 -                         MESSAGE PASSING PERFORMANCE                         -
 -                                                                             -
 -------------------------------------------------------------------------------

 ROUTINE             CALLS      AVE VOLUME [Bytes]
 MP_Group                3
 MP_Allreduce           31                      7.
 MP_Sync                 3
 -------------------------------------------------------------------------------


 -------------------------------------------------------------------------------
 -                                                                             -
 -                           R E F E R E N C E S                               -
 -                                                                             -
 -------------------------------------------------------------------------------
 
 CP2K version 2023.2, the CP2K developers group (2023).
 CP2K is freely available from https://www.cp2k.org/ .

 Kuehne,Thomas D.; Iannuzzi,Marcella; Del Ben,Mauro;
 Rybkin,Vladimir V.; Seewald,Patrick; Stein,Frederick; Laino,Teodoro;
 Khaliullin,Rustam Z.; Schuett,Ole; Schiffmann,Florian; Golze,Dorothea;
 Wilhelm,Jan; Chulkov,Sergey; Bani-Hashemian,Mohammad Hossein;
 Weber,Valery; Borstnik,Urban; Taillefumier,Mathieu;
 Jakobovits,Alice Shoshana; Lazzaro,Alfio; Pabst,Hans; Mueller,Tiziano;
 Schade,Robert; Guidon,Manuel; Andermatt,Samuel; Holmberg,Nico;
 Schenter,Gregory K.; Hehn,Anna; Bussy,Augustin; Belleflamme,Fabian;
 Tabacchi,Gloria; Gloess,Andreas; Lass,Michael; Bethune,Iain;
 Mundy,Christopher J.; Plessl,Christian; Watkins,Matt;
 VandeVondele,Joost; Krack,Matthias; Hutter,Juerg. 
 The Journal of Chemical Physics, 152 (19), (2020). 
 CP2K: An electronic structure and molecular dynamics software package -
 Quickstep: Efficient and accurate electronic structure calculations.
 https://doi.org/10.1063/5.0007045

 Marek, A; Blum, V; Johanni, R; Havu, V; Lang, B; Auckenthaler, T;
 Heinecke, A; Bungartz, H; Lederer, H. 
 Journal of Physics: Condensed Matter, 26 (21), (2014). 
 The ELPA library: scalable parallel eigenvalue solutions for
 electronic structure
 theory and computational science.
 https://doi.org/10.1088/0953-8984/26/21/213201

 VandeVondele, J; Hutter, J. 
 JOURNAL OF CHEMICAL PHYSICS, 127 (11), 114105 (2007). 
 Gaussian basis sets for accurate calculations on molecular systems in
 gas and condensed phases.
 https://doi.org/10.1063/1.2770708

 Krack, M. 
 THEORETICAL CHEMISTRY ACCOUNTS, 114 (1-3), 145-152 (2005). 
 Pseudopotentials for H to Kr optimized for gradient-corrected
 exchange-correlation functionals.
 https://doi.org/10.1007/s00214-005-0655-y

 VandeVondele, J; Krack, M; Mohamed, F; Parrinello, M; Chassaing, T;
 Hutter, J. COMPUTER PHYSICS COMMUNICATIONS, 167 (2), 103-128 (2005). 
 QUICKSTEP: Fast and accurate density functional calculations using a
 mixed Gaussian and plane waves approach.
 https://doi.org/10.1016/j.cpc.2004.12.014

 Frigo, M; Johnson, SG. 
 PROCEEDINGS OF THE IEEE, 93 (2), 216-231 (2005). 
 The design and implementation of FFTW3.
 https://doi.org/10.1109/JPROC.2004.840301

 Hartwigsen, C; Goedecker, S; Hutter, J. 
 PHYSICAL REVIEW B, 58 (7), 3641-3662 (1998). 
 Relativistic separable dual-space Gaussian pseudopotentials from H to Rn.
 https://doi.org/10.1103/PhysRevB.58.3641

 Lippert, G; Hutter, J; Parrinello, M. 
 MOLECULAR PHYSICS, 92 (3), 477-487 (1997). 
 A hybrid Gaussian and plane wave density functional scheme.
 https://doi.org/10.1080/002689797170220

 Goedecker, S; Teter, M; Hutter, J. 
 PHYSICAL REVIEW B, 54 (3), 1703-1710 (1996). 
 Separable dual-space Gaussian pseudopotentials.
 https://doi.org/10.1103/PhysRevB.54.1703


 -------------------------------------------------------------------------------
 -                                                                             -
 -                                T I M I N G                                  -
 -                                                                             -
 -------------------------------------------------------------------------------
 SUBROUTINE                       CALLS  ASD         SELF TIME        TOTAL TIME
                                MAXIMUM       AVERAGE  MAXIMUM  AVERAGE  MAXIMUM
 CP2K                                 1  1.0    0.009    0.009    0.733    0.733
 qs_init_subsys                       1  2.0    0.000    0.000    0.664    0.664
 qs_env_setup                         1  3.0    0.000    0.000    0.661    0.661
 qs_env_rebuild_pw_env                1  4.0    0.000    0.000    0.661    0.661
 pw_env_rebuild                       1  5.0    0.000    0.000    0.661    0.661
 pw_grid_setup                        3  6.0    0.000    0.000    0.660    0.660
 pw_grid_setup_internal               3  7.0    0.014    0.014    0.660    0.660
 pw_grid_sort                         3  8.0    0.441    0.441    0.558    0.558
 sort_shells                          3  9.0    0.118    0.118    0.118    0.118
 pw_grid_assign                       3  8.0    0.087    0.087    0.087    0.087
 fft3d_s                              1  2.0    0.017    0.017    0.041    0.041
 get_fft_scratch                      1  3.0    0.024    0.024    0.024    0.024
 -------------------------------------------------------------------------------

 The number of warnings for this run is : 0
 
 -------------------------------------------------------------------------------
  **** **** ******  **  PROGRAM ENDED AT                 2026-04-15 15:05:18.575
 ***** ** ***  *** **   PROGRAM RAN ON                   cbe-dt-319.che.ncsu.edu
 **    ****   ******    PROGRAM RAN BY                                   rverma7
 ***** **    ** ** **   PROGRAM PROCESS ID                               3121168
  **** **  *******  **  PROGRAM STOPPED IN /home/rverma7/My_Program/0.3_sparc/ex
                                           amples/CP2K/MD/NVE

  **** **** ******  **  PROGRAM STARTED AT               2026-04-15 15:06:08.825
 ***** ** ***  *** **   PROGRAM STARTED ON               cbe-dt-319.che.ncsu.edu
 **    ****   ******    PROGRAM STARTED BY                               rverma7
 ***** **    ** ** **   PROGRAM PROCESS ID                               3121629
  **** **  *******  **  PROGRAM STARTED IN /home/rverma7/My_Program/0.3_sparc/ex
                                           amples/CP2K/MD/NVE

 CP2K| version string:                                       CP2K version 2023.2
 CP2K| source code revision number:                                  git:65cca6c
 CP2K| cp2kflags: omp libint fftw3 libxc elpa parallel mpi_f08 scalapack cosma x
 CP2K|            smm plumed2 spglib mkl sirius libvori libbqb libvdwxc
 CP2K| is freely available from                            https://www.cp2k.org/
 CP2K| Program compiled at                       Wed Dec 18 11:39:34 AM EST 2024
 CP2K| Program compiled on                               cbe-dt-319.che.ncsu.edu
 CP2K| Program compiled for                                                local
 CP2K| Data directory path                     /home/prg/Softwares/cp2k_gcc/data
 CP2K| Input file name                                              cp2k/job.inp
 &GLOBAL
   BLACS_GRID SQUARE
   BLACS_REPEATABLE F
   PREFERRED_DIAG_LIBRARY ELPA
   PREFERRED_DGEMM_LIBRARY BLAS
   EPS_CHECK_DIAG -1.0000000000000000E+000
   ELPA_KERNEL AUTO
   ELPA_NEIGVEC_MIN 16
   ELPA_QR F
   ELPA_QR_UNSAFE F
   PREFERRED_FFT_LIBRARY FFTW3
   FFTW_WISDOM_FILE_NAME /etc/fftw/wisdom
   FFTW_PLAN_TYPE ESTIMATE
   EXTENDED_FFT_LENGTHS F
   FFT_POOL_SCRATCH_LIMIT 15
   ALLTOALL_SGL F
   PRINT_LEVEL LOW
   PROGRAM_NAME CP2K
   PROJECT_NAME "cp2k/job"
   OUTPUT_FILE_NAME 
   RUN_TYPE ENERGY_FORCE
   WALLTIME 
   ECHO_INPUT T
   ECHO_ALL_HOSTS F
   ENABLE_MPI_IO T
   TRACE F
   TRACE_MASTER T
   TRACE_MAX 2147483647
   FLUSH_SHOULD_FLUSH T
   CALLGRAPH NONE
   CALLGRAPH_FILE_NAME 
   SEED 2000
   SAVE_MEM F
 &END GLOBAL
 &FORCE_EVAL
   METHOD QS
   STRESS_TENSOR ANALYTICAL
   &DFT
     BASIS_SET_FILE_NAME BASIS_MOLOPT
     POTENTIAL_FILE_NAME GTH_POTENTIALS
     UKS F
     ROKS F
     MULTIPLICITY 1
     CHARGE 0
     EXCITATIONS NONE
     PLUS_U_METHOD MULLIKEN
     RELAX_MULTIPLICITY  0.0000000000000000E+000
     SUBCELLS  2.0000000000000000E+000
     AUTO_BASIS "X" "X"
     SURFACE_DIPOLE_CORRECTION F
     SURF_DIP_DIR Z
     SURF_DIP_POS -1.0000000000000000E+000
     SURF_DIP_SWITCH F
     CORE_CORR_DIP F
     SORT_BASIS DEFAULT
     &SCF
       MAX_ITER_LUMO 299
       EPS_LUMO  1.0000000000000001E-005
       MAX_SCF 500
       MAX_SCF_HISTORY 0
       MAX_DIIS 4
       LEVEL_SHIFT  0.0000000000000000E+000
       EPS_SCF  1.0000000000000000E-004
       EPS_SCF_HISTORY  0.0000000000000000E+000
       CHOLESKY RESTORE
       EPS_EIGVAL  1.0000000000000001E-005
       EPS_DIIS  1.0000000000000001E-001
       SCF_GUESS RESTART
       NROW_BLOCK 32
       NCOL_BLOCK 32
       ADDED_MOS 0
       ROKS_SCHEME HIGH-SPIN
       ROKS_F  5.0000000000000000E-001
       ROKS_PARAMETERS -5.0000000000000000E-001  1.5000000000000000E+000  5.0000000000000000E-001  5.0000000000000000E-001 \
         1.5000000000000000E+000 -5.0000000000000000E-001
       NOTCONV_STOPALL F
       &OT T
         ALGORITHM STRICT
         IRAC_DEGREE 4
         MAX_IRAC 50
         ORTHO_IRAC CHOL
         EPS_IRAC_FILTER_MATRIX  0.0000000000000000E+000
         EPS_IRAC  1.0000000000000000E-010
         EPS_IRAC_QUICK_EXIT  1.0000000000000001E-005
         EPS_IRAC_SWITCH  1.0000000000000000E-002
         ON_THE_FLY_LOC F
         MINIMIZER CG
         SAFE_DIIS T
         N_HISTORY_VEC 7
         BROYDEN_BETA  9.0000000000000002E-001
         BROYDEN_GAMMA  5.0000000000000000E-001
         BROYDEN_SIGMA  2.5000000000000000E-001
         BROYDEN_ETA  6.9999999999999996E-001
         BROYDEN_OMEGA  1.1000000000000001E+000
         BROYDEN_SIGMA_DECREASE  6.9999999999999996E-001
         BROYDEN_SIGMA_MIN  5.0000000000000003E-002
         BROYDEN_FORGET_HISTORY F
         BROYDEN_ADAPTIVE_SIGMA T
         BROYDEN_ENABLE_FLIP T
         LINESEARCH 2PNT
         STEPSIZE -1.0000000000000000E+000
         GOLD_TARGET  1.0000000000000000E-002
         PRECONDITIONER FULL_ALL
         CHOLESKY REDUCE
         PRECOND_SOLVER DEFAULT
         ENERGY_GAP -1.0000000000000000E+000
         EPS_TAYLOR  9.9999999999999998E-017
         MAX_TAYLOR 4
         ROTATION F
         ENERGIES F
         OCCUPATION_PRECONDITIONER F
         NONDIAG_ENERGY F
         NONDIAG_ENERGY_STRENGTH  1.0000000000000000E+000
       &END OT
       &OUTER_SCF T
         TYPE NONE
         OPTIMIZER NONE
         BISECT_TRUST_COUNT 10
         EPS_SCF  1.0000000000000000E-004
         DIIS_BUFFER_LENGTH 3
         EXTRAPOLATION_ORDER 3
         MAX_SCF 3
         STEP_SIZE  5.0000000000000000E-001
       &END OUTER_SCF
     &END SCF
     &LS_SCF
       LS_DIIS F
       INI_DIIS 2
       MAX_DIIS 4
       NMIXING 2
       EPS_DIIS  1.0000000000000001E-001
       MAX_SCF 500
       EPS_SCF  9.9999999999999995E-008
       MIXING_FRACTION  4.5000000000000001E-001
       EPS_FILTER  9.9999999999999995E-007
       EPS_LANCZOS  1.0000000000000000E-003
       MAX_ITER_LANCZOS 128
       MU -1.0000000000000001E-001
       FIXED_MU F
       EXTRAPOLATION_ORDER 4
       S_PRECONDITIONER ATOMIC
       S_SQRT_METHOD NEWTONSCHULZ
       S_SQRT_ORDER 3
       PURIFICATION_METHOD SIGN
       SIGN_METHOD NEWTONSCHULZ
       SUBMATRIX_SIGN_METHOD NEWTONSCHULZ
       SIGN_ORDER 2
       SIGN_SYMMETRIC F
       DYNAMIC_THRESHOLD F
       NON_MONOTONIC T
       MATRIX_CLUSTER_TYPE ATOMIC
       SINGLE_PRECISION_MATRICES F
       RESTART_WRITE F
       RESTART_READ F
       S_INVERSION SIGN_SQRT
       REPORT_ALL_SPARSITIES T
       PERFORM_MU_SCAN F
       CHECK_S_INV F
     &END LS_SCF
     &QS
       EPS_DEFAULT  1.0000000000000000E-010
       EPS_PGF_ORB  9.9999999999999998E-013
       EPS_PPL  1.0000000000000000E-002
       EPS_FILTER_MATRIX  0.0000000000000000E+000
       EPSFIT  1.0000000000000000E-004
       EPSISO  9.9999999999999998E-013
       EPSSVD  1.0000000000000000E-008
       EPSRHO0  9.9999999999999995E-007
       ALPHA0_HARD  0.0000000000000000E+000
       FORCE_PAW F
       MAX_RAD_LOCAL  2.5000000000000000E+001
       GAPW_1C_BASIS ORB
       MIN_PAIR_LIST_RADIUS  0.0000000000000000E+000
       LS_SCF F
       ALMO_SCF F
       TRANSPORT F
       KG_METHOD F
       REF_EMBED_SUBSYS F
       CLUSTER_EMBED_SUBSYS F
       HIGH_LEVEL_EMBED_SUBSYS F
       DFET_EMBEDDED F
       DMFET_EMBEDDED F
       STO_NG 6
       LMAXN1 -1
       LMAXN0 2
       LADDN0 99
       QUADRATURE GC_LOG
       PW_GRID NS-FULLSPACE
       PW_GRID_LAYOUT -1 -1
       PW_GRID_BLOCKED FREE
       EXTRAPOLATION ASPC
       EXTRAPOLATION_ORDER 3
       METHOD GPW
       CORE_PPL ANALYTIC
     &END QS
     &MGRID
       NGRIDS 3
       CUTOFF  4.0000000000000000E+002
       PROGRESSION_FACTOR  3.0000000000000000E+000
       COMMENSURATE F
       REALSPACE F
       REL_CUTOFF  5.0000000000000000E+001
       MULTIGRID_SET F
       SKIP_LOAD_BALANCE_DISTRIBUTED F
     &END MGRID
     &XC
       DENSITY_CUTOFF  1.0000000000000000E-010
       GRADIENT_CUTOFF  1.0000000000000000E-010
       DENSITY_SMOOTH_CUTOFF_RANGE  0.0000000000000000E+000
       TAU_CUTOFF  1.0000000000000000E-010
       FUNCTIONAL_ROUTINE DEFAULT
       2ND_DERIV_ANALYTICAL T
       3RD_DERIV_ANALYTICAL T
       STEP_SIZE  1.0000000000000000E-003
       NSTEPS 3
       &XC_FUNCTIONAL NO_SHORTCUT
         &PADE T
         &END PADE
       &END XC_FUNCTIONAL
     &END XC
   &END DFT
   &SUBSYS
     SEED 12345
     &CELL
       A  1.2000000000000000E+001  0.0000000000000000E+000  0.0000000000000000E+000
       B  0.0000000000000000E+000  1.2000000000000000E+001  0.0000000000000000E+000
       C  0.0000000000000000E+000  0.0000000000000000E+000  1.2000000000000000E+001
       ALPHA_BETA_GAMMA  9.0000000000000000E+001  9.0000000000000000E+001  9.0000000000000000E+001
       CELL_FILE_FORMAT CP2K
       PERIODIC XYZ
       MULTIPLE_UNIT_CELL 1 1 1
       SYMMETRY NONE
     &END CELL
     &COORD
 B 4.534859120000000132e+00 5.529755190000000376e+00 4.423223799999999706e+00
 H 7.744458810000000248e+00 6.964885370000000187e+00 8.690419889999999370e+00
 H 7.025495669999999748e+00 6.328029950000000348e+00 7.481785010000000291e+00
 H 8.308597419999999900e+00 7.271037589999999717e+00 7.194059179999999998e+00
 H 4.926355789999999679e+00 5.814865379999999639e+00 3.309580110000000630e+00
 H 3.691402580000000100e+00 4.728962410000000283e+00 4.755454320000000124e+00
 H 5.004701729999999849e+00 5.931267820000000413e+00 5.497636660000000397e+00
 N 7.976740829999999782e+00 6.505209950000000241e+00 7.806834470000000081e+00
       UNIT "angstrom"
       SCALED F
     &END COORD
     &KIND "B"
       BASIS_SET "SZV-MOLOPT-SR-GTH"
       AUX_BASIS_SET ""
       RI_AUX_BASIS_SET ""
       LRI_BASIS_SET ""
       AUX_FIT_BASIS_SET ""
       CORE_CORRECTION  0.0000000000000000E+000
       MAGNETIZATION  0.0000000000000000E+000
       ELEMENT "B"
       POTENTIAL_FILE_NAME "-"
       POTENTIAL_TYPE ""
       POTENTIAL "GTH-PADE"
       KG_POTENTIAL_FILE_NAME "-"
       KG_POTENTIAL "NONE"
       COVALENT_RADIUS  0.0000000000000000E+000
       VDW_RADIUS  0.0000000000000000E+000
       MAX_RAD_LOCAL  2.4566439727513359E+001
       LEBEDEV_GRID 50
       RADIAL_GRID 50
       MM_RADIUS  0.0000000000000000E+000
       DFTB3_PARAM  0.0000000000000000E+000
       LMAX_DFTB -1
       MAO -1
       SE_P_ORBITALS_ON_H F
       GPW_TYPE F
       GHOST F
       FLOATING_BASIS_CENTER F
       NO_OPTIMIZE F
       PAO_BASIS_SIZE 0
     &END KIND
     &KIND "N"
       BASIS_SET "SZV-MOLOPT-SR-GTH"
       AUX_BASIS_SET ""
       RI_AUX_BASIS_SET ""
       LRI_BASIS_SET ""
       AUX_FIT_BASIS_SET ""
       CORE_CORRECTION  0.0000000000000000E+000
       MAGNETIZATION  0.0000000000000000E+000
       ELEMENT "N"
       POTENTIAL_FILE_NAME "-"
       POTENTIAL_TYPE ""
       POTENTIAL "GTH-PADE"
       KG_POTENTIAL_FILE_NAME "-"
       KG_POTENTIAL "NONE"
       COVALENT_RADIUS  0.0000000000000000E+000
       VDW_RADIUS  0.0000000000000000E+000
       MAX_RAD_LOCAL  2.4566439727513359E+001
       LEBEDEV_GRID 50
       RADIAL_GRID 50
       MM_RADIUS  0.0000000000000000E+000
       DFTB3_PARAM  0.0000000000000000E+000
       LMAX_DFTB -1
       MAO -1
       SE_P_ORBITALS_ON_H F
       GPW_TYPE F
       GHOST F
       FLOATING_BASIS_CENTER F
       NO_OPTIMIZE F
       PAO_BASIS_SIZE 0
     &END KIND
     &KIND "H"
       BASIS_SET "SZV-MOLOPT-SR-GTH"
       AUX_BASIS_SET ""
       RI_AUX_BASIS_SET ""
       LRI_BASIS_SET ""
       AUX_FIT_BASIS_SET ""
       CORE_CORRECTION  0.0000000000000000E+000
       MAGNETIZATION  0.0000000000000000E+000
       ELEMENT "H"
       POTENTIAL_FILE_NAME "-"
       POTENTIAL_TYPE ""
       POTENTIAL "GTH-PADE"
       KG_POTENTIAL_FILE_NAME "-"
       KG_POTENTIAL "NONE"
       COVALENT_RADIUS  0.0000000000000000E+000
       VDW_RADIUS  0.0000000000000000E+000
       MAX_RAD_LOCAL  2.4566439727513359E+001
       LEBEDEV_GRID 50
       RADIAL_GRID 50
       MM_RADIUS  0.0000000000000000E+000
       DFTB3_PARAM  0.0000000000000000E+000
       LMAX_DFTB -1
       MAO -1
       SE_P_ORBITALS_ON_H F
       GPW_TYPE F
       GHOST F
       FLOATING_BASIS_CENTER F
       NO_OPTIMIZE F
       PAO_BASIS_SIZE 0
     &END KIND
   &END SUBSYS
   &PRINT
     &STRESS_TENSOR ON
       ADD_LAST NO
       COMMON_ITERATION_LEVELS 0
       FILENAME __STD_OUT__
       LOG_PRINT_KEY F
       COMPONENTS F
     &END STRESS_TENSOR
   &END PRINT
 &END FORCE_EVAL

 GLOBAL| Force Environment number                                              1
 GLOBAL| Basis set file name                                        BASIS_MOLOPT
 GLOBAL| Potential file name                                      GTH_POTENTIALS
 GLOBAL| MM Potential file name                                     MM_POTENTIAL
 GLOBAL| Coordinate file name                                      __STD_INPUT__
 GLOBAL| Method name                                                        CP2K
 GLOBAL| Project name                                                   cp2k/job
 GLOBAL| Run type                                                   ENERGY_FORCE
 GLOBAL| FFT library                                                       FFTW3
 GLOBAL| Diagonalization library                                            ELPA
 GLOBAL| DGEMM library                                                      BLAS
 GLOBAL| Minimum number of eigenvectors for ELPA usage                        16
 GLOBAL| Orthonormality check for eigenvectors                          DISABLED
 GLOBAL| Matrix multiplication library                                     COSMA
 GLOBAL| All-to-all communication in single precision                          F
 GLOBAL| FFTs using library dependent lengths                                  F
 GLOBAL| Grid backend                                                       AUTO
 GLOBAL| Global print level                                                  LOW
 GLOBAL| MPI I/O enabled                                                       T
 GLOBAL| Total number of message passing processes                             2
 GLOBAL| Number of threads for this process                                    2
 GLOBAL| This output is from process                                           0
 GLOBAL| Stack size for threads created by OpenMP (OMP_STACKSIZE)        default
 GLOBAL| CPU model name                                 Intel(R) Xeon(R) w3-2435
 GLOBAL| CPUID                                                              1003
 GLOBAL| Compiled for CPUID                                                    0

 *** HINT in environment.F:904 :: The compiler target flags (generic) used ***
 *** to build this binary cannot exploit all extensions of this CPU model  ***
 *** (x86_avx512). Consider compiler target flags as part of FCFLAGS and   ***
 *** CFLAGS (ARCH file).                                                   ***


 MEMORY| system memory details [Kb]
 MEMORY|                        rank 0           min           max       average
 MEMORY| MemTotal             65065512      65065512      65065512      65065512
 MEMORY| MemFree              11633636      11633636      11633636      11633636
 MEMORY| Buffers                 10160         10160         10160         10160
 MEMORY| Cached               29397968      29397968      29397968      29397968
 MEMORY| Slab                  6963892       6963892       6963892       6963892
 MEMORY| SReclaimable          5420672       5420672       5420672       5420672
 MEMORY| MemLikelyFree        46462436      46462436      46462436      46462436


 GENERATE|  Preliminary Number of Bonds generated:                             0
 GENERATE|  Achieved consistency in connectivity generation.

 *******************************************************************************
 *******************************************************************************
 **                                                                           **
 **     #####                         ##              ##                      **
 **    ##   ##            ##          ##              ##                      **
 **   ##     ##                       ##            ######                    **
 **   ##     ##  ##   ##  ##   #####  ##  ##   ####   ##    #####    #####    **
 **   ##     ##  ##   ##  ##  ##      ## ##   ##      ##   ##   ##  ##   ##   **
 **   ##  ## ##  ##   ##  ##  ##      ####     ###    ##   ######   ######    **
 **    ##  ###   ##   ##  ##  ##      ## ##      ##   ##   ##       ##        **
 **     #######   #####   ##   #####  ##  ##  ####    ##    #####   ##        **
 **           ##                                                    ##        **
 **                                                                           **
 **                                                ... make the atoms dance   **
 **                                                                           **
 **            Copyright (C) by CP2K developers group (2000-2023)             **
 **                      J. Chem. Phys. 152, 194103 (2020)                    **
 **                                                                           **
 *******************************************************************************


 TOTAL NUMBERS AND MAXIMUM NUMBERS

  Total number of            - Atomic kinds:                                   3
                             - Atoms:                                          8
                             - Shell sets:                                     8
                             - Shells:                                        10
                             - Primitive Cartesian functions:                 39
                             - Cartesian basis functions:                     14
                             - Spherical basis functions:                     14

  Maximum angular momentum of- Orbital basis functions:                        1
                             - Local part of the GTH pseudopotential:          2
                             - Non-local part of the GTH pseudopotential:      0


 SCF PARAMETERS         Density guess:                                   RESTART
                        --------------------------------------------------------
                        max_scf:                                             500
                        max_scf_history:                                       0
                        max_diis:                                              4
                        --------------------------------------------------------
                        eps_scf:                                        1.00E-04
                        eps_scf_history:                                0.00E+00
                        eps_diis:                                       1.00E-01
                        eps_eigval:                                     1.00E-05
                        --------------------------------------------------------
                        level_shift [a.u.]:                             0.000000
                        --------------------------------------------------------
                        Outer loop SCF in use 
                        No variables optimised in outer loop
                        eps_scf                                         1.00E-04
                        max_scf                                                3
                        No outer loop optimization
                        step_size                                       5.00E-01

 Number of electrons:                                                         14
 Number of occupied orbitals:                                                  7
 Number of molecular orbitals:                                                 7

 Number of orbital functions:                                                 14
 Number of independent orbital functions:                                     14

 Extrapolation method: initial_guess

 *** WARNING in qs_initial_guess.F:305 :: User requested to restart the   ***
 *** wavefunction from the file named: cp2k/job-RESTART.wfn. This file    ***
 *** does not exist. Please check the existence of the file or change     ***
 *** properly the value of the keyword WFN_RESTART_FILE_NAME. Calculation ***
 *** continues using ATOMIC GUESS.                                        ***



 SCF WAVEFUNCTION OPTIMIZATION

  ----------------------------------- OT ---------------------------------------
  Minimizer      : CG                  : conjugate gradient
  Preconditioner : FULL_ALL            : diagonalization, state selective
  Precond_solver : DEFAULT
  Line search    : 2PNT                : 2 energies, one gradient
  stepsize       :    0.15000000                  energy_gap     :    0.08000000
  eps_taylor     :   0.10000E-15                  max_taylor     :             4
  ----------------------------------- OT ---------------------------------------

  Step     Update method      Time    Convergence         Total energy    Change
  ------------------------------------------------------------------------------
     1 OT CG       0.15E+00    0.3     0.56394536       -14.9371718222 -1.49E+01
     2 OT LS       0.69E-01    0.3                      -14.5481364478
     3 OT CG       0.69E-01    0.5     0.28549321       -15.8136096619 -8.76E-01

  **** **** ******  **  PROGRAM STARTED AT               2026-04-15 15:08:18.202
 ***** ** ***  *** **   PROGRAM STARTED ON               cbe-dt-319.che.ncsu.edu
 **    ****   ******    PROGRAM STARTED BY                               rverma7
 ***** **    ** ** **   PROGRAM PROCESS ID                               3122061
  **** **  *******  **  PROGRAM STARTED IN /home/rverma7/My_Program/0.3_sparc/ex
                                           amples/CP2K/MD/NVE

 CP2K| version string:                                       CP2K version 2023.2
 CP2K| source code revision number:                                  git:65cca6c
 CP2K| cp2kflags: omp libint fftw3 libxc elpa parallel mpi_f08 scalapack cosma x
 CP2K|            smm plumed2 spglib mkl sirius libvori libbqb libvdwxc
 CP2K| is freely available from                            https://www.cp2k.org/
 CP2K| Program compiled at                       Wed Dec 18 11:39:34 AM EST 2024
 CP2K| Program compiled on                               cbe-dt-319.che.ncsu.edu
 CP2K| Program compiled for                                                local
 CP2K| Data directory path                     /home/prg/Softwares/cp2k_gcc/data
 CP2K| Input file name                                              cp2k/job.inp
 &GLOBAL
   BLACS_GRID SQUARE
   BLACS_REPEATABLE F
   PREFERRED_DIAG_LIBRARY ELPA
   PREFERRED_DGEMM_LIBRARY BLAS
   EPS_CHECK_DIAG -1.0000000000000000E+000
   ELPA_KERNEL AUTO
   ELPA_NEIGVEC_MIN 16
   ELPA_QR F
   ELPA_QR_UNSAFE F
   PREFERRED_FFT_LIBRARY FFTW3
   FFTW_WISDOM_FILE_NAME /etc/fftw/wisdom
   FFTW_PLAN_TYPE ESTIMATE
   EXTENDED_FFT_LENGTHS F
   FFT_POOL_SCRATCH_LIMIT 15
   ALLTOALL_SGL F
   PRINT_LEVEL LOW
   PROGRAM_NAME CP2K
   PROJECT_NAME "cp2k/job"
   OUTPUT_FILE_NAME 
   RUN_TYPE ENERGY_FORCE
   WALLTIME 
   ECHO_INPUT T
   ECHO_ALL_HOSTS F
   ENABLE_MPI_IO T
   TRACE F
   TRACE_MASTER T
   TRACE_MAX 2147483647
   FLUSH_SHOULD_FLUSH T
   CALLGRAPH NONE
   CALLGRAPH_FILE_NAME 
   SEED 2000
   SAVE_MEM F
 &END GLOBAL
 &FORCE_EVAL
   METHOD QS
   STRESS_TENSOR ANALYTICAL
   &DFT
     BASIS_SET_FILE_NAME BASIS_MOLOPT
     POTENTIAL_FILE_NAME GTH_POTENTIALS
     UKS F
     ROKS F
     MULTIPLICITY 1
     CHARGE 0
     EXCITATIONS NONE
     PLUS_U_METHOD MULLIKEN
     RELAX_MULTIPLICITY  0.0000000000000000E+000
     SUBCELLS  2.0000000000000000E+000
     AUTO_BASIS "X" "X"
     SURFACE_DIPOLE_CORRECTION F
     SURF_DIP_DIR Z
     SURF_DIP_POS -1.0000000000000000E+000
     SURF_DIP_SWITCH F
     CORE_CORR_DIP F
     SORT_BASIS DEFAULT
     &SCF
       MAX_ITER_LUMO 299
       EPS_LUMO  1.0000000000000001E-005
       MAX_SCF 500
       MAX_SCF_HISTORY 0
       MAX_DIIS 4
       LEVEL_SHIFT  0.0000000000000000E+000
       EPS_SCF  1.0000000000000000E-004
       EPS_SCF_HISTORY  0.0000000000000000E+000
       CHOLESKY RESTORE
       EPS_EIGVAL  1.0000000000000001E-005
       EPS_DIIS  1.0000000000000001E-001
       SCF_GUESS RESTART
       NROW_BLOCK 32
       NCOL_BLOCK 32
       ADDED_MOS 0
       ROKS_SCHEME HIGH-SPIN
       ROKS_F  5.0000000000000000E-001
       ROKS_PARAMETERS -5.0000000000000000E-001  1.5000000000000000E+000  5.0000000000000000E-001  5.0000000000000000E-001 \
         1.5000000000000000E+000 -5.0000000000000000E-001
       NOTCONV_STOPALL F
       &OT T
         ALGORITHM STRICT
         IRAC_DEGREE 4
         MAX_IRAC 50
         ORTHO_IRAC CHOL
         EPS_IRAC_FILTER_MATRIX  0.0000000000000000E+000
         EPS_IRAC  1.0000000000000000E-010
         EPS_IRAC_QUICK_EXIT  1.0000000000000001E-005
         EPS_IRAC_SWITCH  1.0000000000000000E-002
         ON_THE_FLY_LOC F
         MINIMIZER CG
         SAFE_DIIS T
         N_HISTORY_VEC 7
         BROYDEN_BETA  9.0000000000000002E-001
         BROYDEN_GAMMA  5.0000000000000000E-001
         BROYDEN_SIGMA  2.5000000000000000E-001
         BROYDEN_ETA  6.9999999999999996E-001
         BROYDEN_OMEGA  1.1000000000000001E+000
         BROYDEN_SIGMA_DECREASE  6.9999999999999996E-001
         BROYDEN_SIGMA_MIN  5.0000000000000003E-002
         BROYDEN_FORGET_HISTORY F
         BROYDEN_ADAPTIVE_SIGMA T
         BROYDEN_ENABLE_FLIP T
         LINESEARCH 2PNT
         STEPSIZE -1.0000000000000000E+000
         GOLD_TARGET  1.0000000000000000E-002
         PRECONDITIONER FULL_ALL
         CHOLESKY REDUCE
         PRECOND_SOLVER DEFAULT
         ENERGY_GAP -1.0000000000000000E+000
         EPS_TAYLOR  9.9999999999999998E-017
         MAX_TAYLOR 4
         ROTATION F
         ENERGIES F
         OCCUPATION_PRECONDITIONER F
         NONDIAG_ENERGY F
         NONDIAG_ENERGY_STRENGTH  1.0000000000000000E+000
       &END OT
       &OUTER_SCF T
         TYPE NONE
         OPTIMIZER NONE
         BISECT_TRUST_COUNT 10
         EPS_SCF  1.0000000000000000E-004
         DIIS_BUFFER_LENGTH 3
         EXTRAPOLATION_ORDER 3
         MAX_SCF 3
         STEP_SIZE  5.0000000000000000E-001
       &END OUTER_SCF
     &END SCF
     &LS_SCF
       LS_DIIS F
       INI_DIIS 2
       MAX_DIIS 4
       NMIXING 2
       EPS_DIIS  1.0000000000000001E-001
       MAX_SCF 500
       EPS_SCF  9.9999999999999995E-008
       MIXING_FRACTION  4.5000000000000001E-001
       EPS_FILTER  9.9999999999999995E-007
       EPS_LANCZOS  1.0000000000000000E-003
       MAX_ITER_LANCZOS 128
       MU -1.0000000000000001E-001
       FIXED_MU F
       EXTRAPOLATION_ORDER 4
       S_PRECONDITIONER ATOMIC
       S_SQRT_METHOD NEWTONSCHULZ
       S_SQRT_ORDER 3
       PURIFICATION_METHOD SIGN
       SIGN_METHOD NEWTONSCHULZ
       SUBMATRIX_SIGN_METHOD NEWTONSCHULZ
       SIGN_ORDER 2
       SIGN_SYMMETRIC F
       DYNAMIC_THRESHOLD F
       NON_MONOTONIC T
       MATRIX_CLUSTER_TYPE ATOMIC
       SINGLE_PRECISION_MATRICES F
       RESTART_WRITE F
       RESTART_READ F
       S_INVERSION SIGN_SQRT
       REPORT_ALL_SPARSITIES T
       PERFORM_MU_SCAN F
       CHECK_S_INV F
     &END LS_SCF
     &QS
       EPS_DEFAULT  1.0000000000000000E-010
       EPS_PGF_ORB  9.9999999999999998E-013
       EPS_PPL  1.0000000000000000E-002
       EPS_FILTER_MATRIX  0.0000000000000000E+000
       EPSFIT  1.0000000000000000E-004
       EPSISO  9.9999999999999998E-013
       EPSSVD  1.0000000000000000E-008
       EPSRHO0  9.9999999999999995E-007
       ALPHA0_HARD  0.0000000000000000E+000
       FORCE_PAW F
       MAX_RAD_LOCAL  2.5000000000000000E+001
       GAPW_1C_BASIS ORB
       MIN_PAIR_LIST_RADIUS  0.0000000000000000E+000
       LS_SCF F
       ALMO_SCF F
       TRANSPORT F
       KG_METHOD F
       REF_EMBED_SUBSYS F
       CLUSTER_EMBED_SUBSYS F
       HIGH_LEVEL_EMBED_SUBSYS F
       DFET_EMBEDDED F
       DMFET_EMBEDDED F
       STO_NG 6
       LMAXN1 -1
       LMAXN0 2
       LADDN0 99
       QUADRATURE GC_LOG
       PW_GRID NS-FULLSPACE
       PW_GRID_LAYOUT -1 -1
       PW_GRID_BLOCKED FREE
       EXTRAPOLATION ASPC
       EXTRAPOLATION_ORDER 3
       METHOD GPW
       CORE_PPL ANALYTIC
     &END QS
     &MGRID
       NGRIDS 3
       CUTOFF  4.0000000000000000E+002
       PROGRESSION_FACTOR  3.0000000000000000E+000
       COMMENSURATE F
       REALSPACE F
       REL_CUTOFF  5.0000000000000000E+001
       MULTIGRID_SET F
       SKIP_LOAD_BALANCE_DISTRIBUTED F
     &END MGRID
     &XC
       DENSITY_CUTOFF  1.0000000000000000E-010
       GRADIENT_CUTOFF  1.0000000000000000E-010
       DENSITY_SMOOTH_CUTOFF_RANGE  0.0000000000000000E+000
       TAU_CUTOFF  1.0000000000000000E-010
       FUNCTIONAL_ROUTINE DEFAULT
       2ND_DERIV_ANALYTICAL T
       3RD_DERIV_ANALYTICAL T
       STEP_SIZE  1.0000000000000000E-003
       NSTEPS 3
       &XC_FUNCTIONAL NO_SHORTCUT
         &PADE T
         &END PADE
       &END XC_FUNCTIONAL
     &END XC
   &END DFT
   &SUBSYS
     SEED 12345
     &CELL
       A  1.2000000000000000E+001  0.0000000000000000E+000  0.0000000000000000E+000
       B  0.0000000000000000E+000  1.2000000000000000E+001  0.0000000000000000E+000
       C  0.0000000000000000E+000  0.0000000000000000E+000  1.2000000000000000E+001
       ALPHA_BETA_GAMMA  9.0000000000000000E+001  9.0000000000000000E+001  9.0000000000000000E+001
       CELL_FILE_FORMAT CP2K
       PERIODIC XYZ
       MULTIPLE_UNIT_CELL 1 1 1
       SYMMETRY NONE
     &END CELL
     &COORD
 B 4.534859120000000132e+00 5.529755190000000376e+00 4.423223799999999706e+00
 H 7.744458810000000248e+00 6.964885370000000187e+00 8.690419889999999370e+00
 H 7.025495669999999748e+00 6.328029950000000348e+00 7.481785010000000291e+00
 H 8.308597419999999900e+00 7.271037589999999717e+00 7.194059179999999998e+00
 H 4.926355789999999679e+00 5.814865379999999639e+00 3.309580110000000630e+00
 H 3.691402580000000100e+00 4.728962410000000283e+00 4.755454320000000124e+00
 H 5.004701729999999849e+00 5.931267820000000413e+00 5.497636660000000397e+00
 N 7.976740829999999782e+00 6.505209950000000241e+00 7.806834470000000081e+00
       UNIT "angstrom"
       SCALED F
     &END COORD
     &KIND "B"
       BASIS_SET "SZV-MOLOPT-SR-GTH"
       AUX_BASIS_SET ""
       RI_AUX_BASIS_SET ""
       LRI_BASIS_SET ""
       AUX_FIT_BASIS_SET ""
       CORE_CORRECTION  0.0000000000000000E+000
       MAGNETIZATION  0.0000000000000000E+000
       ELEMENT "B"
       POTENTIAL_FILE_NAME "-"
       POTENTIAL_TYPE ""
       POTENTIAL "GTH-PADE"
       KG_POTENTIAL_FILE_NAME "-"
       KG_POTENTIAL "NONE"
       COVALENT_RADIUS  0.0000000000000000E+000
       VDW_RADIUS  0.0000000000000000E+000
       MAX_RAD_LOCAL  2.4566439727513359E+001
       LEBEDEV_GRID 50
       RADIAL_GRID 50
       MM_RADIUS  0.0000000000000000E+000
       DFTB3_PARAM  0.0000000000000000E+000
       LMAX_DFTB -1
       MAO -1
       SE_P_ORBITALS_ON_H F
       GPW_TYPE F
       GHOST F
       FLOATING_BASIS_CENTER F
       NO_OPTIMIZE F
       PAO_BASIS_SIZE 0
     &END KIND
     &KIND "N"
       BASIS_SET "SZV-MOLOPT-SR-GTH"
       AUX_BASIS_SET ""
       RI_AUX_BASIS_SET ""
       LRI_BASIS_SET ""
       AUX_FIT_BASIS_SET ""
       CORE_CORRECTION  0.0000000000000000E+000
       MAGNETIZATION  0.0000000000000000E+000
       ELEMENT "N"
       POTENTIAL_FILE_NAME "-"
       POTENTIAL_TYPE ""
       POTENTIAL "GTH-PADE"
       KG_POTENTIAL_FILE_NAME "-"
       KG_POTENTIAL "NONE"
       COVALENT_RADIUS  0.0000000000000000E+000
       VDW_RADIUS  0.0000000000000000E+000
       MAX_RAD_LOCAL  2.4566439727513359E+001
       LEBEDEV_GRID 50
       RADIAL_GRID 50
       MM_RADIUS  0.0000000000000000E+000
       DFTB3_PARAM  0.0000000000000000E+000
       LMAX_DFTB -1
       MAO -1
       SE_P_ORBITALS_ON_H F
       GPW_TYPE F
       GHOST F
       FLOATING_BASIS_CENTER F
       NO_OPTIMIZE F
       PAO_BASIS_SIZE 0
     &END KIND
     &KIND "H"
       BASIS_SET "SZV-MOLOPT-SR-GTH"
       AUX_BASIS_SET ""
       RI_AUX_BASIS_SET ""
       LRI_BASIS_SET ""
       AUX_FIT_BASIS_SET ""
       CORE_CORRECTION  0.0000000000000000E+000
       MAGNETIZATION  0.0000000000000000E+000
       ELEMENT "H"
       POTENTIAL_FILE_NAME "-"
       POTENTIAL_TYPE ""
       POTENTIAL "GTH-PADE"
       KG_POTENTIAL_FILE_NAME "-"
       KG_POTENTIAL "NONE"
       COVALENT_RADIUS  0.0000000000000000E+000
       VDW_RADIUS  0.0000000000000000E+000
       MAX_RAD_LOCAL  2.4566439727513359E+001
       LEBEDEV_GRID 50
       RADIAL_GRID 50
       MM_RADIUS  0.0000000000000000E+000
       DFTB3_PARAM  0.0000000000000000E+000
       LMAX_DFTB -1
       MAO -1
       SE_P_ORBITALS_ON_H F
       GPW_TYPE F
       GHOST F
       FLOATING_BASIS_CENTER F
       NO_OPTIMIZE F
       PAO_BASIS_SIZE 0
     &END KIND
   &END SUBSYS
   &PRINT
     &STRESS_TENSOR ON
       ADD_LAST NO
       COMMON_ITERATION_LEVELS 0
       FILENAME __STD_OUT__
       LOG_PRINT_KEY F
       COMPONENTS F
     &END STRESS_TENSOR
   &END PRINT
 &END FORCE_EVAL

 GLOBAL| Force Environment number                                              1
 GLOBAL| Basis set file name                                        BASIS_MOLOPT
 GLOBAL| Potential file name                                      GTH_POTENTIALS
 GLOBAL| MM Potential file name                                     MM_POTENTIAL
 GLOBAL| Coordinate file name                                      __STD_INPUT__
 GLOBAL| Method name                                                        CP2K
 GLOBAL| Project name                                                   cp2k/job
 GLOBAL| Run type                                                   ENERGY_FORCE
 GLOBAL| FFT library                                                       FFTW3
 GLOBAL| Diagonalization library                                            ELPA
 GLOBAL| DGEMM library                                                      BLAS
 GLOBAL| Minimum number of eigenvectors for ELPA usage                        16
 GLOBAL| Orthonormality check for eigenvectors                          DISABLED
 GLOBAL| Matrix multiplication library                                     COSMA
 GLOBAL| All-to-all communication in single precision                          F
 GLOBAL| FFTs using library dependent lengths                                  F
 GLOBAL| Grid backend                                                       AUTO
 GLOBAL| Global print level                                                  LOW
 GLOBAL| MPI I/O enabled                                                       T
 GLOBAL| Total number of message passing processes                             2
 GLOBAL| Number of threads for this process                                    1
 GLOBAL| This output is from process                                           0
 GLOBAL| Stack size for threads created by OpenMP (OMP_STACKSIZE)        default
 GLOBAL| CPU model name                                 Intel(R) Xeon(R) w3-2435
 GLOBAL| CPUID                                                              1003
 GLOBAL| Compiled for CPUID                                                    0

 *** HINT in environment.F:904 :: The compiler target flags (generic) used ***
 *** to build this binary cannot exploit all extensions of this CPU model  ***
 *** (x86_avx512). Consider compiler target flags as part of FCFLAGS and   ***
 *** CFLAGS (ARCH file).                                                   ***


 MEMORY| system memory details [Kb]
 MEMORY|                        rank 0           min           max       average
 MEMORY| MemTotal             65065512      65065512      65065512      65065512
 MEMORY| MemFree              11605728      11605728      11605728      11605728
 MEMORY| Buffers                 10160         10160         10160         10160
 MEMORY| Cached               29398372      29398372      29398372      29398372
 MEMORY| Slab                  6963804       6963804       6963804       6963804
 MEMORY| SReclaimable          5420672       5420672       5420672       5420672
 MEMORY| MemLikelyFree        46434932      46434932      46434932      46434932


 GENERATE|  Preliminary Number of Bonds generated:                             0
 GENERATE|  Achieved consistency in connectivity generation.

 *******************************************************************************
 *******************************************************************************
 **                                                                           **
 **     #####                         ##              ##                      **
 **    ##   ##            ##          ##              ##                      **
 **   ##     ##                       ##            ######                    **
 **   ##     ##  ##   ##  ##   #####  ##  ##   ####   ##    #####    #####    **
 **   ##     ##  ##   ##  ##  ##      ## ##   ##      ##   ##   ##  ##   ##   **
 **   ##  ## ##  ##   ##  ##  ##      ####     ###    ##   ######   ######    **
 **    ##  ###   ##   ##  ##  ##      ## ##      ##   ##   ##       ##        **
 **     #######   #####   ##   #####  ##  ##  ####    ##    #####   ##        **
 **           ##                                                    ##        **
 **                                                                           **
 **                                                ... make the atoms dance   **
 **                                                                           **
 **            Copyright (C) by CP2K developers group (2000-2023)             **
 **                      J. Chem. Phys. 152, 194103 (2020)                    **
 **                                                                           **
 *******************************************************************************


 TOTAL NUMBERS AND MAXIMUM NUMBERS

  Total number of            - Atomic kinds:                                   3
                             - Atoms:                                          8
                             - Shell sets:                                     8
                             - Shells:                                        10
                             - Primitive Cartesian functions:                 39
                             - Cartesian basis functions:                     14
                             - Spherical basis functions:                     14

  Maximum angular momentum of- Orbital basis functions:                        1
                             - Local part of the GTH pseudopotential:          2
                             - Non-local part of the GTH pseudopotential:      0


 SCF PARAMETERS         Density guess:                                   RESTART
                        --------------------------------------------------------
                        max_scf:                                             500
                        max_scf_history:                                       0
                        max_diis:                                              4
                        --------------------------------------------------------
                        eps_scf:                                        1.00E-04
                        eps_scf_history:                                0.00E+00
                        eps_diis:                                       1.00E-01
                        eps_eigval:                                     1.00E-05
                        --------------------------------------------------------
                        level_shift [a.u.]:                             0.000000
                        --------------------------------------------------------
                        Outer loop SCF in use 
                        No variables optimised in outer loop
                        eps_scf                                         1.00E-04
                        max_scf                                                3
                        No outer loop optimization
                        step_size                                       5.00E-01

 Number of electrons:                                                         14
 Number of occupied orbitals:                                                  7
 Number of molecular orbitals:                                                 7

 Number of orbital functions:                                                 14
 Number of independent orbital functions:                                     14

 Extrapolation method: initial_guess

 *** WARNING in qs_initial_guess.F:305 :: User requested to restart the   ***
 *** wavefunction from the file named: cp2k/job-RESTART.wfn. This file    ***
 *** does not exist. Please check the existence of the file or change     ***
 *** properly the value of the keyword WFN_RESTART_FILE_NAME. Calculation ***
 *** continues using ATOMIC GUESS.                                        ***



 SCF WAVEFUNCTION OPTIMIZATION

  ----------------------------------- OT ---------------------------------------
  Minimizer      : CG                  : conjugate gradient
  Preconditioner : FULL_ALL            : diagonalization, state selective
  Precond_solver : DEFAULT
  Line search    : 2PNT                : 2 energies, one gradient
  stepsize       :    0.15000000                  energy_gap     :    0.08000000
  eps_taylor     :   0.10000E-15                  max_taylor     :             4
  ----------------------------------- OT ---------------------------------------

  Step     Update method      Time    Convergence         Total energy    Change
  ------------------------------------------------------------------------------
     1 OT CG       0.15E+00    0.3     0.56394536       -14.9371718222 -1.49E+01
     2 OT LS       0.69E-01    0.3                      -14.5481364478
     3 OT CG       0.69E-01    0.5     0.28549321       -15.8136096619 -8.76E-01
     4 OT LS       0.55E-01    0.3                      -15.8999194439
     5 OT CG       0.55E-01    0.5     0.26798427       -15.9057589171 -9.21E-02
     6 OT LS       0.44E-01    0.3                      -16.0489545595
     7 OT CG       0.44E-01    0.5     0.07733918       -16.0628731111 -1.57E-01
     8 OT LS       0.68E-01    0.3                      -16.0797929753
     9 OT CG       0.68E-01    0.5     0.03641294       -16.0822146896 -1.93E-02
    10 OT LS       0.86E-01    0.3                      -16.0875571037
    11 OT CG       0.86E-01    0.5     0.02511327       -16.0878084239 -5.59E-03
    12 OT LS       0.66E-01    0.3                      -16.0896422363
    13 OT CG       0.66E-01    0.5     0.01260844       -16.0898404541 -2.03E-03
    14 OT LS       0.75E-01    0.3                      -16.0904151911
    15 OT CG       0.75E-01    0.5     0.00756004       -16.0904237986 -5.83E-04
    16 OT LS       0.78E-01    0.3                      -16.0906416387
    17 OT CG       0.78E-01    0.5     0.00440253       -16.0906419579 -2.18E-04
    18 OT LS       0.90E-01    0.3                      -16.0907259646
    19 OT CG       0.90E-01    0.6     0.00315597       -16.0907275680 -8.56E-05
    20 OT LS       0.11E+00    0.3                      -16.0907799406
    21 OT CG       0.11E+00    0.5     0.00313605       -16.0907818660 -5.43E-05
    22 OT LS       0.80E-01    0.3                      -16.0908143066
    23 OT CG       0.80E-01    0.5     0.00204591       -16.0908202794 -3.84E-05
    24 OT LS       0.14E+00    0.3                      -16.0908438309
    25 OT CG       0.14E+00    0.5     0.00159920       -16.0908495381 -2.93E-05
    26 OT LS       0.83E-01    0.3                      -16.0908545802
    27 OT CG       0.83E-01    0.5     0.00134343       -16.0908599574 -1.04E-05
    28 OT LS       0.72E-01    0.3                      -16.0908662151
    29 OT CG       0.72E-01    0.5     0.00057113       -16.0908663530 -6.40E-06
    30 OT LS       0.96E-01    0.3                      -16.0908677932
    31 OT CG       0.96E-01    0.5     0.00034951       -16.0908678861 -1.53E-06
    32 OT LS       0.68E-01    0.3                      -16.0908682210
    33 OT CG       0.68E-01    0.5     0.00023881       -16.0908682913 -4.05E-07
    34 OT LS       0.79E-01    0.3                      -16.0908685070
    35 OT CG       0.79E-01    0.6     0.00012154       -16.0908685113 -2.20E-07
    36 OT LS       0.80E-01    0.3                      -16.0908685694
    37 OT CG       0.80E-01    0.5     0.00006384       -16.0908685694 -5.81E-08

  *** SCF run converged in    37 steps ***


  Electronic density on regular grids:        -13.9999999998        0.0000000002
  Core density on regular grids:               13.9999999987       -0.0000000013
  Total charge density on r-space grids:       -0.0000000011
  Total charge density g-space grids:          -0.0000000011

  Overlap energy of the core charge distribution:               0.00000578712469
  Self energy of the core charge distribution:                -38.70122451907286
  Core Hamiltonian energy:                                     12.58409686932126
  Hartree energy:                                              15.63022835119510
  Exchange-correlation energy:                                 -5.60397505795875

  Total energy:                                               -16.09086856939057

  outer SCF iter =    1 RMS gradient =   0.64E-04 energy =        -16.0908685694
  outer SCF loop converged in   1 iterations or   37 steps


 ENERGY| Total FORCE_EVAL ( QS ) energy [a.u.]:              -16.090868583289208

 STRESS| Analytical stress tensor [GPa]
 STRESS|                        x                   y                   z
 STRESS|      x        6.91037008028E-02   6.44390178650E-02   9.01338603220E-02
 STRESS|      y        6.44390178650E-02   2.05438832415E-02   1.00449743810E-01
 STRESS|      z        9.01338603220E-02   1.00449743810E-01  -1.06909313544E-01
 STRESS| 1/3 Trace                                            -5.75390983324E-03
 STRESS| Determinant                                           5.94838377981E-04

 STRESS| Eigenvectors and eigenvalues of the analytical stress tensor [GPa]
 STRESS|                        1                   2                   3
 STRESS| Eigenvalues  -1.73485001132E-01  -1.95110425723E-02   1.75734314204E-01
 STRESS|      x          -0.229311118340     -0.672372326830      0.703798170727
 STRESS|      y          -0.386355899935      0.726539539575      0.568215994160
 STRESS|      z           0.893389909049      0.141618330544      0.426378609762

 Number of electrons:                                                         14
 Number of occupied orbitals:                                                  7
 Number of molecular orbitals:                                                 7

 Number of orbital functions:                                                 14
 Number of independent orbital functions:                                     14

 Extrapolation method: ASPC


 SCF WAVEFUNCTION OPTIMIZATION

  ----------------------------------- OT ---------------------------------------
  Minimizer      : CG                  : conjugate gradient
  Preconditioner : FULL_ALL            : diagonalization, state selective
  Precond_solver : DEFAULT
  Line search    : 2PNT                : 2 energies, one gradient
  stepsize       :    0.15000000                  energy_gap     :    0.08000000
  eps_taylor     :   0.10000E-15                  max_taylor     :             4
  ----------------------------------- OT ---------------------------------------

  Step     Update method      Time    Convergence         Total energy    Change
  ------------------------------------------------------------------------------
     1 OT CG       0.15E+00    0.3     0.00003165       -16.0908685833 -1.61E+01

  *** SCF run converged in     1 steps ***


  Electronic density on regular grids:        -13.9999999998        0.0000000002
  Core density on regular grids:               13.9999999987       -0.0000000013
  Total charge density on r-space grids:       -0.0000000011
  Total charge density g-space grids:          -0.0000000011

  Overlap energy of the core charge distribution:               0.00000578712469
  Self energy of the core charge distribution:                -38.70122451907286
  Core Hamiltonian energy:                                     12.58410508865248
  Hartree energy:                                              15.63022072749532
  Exchange-correlation energy:                                 -5.60397566748880

  Total energy:                                               -16.09086858328916

  outer SCF iter =    1 RMS gradient =   0.32E-04 energy =        -16.0908685833
  outer SCF loop converged in   1 iterations or    1 steps


 ENERGY| Total FORCE_EVAL ( QS ) energy [a.u.]:              -16.090868593241016

 STRESS| Analytical stress tensor [GPa]
 STRESS|                        x                   y                   z
 STRESS|      x        6.90572801439E-02   6.44398983918E-02   9.01322658401E-02
 STRESS|      y        6.44398983918E-02   2.05627320345E-02   1.00458329207E-01
 STRESS|      z        9.01322658401E-02   1.00458329207E-01  -1.06893946883E-01
 STRESS| 1/3 Trace                                            -5.75797823482E-03
 STRESS| Determinant                                           5.95068407156E-04

 STRESS| Eigenvectors and eigenvalues of the analytical stress tensor [GPa]
 STRESS|                        1                   2                   3
 STRESS| Eigenvalues  -1.73477481608E-01  -1.95205667846E-02   1.75724113689E-01
 STRESS|      x          -0.229352015586     -0.672490034408      0.703672371611
 STRESS|      y          -0.386353377690      0.726450122315      0.568332022093
 STRESS|      z           0.893380501519      0.141518102770      0.426431596032

 Number of electrons:                                                         14
 Number of occupied orbitals:                                                  7
 Number of molecular orbitals:                                                 7

 Number of orbital functions:                                                 14
 Number of independent orbital functions:                                     14

 Extrapolation method: ASPC


 SCF WAVEFUNCTION OPTIMIZATION

  ----------------------------------- OT ---------------------------------------
  Minimizer      : CG                  : conjugate gradient
  Preconditioner : FULL_ALL            : diagonalization, state selective
  Precond_solver : DEFAULT
  Line search    : 2PNT                : 2 energies, one gradient
  stepsize       :    0.15000000                  energy_gap     :    0.08000000
  eps_taylor     :   0.10000E-15                  max_taylor     :             4
  ----------------------------------- OT ---------------------------------------

  Step     Update method      Time    Convergence         Total energy    Change
  ------------------------------------------------------------------------------
     1 OT CG       0.15E+00    0.3     0.00016036       -16.0914548111 -1.61E+01
     2 OT LS       0.14E+00    0.3                      -16.0914549844
     3 OT CG       0.14E+00    0.5     0.00003733       -16.0914549856 -1.75E-07

  *** SCF run converged in     3 steps ***


  Electronic density on regular grids:        -13.9999999998        0.0000000002
  Core density on regular grids:               13.9999999987       -0.0000000013
  Total charge density on r-space grids:       -0.0000000011
  Total charge density g-space grids:          -0.0000000011

  Overlap energy of the core charge distribution:               0.00000590936543
  Self energy of the core charge distribution:                -38.70122451907286
  Core Hamiltonian energy:                                     12.58198667278246
  Hartree energy:                                              15.63115840902619
  Exchange-correlation energy:                                 -5.60338145772936

  Total energy:                                               -16.09145498562814

  outer SCF iter =    1 RMS gradient =   0.37E-04 energy =        -16.0914549856
  outer SCF loop converged in   1 iterations or    3 steps


 ENERGY| Total FORCE_EVAL ( QS ) energy [a.u.]:              -16.091454998204860

 STRESS| Analytical stress tensor [GPa]
 STRESS|                        x                   y                   z
 STRESS|      x        6.21386074681E-02   6.35070189283E-02   8.86512812524E-02
 STRESS|      y        6.35070189283E-02   1.83756980192E-02   9.73255450091E-02
 STRESS|      z        8.86512812524E-02   9.73255450091E-02  -1.09347282360E-01
 STRESS| 1/3 Trace                                            -9.61099229073E-03
 STRESS| Determinant                                           6.79028719959E-04

 STRESS| Eigenvectors and eigenvalues of the analytical stress tensor [GPa]
 STRESS|                        1                   2                   3
 STRESS| Eigenvalues  -1.73544626686E-01  -2.32897144348E-02   1.68001364249E-01
 STRESS|      x          -0.235597242035     -0.674023028735      0.700133484615
 STRESS|      y          -0.376412253953      0.727468808977      0.573674948939
 STRESS|      z           0.895995398771      0.128382587217      0.425100172524

 Number of electrons:                                                         14
 Number of occupied orbitals:                                                  7
 Number of molecular orbitals:                                                 7

 Number of orbital functions:                                                 14
 Number of independent orbital functions:                                     14

 Extrapolation method: ASPC


 SCF WAVEFUNCTION OPTIMIZATION

  ----------------------------------- OT ---------------------------------------
  Minimizer      : CG                  : conjugate gradient
  Preconditioner : FULL_ALL            : diagonalization, state selective
  Precond_solver : DEFAULT
  Line search    : 2PNT                : 2 energies, one gradient
  stepsize       :    0.15000000                  energy_gap     :    0.08000000
  eps_taylor     :   0.10000E-15                  max_taylor     :             4
  ----------------------------------- OT ---------------------------------------

  Step     Update method      Time    Convergence         Total energy    Change
  ------------------------------------------------------------------------------
     1 OT CG       0.15E+00    0.3     0.00024742       -16.0914545878 -1.61E+01
     2 OT LS       0.13E+00    0.3                      -16.0914549706
     3 OT CG       0.13E+00    0.5     0.00004220       -16.0914549793 -3.91E-07

  *** SCF run converged in     3 steps ***


  Electronic density on regular grids:        -13.9999999998        0.0000000002
  Core density on regular grids:               13.9999999987       -0.0000000013
  Total charge density on r-space grids:       -0.0000000011
  Total charge density g-space grids:          -0.0000000011

  Overlap energy of the core charge distribution:               0.00000590936543
  Self energy of the core charge distribution:                -38.70122451907286
  Core Hamiltonian energy:                                     12.58220754337411
  Hartree energy:                                              15.63097385060728
  Exchange-correlation energy:                                 -5.60341776356248

  Total energy:                                               -16.09145497928852

  outer SCF iter =    1 RMS gradient =   0.42E-04 energy =        -16.0914549793
  outer SCF loop converged in   1 iterations or    3 steps


 ENERGY| Total FORCE_EVAL ( QS ) energy [a.u.]:              -16.091454994979980

 STRESS| Analytical stress tensor [GPa]
 STRESS|                        x                   y                   z
 STRESS|      x        6.20956199795E-02   6.34927691637E-02   8.86854213731E-02
 STRESS|      y        6.34927691637E-02   1.83330880940E-02   9.73511198875E-02
 STRESS|      z        8.86854213731E-02   9.73511198875E-02  -1.09435025580E-01
 STRESS| 1/3 Trace                                            -9.66877250204E-03
 STRESS| Determinant                                           6.80246327702E-04

 STRESS| Eigenvectors and eigenvalues of the analytical stress tensor [GPa]
 STRESS|                        1                   2                   3
 STRESS| Eigenvalues  -1.73657684596E-01  -2.33203959122E-02   1.67971763002E-01
 STRESS|      x          -0.235685894673     -0.673999720862      0.700126085308
 STRESS|      y          -0.376377284719      0.727503321061      0.573654126972
 STRESS|      z           0.895986773674      0.128309368801      0.425140455942

 Number of electrons:                                                         14
 Number of occupied orbitals:                                                  7
 Number of molecular orbitals:                                                 7

 Number of orbital functions:                                                 14
 Number of independent orbital functions:                                     14

 Extrapolation method: ASPC


 SCF WAVEFUNCTION OPTIMIZATION

  ----------------------------------- OT ---------------------------------------
  Minimizer      : CG                  : conjugate gradient
  Preconditioner : FULL_ALL            : diagonalization, state selective
  Precond_solver : DEFAULT
  Line search    : 2PNT                : 2 energies, one gradient
  stepsize       :    0.15000000                  energy_gap     :    0.08000000
  eps_taylor     :   0.10000E-15                  max_taylor     :             4
  ----------------------------------- OT ---------------------------------------

  Step     Update method      Time    Convergence         Total energy    Change
  ------------------------------------------------------------------------------
     1 OT CG       0.15E+00    0.3     0.00063910       -16.0930424313 -1.61E+01
     2 OT LS       0.13E+00    0.3                      -16.0930449676
     3 OT CG       0.13E+00    0.5     0.00011001       -16.0930450302 -2.60E-06
     4 OT LS       0.21E+00    0.3                      -16.0930451368
     5 OT CG       0.21E+00    0.5     0.00002286       -16.0930451553 -1.25E-07

  *** SCF run converged in     5 steps ***


  Electronic density on regular grids:        -13.9999999998        0.0000000002
  Core density on regular grids:               13.9999999987       -0.0000000013
  Total charge density on r-space grids:       -0.0000000011
  Total charge density g-space grids:          -0.0000000011

  Overlap energy of the core charge distribution:               0.00000629440712
  Self energy of the core charge distribution:                -38.70122451907286
  Core Hamiltonian energy:                                     12.57672640695565
  Hartree energy:                                              15.63327940242164
  Exchange-correlation energy:                                 -5.60183274004527

  Total energy:                                               -16.09304515533372

  outer SCF iter =    1 RMS gradient =   0.23E-04 energy =        -16.0930451553
  outer SCF loop converged in   1 iterations or    5 steps


 ENERGY| Total FORCE_EVAL ( QS ) energy [a.u.]:              -16.093045159090551

 STRESS| Analytical stress tensor [GPa]
 STRESS|                        x                   y                   z
 STRESS|      x        4.28912425761E-02   6.08234383475E-02   8.44404851709E-02
 STRESS|      y        6.08234383475E-02   1.21970870117E-02   8.85089317284E-02
 STRESS|      z        8.44404851709E-02   8.85089317284E-02  -1.15780486389E-01
 STRESS| 1/3 Trace                                            -2.02307189338E-02
 STRESS| Determinant                                           8.53944891096E-04

 STRESS| Eigenvectors and eigenvalues of the analytical stress tensor [GPa]
 STRESS|                        1                   2                   3
 STRESS| Eigenvalues  -1.73594900925E-01  -3.35816179346E-02   1.46484362058E-01
 STRESS|      x          -0.254715711842     -0.678216605550      0.689305550607
 STRESS|      y          -0.346667153323      0.729480948474      0.589643477553
 STRESS|      z           0.902741264676      0.088768134881      0.420925679048

 Number of electrons:                                                         14
 Number of occupied orbitals:                                                  7
 Number of molecular orbitals:                                                 7

 Number of orbital functions:                                                 14
 Number of independent orbital functions:                                     14

 Extrapolation method: ASPC


 SCF WAVEFUNCTION OPTIMIZATION

  ----------------------------------- OT ---------------------------------------
  Minimizer      : CG                  : conjugate gradient
  Preconditioner : FULL_ALL            : diagonalization, state selective
  Precond_solver : DEFAULT
  Line search    : 2PNT                : 2 energies, one gradient
  stepsize       :    0.15000000                  energy_gap     :    0.08000000
  eps_taylor     :   0.10000E-15                  max_taylor     :             4
  ----------------------------------- OT ---------------------------------------

  Step     Update method      Time    Convergence         Total energy    Change
  ------------------------------------------------------------------------------
     1 OT CG       0.15E+00    0.3     0.00102914       -16.0930379624 -1.61E+01
     2 OT LS       0.13E+00    0.3                      -16.0930447000
     3 OT CG       0.13E+00    0.5     0.00020305       -16.0930448241 -6.86E-06
     4 OT LS       0.21E+00    0.3                      -16.0930451925
     5 OT CG       0.21E+00    0.5     0.00003643       -16.0930452544 -4.30E-07

  *** SCF run converged in     5 steps ***


  Electronic density on regular grids:        -13.9999999998        0.0000000002
  Core density on regular grids:               13.9999999987       -0.0000000013
  Total charge density on r-space grids:       -0.0000000011
  Total charge density g-space grids:          -0.0000000011

  Overlap energy of the core charge distribution:               0.00000629440712
  Self energy of the core charge distribution:                -38.70122451907286
  Core Hamiltonian energy:                                     12.57665868361579
  Hartree energy:                                              15.63334592848419
  Exchange-correlation energy:                                 -5.60183164180524

  Total energy:                                               -16.09304525437100

  outer SCF iter =    1 RMS gradient =   0.36E-04 energy =        -16.0930452544
  outer SCF loop converged in   1 iterations or    5 steps


 ENERGY| Total FORCE_EVAL ( QS ) energy [a.u.]:              -16.093045263552412

 STRESS| Analytical stress tensor [GPa]
 STRESS|                        x                   y                   z
 STRESS|      x        4.28925020124E-02   6.08391912258E-02   8.44011742186E-02
 STRESS|      y        6.08391912258E-02   1.22200424772E-02   8.84729527897E-02
 STRESS|      z        8.44011742186E-02   8.84729527897E-02  -1.15711846137E-01
 STRESS| 1/3 Trace                                            -2.01997672157E-02
 STRESS| Determinant                                           8.53456216291E-04

 STRESS| Eigenvectors and eigenvalues of the analytical stress tensor [GPa]
 STRESS|                        1                   2                   3
 STRESS| Eigenvalues  -1.73492744079E-01  -3.35837961964E-02   1.46477238628E-01
 STRESS|      x          -0.254659704078     -0.678257999228      0.689285515300
 STRESS|      y          -0.346647897588      0.729442719501      0.589702089249
 STRESS|      z           0.902764459988      0.088766015174      0.420876376544

 Number of electrons:                                                         14
 Number of occupied orbitals:                                                  7
 Number of molecular orbitals:                                                 7

 Number of orbital functions:                                                 14
 Number of independent orbital functions:                                     14

 Extrapolation method: ASPC


 SCF WAVEFUNCTION OPTIMIZATION

  ----------------------------------- OT ---------------------------------------
  Minimizer      : CG                  : conjugate gradient
  Preconditioner : FULL_ALL            : diagonalization, state selective
  Precond_solver : DEFAULT
  Line search    : 2PNT                : 2 energies, one gradient
  stepsize       :    0.15000000                  energy_gap     :    0.08000000
  eps_taylor     :   0.10000E-15                  max_taylor     :             4
  ----------------------------------- OT ---------------------------------------

  Step     Update method      Time    Convergence         Total energy    Change
  ------------------------------------------------------------------------------
     1 OT CG       0.15E+00    0.3     0.00141019       -16.0951922907 -1.61E+01
     2 OT LS       0.14E+00    0.3                      -16.0952053196
     3 OT CG       0.14E+00    0.5     0.00032494       -16.0952054752 -1.32E-05
     4 OT LS       0.21E+00    0.3                      -16.0952064257
     5 OT CG       0.21E+00    0.5     0.00005102       -16.0952065653 -1.09E-06

  *** SCF run converged in     5 steps ***


  Electronic density on regular grids:        -13.9999999998        0.0000000002
  Core density on regular grids:               13.9999999987       -0.0000000013
  Total charge density on r-space grids:       -0.0000000011
  Total charge density g-space grids:          -0.0000000011

  Overlap energy of the core charge distribution:               0.00000699279149
  Self energy of the core charge distribution:                -38.70122451907286
  Core Hamiltonian energy:                                     12.56930067566523
  Hartree energy:                                              15.63635373955405
  Exchange-correlation energy:                                 -5.59964345419882

  Total energy:                                               -16.09520656526090

  outer SCF iter =    1 RMS gradient =   0.51E-04 energy =        -16.0952065653
  outer SCF loop converged in   1 iterations or    5 steps


 ENERGY| Total FORCE_EVAL ( QS ) energy [a.u.]:              -16.095206583329649

 STRESS| Analytical stress tensor [GPa]
 STRESS|                        x                   y                   z
 STRESS|      x        1.55605721855E-02   5.68542773213E-02   7.78758290057E-02
 STRESS|      y        5.68542773213E-02   3.40131452999E-03   7.54772405995E-02
 STRESS|      z        7.78758290057E-02   7.54772405995E-02  -1.22978966973E-01
 STRESS| 1/3 Trace                                            -3.46723600860E-02
 STRESS| Determinant                                           9.50098152701E-04

 STRESS| Eigenvectors and eigenvalues of the analytical stress tensor [GPa]
 STRESS|                        1                   2                   3
 STRESS| Eigenvalues  -1.72268824312E-01  -4.76040595631E-02   1.15855803617E-01
 STRESS|      x          -0.287161517885     -0.684269592486      0.670308427103
 STRESS|      y          -0.298172295442      0.728869917665      0.616313171492
 STRESS|      z           0.910292010773      0.022885976545      0.413333626991

 Number of electrons:                                                         14
 Number of occupied orbitals:                                                  7
 Number of molecular orbitals:                                                 7

 Number of orbital functions:                                                 14
 Number of independent orbital functions:                                     14

 Extrapolation method: ASPC


 SCF WAVEFUNCTION OPTIMIZATION

  ----------------------------------- OT ---------------------------------------
  Minimizer      : CG                  : conjugate gradient
  Preconditioner : FULL_ALL            : diagonalization, state selective
  Precond_solver : DEFAULT
  Line search    : 2PNT                : 2 energies, one gradient
  stepsize       :    0.15000000                  energy_gap     :    0.08000000
  eps_taylor     :   0.10000E-15                  max_taylor     :             4
  ----------------------------------- OT ---------------------------------------

  Step     Update method      Time    Convergence         Total energy    Change
  ------------------------------------------------------------------------------
     1 OT CG       0.15E+00    0.3     0.00167750       -16.0951863018 -1.61E+01
     2 OT LS       0.14E+00    0.3                      -16.0952051139
     3 OT CG       0.14E+00    0.5     0.00041396       -16.0952052690 -1.90E-05
     4 OT LS       0.21E+00    0.3                      -16.0952068194
     5 OT CG       0.21E+00    0.5     0.00005897       -16.0952070251 -1.76E-06

  *** SCF run converged in     5 steps ***


  Electronic density on regular grids:        -13.9999999998        0.0000000002
  Core density on regular grids:               13.9999999987       -0.0000000013
  Total charge density on r-space grids:       -0.0000000011
  Total charge density g-space grids:          -0.0000000011

  Overlap energy of the core charge distribution:               0.00000699279149
  Self energy of the core charge distribution:                -38.70122451907286
  Core Hamiltonian energy:                                     12.56918544945943
  Hartree energy:                                              15.63646848855118
  Exchange-correlation energy:                                 -5.59964343680898

  Total energy:                                               -16.09520702507974

  outer SCF iter =    1 RMS gradient =   0.59E-04 energy =        -16.0952070251
  outer SCF loop converged in   1 iterations or    5 steps


 ENERGY| Total FORCE_EVAL ( QS ) energy [a.u.]:              -16.095207049214171

 STRESS| Analytical stress tensor [GPa]
 STRESS|                        x                   y                   z
 STRESS|      x        1.55554867788E-02   5.68827509755E-02   7.77990112160E-02
 STRESS|      y        5.68827509755E-02   3.44987540181E-03   7.54003827749E-02
 STRESS|      z        7.77990112160E-02   7.54003827749E-02  -1.22855345319E-01
 STRESS| 1/3 Trace                                            -3.46166610461E-02
 STRESS| Determinant                                           9.48963254273E-04

 STRESS| Eigenvectors and eigenvalues of the analytical stress tensor [GPa]
 STRESS|                        1                   2                   3
 STRESS| Eigenvalues  -1.72075738482E-01  -4.76091405274E-02   1.15834895871E-01
 STRESS|      x          -0.287121888236     -0.684340167010      0.670253352929
 STRESS|      y          -0.298013219825      0.728808091045      0.616463208340
 STRESS|      z           0.910356601616      0.022744279398      0.413199171889

 Number of electrons:                                                         14
 Number of occupied orbitals:                                                  7
 Number of molecular orbitals:                                                 7

 Number of orbital functions:                                                 14
 Number of independent orbital functions:                                     14

 Extrapolation method: ASPC


 SCF WAVEFUNCTION OPTIMIZATION

  ----------------------------------- OT ---------------------------------------
  Minimizer      : CG                  : conjugate gradient
  Preconditioner : FULL_ALL            : diagonalization, state selective
  Precond_solver : DEFAULT
  Line search    : 2PNT                : 2 energies, one gradient
  stepsize       :    0.15000000                  energy_gap     :    0.08000000
  eps_taylor     :   0.10000E-15                  max_taylor     :             4
  ----------------------------------- OT ---------------------------------------

  Step     Update method      Time    Convergence         Total energy    Change
  ------------------------------------------------------------------------------
     1 OT CG       0.15E+00    0.3     0.00194492       -16.0973920879 -1.61E+01
     2 OT LS       0.14E+00    0.3                      -16.0974178129
     3 OT CG       0.14E+00    0.5     0.00051692       -16.0974179575 -2.59E-05
     4 OT LS       0.21E+00    0.3                      -16.0974203700
     5 OT CG       0.21E+00    0.5     0.00007209       -16.0974206457 -2.69E-06

  *** SCF run converged in     5 steps ***


  Electronic density on regular grids:        -13.9999999998        0.0000000002
  Core density on regular grids:               13.9999999987       -0.0000000013
  Total charge density on r-space grids:       -0.0000000011
  Total charge density g-space grids:          -0.0000000011

  Overlap energy of the core charge distribution:               0.00000807702030
  Self energy of the core charge distribution:                -38.70122451907286
  Core Hamiltonian energy:                                     12.56167426884143
  Hartree energy:                                              15.63947659522707
  Exchange-correlation energy:                                 -5.59735506770722

  Total energy:                                               -16.09742064569128

  outer SCF iter =    1 RMS gradient =   0.72E-04 energy =        -16.0974206457
  outer SCF loop converged in   1 iterations or    5 steps


 ENERGY| Total FORCE_EVAL ( QS ) energy [a.u.]:              -16.097420682424307

 STRESS| Analytical stress tensor [GPa]
 STRESS|                        x                   y                   z
 STRESS|      x       -1.44332379568E-02   5.22583116238E-02   6.95839453340E-02
 STRESS|      y        5.22583116238E-02  -6.27388929541E-03   6.02271732568E-02
 STRESS|      z        6.95839453340E-02   6.02271732568E-02  -1.27057763636E-01
 STRESS| 1/3 Trace                                            -4.92549636295E-02
 STRESS| Determinant                                           8.56225064962E-04

 STRESS| Eigenvectors and eigenvalues of the analytical stress tensor [GPa]
 STRESS|                        1                   2                   3
 STRESS| Eigenvalues  -1.67889325008E-01  -6.20570294366E-02   8.21814635556E-02
 STRESS|      x          -0.335090225232      0.689313605381      0.642309344779
 STRESS|      y          -0.231954684958     -0.721094794628      0.652854747464
 STRESS|      z           0.913187584826      0.069778582658      0.401521337319

 Number of electrons:                                                         14
 Number of occupied orbitals:                                                  7
 Number of molecular orbitals:                                                 7

 Number of orbital functions:                                                 14
 Number of independent orbital functions:                                     14

 Extrapolation method: ASPC


 SCF WAVEFUNCTION OPTIMIZATION

  ----------------------------------- OT ---------------------------------------
  Minimizer      : CG                  : conjugate gradient
  Preconditioner : FULL_ALL            : diagonalization, state selective
  Precond_solver : DEFAULT
  Line search    : 2PNT                : 2 energies, one gradient
  stepsize       :    0.15000000                  energy_gap     :    0.08000000
  eps_taylor     :   0.10000E-15                  max_taylor     :             4
  ----------------------------------- OT ---------------------------------------

  Step     Update method      Time    Convergence         Total energy    Change
  ------------------------------------------------------------------------------
     1 OT CG       0.15E+00    0.3     0.00212185       -16.0973867821 -1.61E+01
     2 OT LS       0.14E+00    0.3                      -16.0974180303
     3 OT CG       0.14E+00    0.5     0.00059063       -16.0974181275 -3.13E-05
     4 OT LS       0.20E+00    0.3                      -16.0974212794
     5 OT CG       0.20E+00    0.5     0.00008005       -16.0974215859 -3.46E-06

  *** SCF run converged in     5 steps ***


  Electronic density on regular grids:        -13.9999999998        0.0000000002
  Core density on regular grids:               13.9999999987       -0.0000000013
  Total charge density on r-space grids:       -0.0000000011
  Total charge density g-space grids:          -0.0000000011

  Overlap energy of the core charge distribution:               0.00000807702030
  Self energy of the core charge distribution:                -38.70122451907286
  Core Hamiltonian energy:                                     12.56149625062138
  Hartree energy:                                              15.63965115406117
  Exchange-correlation energy:                                 -5.59735254856988

  Total energy:                                               -16.09742158593988

  outer SCF iter =    1 RMS gradient =   0.80E-04 energy =        -16.0974215859
  outer SCF loop converged in   1 iterations or    5 steps


 ENERGY| Total FORCE_EVAL ( QS ) energy [a.u.]:              -16.097421631464648

 STRESS| Analytical stress tensor [GPa]
 STRESS|                        x                   y                   z
 STRESS|      x       -1.44304801494E-02   5.22966886995E-02   6.94781722495E-02
 STRESS|      y        5.22966886995E-02  -6.19777669978E-03   6.01242141774E-02
 STRESS|      z        6.94781722495E-02   6.01242141774E-02  -1.26874941829E-01
 STRESS| 1/3 Trace                                            -4.91677328927E-02
 STRESS| Determinant                                           8.54651633260E-04

 STRESS| Eigenvectors and eigenvalues of the analytical stress tensor [GPa]
 STRESS|                        1                   2                   3
 STRESS| Eigenvalues  -1.67618170571E-01  -6.20532181889E-02   8.21681900818E-02
 STRESS|      x          -0.335149465361      0.689384547173      0.642202290549
 STRESS|      y          -0.231580872374     -0.720989411653      0.653103795606
 STRESS|      z           0.913260716016      0.070165621237      0.401287490682

 Number of electrons:                                                         14
 Number of occupied orbitals:                                                  7
 Number of molecular orbitals:                                                 7

 Number of orbital functions:                                                 14
 Number of independent orbital functions:                                     14

 Extrapolation method: ASPC


 SCF WAVEFUNCTION OPTIMIZATION

  ----------------------------------- OT ---------------------------------------
  Minimizer      : CG                  : conjugate gradient
  Preconditioner : FULL_ALL            : diagonalization, state selective
  Precond_solver : DEFAULT
  Line search    : 2PNT                : 2 energies, one gradient
  stepsize       :    0.15000000                  energy_gap     :    0.08000000
  eps_taylor     :   0.10000E-15                  max_taylor     :             4
  ----------------------------------- OT ---------------------------------------

  Step     Update method      Time    Convergence         Total energy    Change
  ------------------------------------------------------------------------------
     1 OT CG       0.15E+00    0.3     0.00228591       -16.0992211910 -1.61E+01
     2 OT LS       0.15E+00    0.3                      -16.0992588549
     3 OT CG       0.15E+00    0.5     0.00069657       -16.0992588690 -3.77E-05
     4 OT LS       0.19E+00    0.3                      -16.0992632098
     5 OT CG       0.19E+00    0.5     0.00009383       -16.0992634771 -4.61E-06

  *** SCF run converged in     5 steps ***


  Electronic density on regular grids:        -13.9999999998        0.0000000002
  Core density on regular grids:               13.9999999987       -0.0000000013
  Total charge density on r-space grids:       -0.0000000011
  Total charge density g-space grids:          -0.0000000011

  Overlap energy of the core charge distribution:               0.00000962740553
  Self energy of the core charge distribution:                -38.70122451907286
  Core Hamiltonian energy:                                     12.55572210005498
  Hartree energy:                                              15.64173708027298
  Exchange-correlation energy:                                 -5.59550776578575

  Total energy:                                               -16.09926347712513

  outer SCF iter =    1 RMS gradient =   0.94E-04 energy =        -16.0992634771
  outer SCF loop converged in   1 iterations or    5 steps


 ENERGY| Total FORCE_EVAL ( QS ) energy [a.u.]:              -16.099263542740871

 STRESS| Analytical stress tensor [GPa]
 STRESS|                        x                   y                   z
 STRESS|      x       -4.18532342112E-02   4.77934989327E-02   6.02690247609E-02
 STRESS|      y        4.77934989327E-02  -1.50680918708E-02   4.47763799512E-02
 STRESS|      z        6.02690247609E-02   4.47763799512E-02  -1.24486128668E-01
 STRESS| 1/3 Trace                                            -6.04691515833E-02
 STRESS| Determinant                                           6.02445594947E-04

 STRESS| Eigenvectors and eigenvalues of the analytical stress tensor [GPa]
 STRESS|                        1                   2                   3
 STRESS| Eigenvalues  -1.58811218384E-01  -7.39169451379E-02   5.13207087722E-02
 STRESS|      x          -0.405209639583      0.684456141167      0.606073377412
 STRESS|      y          -0.146379980441     -0.702958583375      0.696004404717
 STRESS|      z           0.902428971895      0.193310684852      0.385036270768

 Number of electrons:                                                         14
 Number of occupied orbitals:                                                  7
 Number of molecular orbitals:                                                 7

 Number of orbital functions:                                                 14
 Number of independent orbital functions:                                     14

 Extrapolation method: ASPC


 SCF WAVEFUNCTION OPTIMIZATION

  ----------------------------------- OT ---------------------------------------
  Minimizer      : CG                  : conjugate gradient
  Preconditioner : FULL_ALL            : diagonalization, state selective
  Precond_solver : DEFAULT
  Line search    : 2PNT                : 2 energies, one gradient
  stepsize       :    0.15000000                  energy_gap     :    0.08000000
  eps_taylor     :   0.10000E-15                  max_taylor     :             4
  ----------------------------------- OT ---------------------------------------

  Step     Update method      Time    Convergence         Total energy    Change
  ------------------------------------------------------------------------------
     1 OT CG       0.15E+00    0.3     0.00240244       -16.0992158929 -1.61E+01
     2 OT LS       0.15E+00    0.3                      -16.0992591314
     3 OT CG       0.15E+00    0.5     0.00077307       -16.0992591475 -4.33E-05
     4 OT LS       0.19E+00    0.3                      -16.0992644394
     5 OT CG       0.19E+00    0.5     0.00010324       -16.0992646193 -5.47E-06
     6 OT LS       0.16E+00    0.3                      -16.0992647005
     7 OT CG       0.16E+00    0.5     0.00001125       -16.0992647028 -8.35E-08

  *** SCF run converged in     7 steps ***


  Electronic density on regular grids:        -13.9999999997        0.0000000003
  Core density on regular grids:               13.9999999987       -0.0000000013
  Total charge density on r-space grids:       -0.0000000011
  Total charge density g-space grids:          -0.0000000011

  Overlap energy of the core charge distribution:               0.00000962740553
  Self energy of the core charge distribution:                -38.70122451907286
  Core Hamiltonian energy:                                     12.55559739517560
  Hartree energy:                                              15.64185588400452
  Exchange-correlation energy:                                 -5.59550309035281

  Total energy:                                               -16.09926470284002

  outer SCF iter =    1 RMS gradient =   0.11E-04 energy =        -16.0992647028
  outer SCF loop converged in   1 iterations or    7 steps


 ENERGY| Total FORCE_EVAL ( QS ) energy [a.u.]:              -16.099264704021422

 STRESS| Analytical stress tensor [GPa]
 STRESS|                        x                   y                   z
 STRESS|      x       -4.18453298628E-02   4.78148315514E-02   6.02032916137E-02
 STRESS|      y        4.78148315514E-02  -1.50105698031E-02   4.47170477682E-02
 STRESS|      z        6.02032916137E-02   4.47170477682E-02  -1.24365944550E-01
 STRESS| 1/3 Trace                                            -6.04072814054E-02
 STRESS| Determinant                                           6.01740914652E-04

 STRESS| Eigenvectors and eigenvalues of the analytical stress tensor [GPa]
 STRESS|                        1                   2                   3
 STRESS| Eigenvalues  -1.58644550913E-01  -7.39021195519E-02   5.13248262486E-02
 STRESS|      x          -0.405375175776      0.684454657194      0.605964346401
 STRESS|      y          -0.145999208340     -0.702837849989      0.696206282496
 STRESS|      z           0.902416310817      0.193754429286      0.384842855076

 Number of electrons:                                                         14
 Number of occupied orbitals:                                                  7
 Number of molecular orbitals:                                                 7

 Number of orbital functions:                                                 14
 Number of independent orbital functions:                                     14

 Extrapolation method: ASPC


 SCF WAVEFUNCTION OPTIMIZATION

  ----------------------------------- OT ---------------------------------------
  Minimizer      : CG                  : conjugate gradient
  Preconditioner : FULL_ALL            : diagonalization, state selective
  Precond_solver : DEFAULT
  Line search    : 2PNT                : 2 energies, one gradient
  stepsize       :    0.15000000                  energy_gap     :    0.08000000
  eps_taylor     :   0.10000E-15                  max_taylor     :             4
  ----------------------------------- OT ---------------------------------------

  Step     Update method      Time    Convergence         Total energy    Change
  ------------------------------------------------------------------------------
     1 OT CG       0.15E+00    0.3     0.00252940       -16.1004578414 -1.61E+01
     2 OT LS       0.16E+00    0.3                      -16.1005090331
     3 OT CG       0.16E+00    0.5     0.00086902       -16.1005094371 -5.16E-05
     4 OT LS       0.17E+00    0.3                      -16.1005157983
     5 OT CG       0.17E+00    0.5     0.00012423       -16.1005158110 -6.37E-06
     6 OT LS       0.16E+00    0.3                      -16.1005159335
     7 OT CG       0.16E+00    0.5     0.00001496       -16.1005159340 -1.23E-07

  *** SCF run converged in     7 steps ***


  Electronic density on regular grids:        -13.9999999997        0.0000000003
  Core density on regular grids:               13.9999999987       -0.0000000013
  Total charge density on r-space grids:       -0.0000000011
  Total charge density g-space grids:          -0.0000000011

  Overlap energy of the core charge distribution:               0.00001170730000
  Self energy of the core charge distribution:                -38.70122451907286
  Core Hamiltonian energy:                                     12.55273138250779
  Hartree energy:                                              15.64250489900130
  Exchange-correlation energy:                                 -5.59453940370478

  Total energy:                                               -16.10051593396854

  outer SCF iter =    1 RMS gradient =   0.15E-04 energy =        -16.1005159340
  outer SCF loop converged in   1 iterations or    7 steps


 ENERGY| Total FORCE_EVAL ( QS ) energy [a.u.]:              -16.100515936087856

 STRESS| Analytical stress tensor [GPa]
 STRESS|                        x                   y                   z
 STRESS|      x       -6.26756146488E-02   4.41826387086E-02   5.05011494822E-02
 STRESS|      y        4.41826387086E-02  -2.15163399478E-02   3.07057508329E-02
 STRESS|      z        5.05011494822E-02   3.07057508329E-02  -1.12944172039E-01
 STRESS| 1/3 Trace                                            -6.57120422120E-02
 STRESS| Determinant                                           3.19161808909E-04

 STRESS| Eigenvectors and eigenvalues of the analytical stress tensor [GPa]
 STRESS|                        1                   2                   3
 STRESS| Eigenvalues  -1.44303071821E-01  -8.03570445046E-02   2.75239896898E-02
 STRESS|      x          -0.514417561231      0.643911085876      0.566350674214
 STRESS|      y          -0.029219681086     -0.673214668410      0.738869555791
 STRESS|      z           0.857041879335      0.363538888875      0.365128324486

 Number of electrons:                                                         14
 Number of occupied orbitals:                                                  7
 Number of molecular orbitals:                                                 7

 Number of orbital functions:                                                 14
 Number of independent orbital functions:                                     14

 Extrapolation method: ASPC


 SCF WAVEFUNCTION OPTIMIZATION

  ----------------------------------- OT ---------------------------------------
  Minimizer      : CG                  : conjugate gradient
  Preconditioner : FULL_ALL            : diagonalization, state selective
  Precond_solver : DEFAULT
  Line search    : 2PNT                : 2 energies, one gradient
  stepsize       :    0.15000000                  energy_gap     :    0.08000000
  eps_taylor     :   0.10000E-15                  max_taylor     :             4
  ----------------------------------- OT ---------------------------------------

  Step     Update method      Time    Convergence         Total energy    Change
  ------------------------------------------------------------------------------
     1 OT CG       0.15E+00    0.3     0.00265595       -16.1004494487 -1.61E+01
     2 OT LS       0.18E+00    0.3                      -16.1005087293
     3 OT CG       0.18E+00    0.5     0.00091535       -16.1005099773 -6.05E-05
     4 OT LS       0.16E+00    0.3                      -16.1005166414
     5 OT CG       0.16E+00    0.5     0.00013998       -16.1005166775 -6.70E-06
     6 OT LS       0.16E+00    0.3                      -16.1005168329
     7 OT CG       0.16E+00    0.5     0.00001786       -16.1005168329 -1.55E-07

  *** SCF run converged in     7 steps ***


  Electronic density on regular grids:        -13.9999999998        0.0000000002
  Core density on regular grids:               13.9999999987       -0.0000000013
  Total charge density on r-space grids:       -0.0000000011
  Total charge density g-space grids:          -0.0000000011

  Overlap energy of the core charge distribution:               0.00001170730000
  Self energy of the core charge distribution:                -38.70122451907286
  Core Hamiltonian energy:                                     12.55273805674661
  Hartree energy:                                              15.64249595770189
  Exchange-correlation energy:                                 -5.59453803554757

  Total energy:                                               -16.10051683287193

  outer SCF iter =    1 RMS gradient =   0.18E-04 energy =        -16.1005168329
  outer SCF loop converged in   1 iterations or    7 steps


 ENERGY| Total FORCE_EVAL ( QS ) energy [a.u.]:              -16.100516835887436

 STRESS| Analytical stress tensor [GPa]
 STRESS|                        x                   y                   z
 STRESS|      x       -6.26782780438E-02   4.41774916763E-02   5.04945633353E-02
 STRESS|      y        4.41774916763E-02  -2.15029083914E-02   3.07028941375E-02
 STRESS|      z        5.04945633353E-02   3.07028941375E-02  -1.12944850685E-01
 STRESS| 1/3 Trace                                            -6.57086790400E-02
 STRESS| Determinant                                           3.19095845332E-04

 STRESS| Eigenvectors and eigenvalues of the analytical stress tensor [GPa]
 STRESS|                        1                   2                   3
 STRESS| Eigenvalues  -1.44298467968E-01  -8.03493749884E-02   2.75218058362E-02
 STRESS|      x          -0.514398016195      0.643981743106      0.566288085237
 STRESS|      y          -0.029229089030     -0.673137286518      0.738939682148
 STRESS|      z           0.857053289644      0.363557021724      0.365083484515

 Number of electrons:                                                         14
 Number of occupied orbitals:                                                  7
 Number of molecular orbitals:                                                 7

 Number of orbital functions:                                                 14
 Number of independent orbital functions:                                     14

 Extrapolation method: ASPC


 SCF WAVEFUNCTION OPTIMIZATION

  ----------------------------------- OT ---------------------------------------
  Minimizer      : CG                  : conjugate gradient
  Preconditioner : FULL_ALL            : diagonalization, state selective
  Precond_solver : DEFAULT
  Line search    : 2PNT                : 2 energies, one gradient
  stepsize       :    0.15000000                  energy_gap     :    0.08000000
  eps_taylor     :   0.10000E-15                  max_taylor     :             4
  ----------------------------------- OT ---------------------------------------

  Step     Update method      Time    Convergence         Total energy    Change
  ------------------------------------------------------------------------------
     1 OT CG       0.15E+00    0.3     0.00284717       -16.1011034690 -1.61E+01
     2 OT LS       0.19E+00    0.3                      -16.1011764819
     3 OT CG       0.19E+00    0.5     0.00092079       -16.1011803741 -7.69E-05
     4 OT LS       0.15E+00    0.3                      -16.1011860552
     5 OT CG       0.15E+00    0.5     0.00015412       -16.1011865897 -6.22E-06
     6 OT LS       0.16E+00    0.3                      -16.1011867783
     7 OT CG       0.16E+00    0.5     0.00002232       -16.1011867796 -1.90E-07

  *** SCF run converged in     7 steps ***


  Electronic density on regular grids:        -13.9999999998        0.0000000002
  Core density on regular grids:               13.9999999987       -0.0000000013
  Total charge density on r-space grids:       -0.0000000011
  Total charge density g-space grids:          -0.0000000011

  Overlap energy of the core charge distribution:               0.00001431527820
  Self energy of the core charge distribution:                -38.70122451907286
  Core Hamiltonian energy:                                     12.55390845778357
  Hartree energy:                                              15.64087347810614
  Exchange-correlation energy:                                 -5.59475851166394

  Total energy:                                               -16.10118677956888

  outer SCF iter =    1 RMS gradient =   0.22E-04 energy =        -16.1011867796
  outer SCF loop converged in   1 iterations or    7 steps


 ENERGY| Total FORCE_EVAL ( QS ) energy [a.u.]:              -16.101186784262943

 STRESS| Analytical stress tensor [GPa]
 STRESS|                        x                   y                   z
 STRESS|      x       -7.46479747923E-02   4.18335144135E-02   4.08545412968E-02
 STRESS|      y        4.18335144135E-02  -2.49037921598E-02   1.91674765231E-02
 STRESS|      z        4.08545412968E-02   1.91674765231E-02  -9.23851420640E-02
 STRESS| 1/3 Trace                                            -6.39789696720E-02
 STRESS| Determinant                                           1.24442042235E-04

 STRESS| Eigenvectors and eigenvalues of the analytical stress tensor [GPa]
 STRESS|                        1                   2                   3
 STRESS| Eigenvalues  -1.26954616397E-01  -7.76119116797E-02   1.26296190608E-02
 STRESS|      x           0.677399516053      0.507328465331      0.532679757373
 STRESS|      y          -0.142123022704     -0.620224368909      0.771442012487
 STRESS|      z          -0.721755458634      0.598280503173      0.348036632347

 Number of electrons:                                                         14
 Number of occupied orbitals:                                                  7
 Number of molecular orbitals:                                                 7

 Number of orbital functions:                                                 14
 Number of independent orbital functions:                                     14

 Extrapolation method: ASPC


 SCF WAVEFUNCTION OPTIMIZATION

  ----------------------------------- OT ---------------------------------------
  Minimizer      : CG                  : conjugate gradient
  Preconditioner : FULL_ALL            : diagonalization, state selective
  Precond_solver : DEFAULT
  Line search    : 2PNT                : 2 energies, one gradient
  stepsize       :    0.15000000                  energy_gap     :    0.08000000
  eps_taylor     :   0.10000E-15                  max_taylor     :             4
  ----------------------------------- OT ---------------------------------------

  Step     Update method      Time    Convergence         Total energy    Change
  ------------------------------------------------------------------------------
     1 OT CG       0.15E+00    0.3     0.00305603       -16.1010874797 -1.61E+01
     2 OT LS       0.21E+00    0.3                      -16.1011746779
     3 OT CG       0.21E+00    0.5     0.00087106       -16.1011815847 -9.41E-05
     4 OT LS       0.15E+00    0.3                      -16.1011860780
     5 OT CG       0.15E+00    0.5     0.00016077       -16.1011870007 -5.42E-06
     6 OT LS       0.16E+00    0.3                      -16.1011872030
     7 OT CG       0.16E+00    0.5     0.00002576       -16.1011872050 -2.04E-07

  *** SCF run converged in     7 steps ***


  Electronic density on regular grids:        -13.9999999998        0.0000000002
  Core density on regular grids:               13.9999999987       -0.0000000013
  Total charge density on r-space grids:       -0.0000000011
  Total charge density g-space grids:          -0.0000000011

  Overlap energy of the core charge distribution:               0.00001431527820
  Self energy of the core charge distribution:                -38.70122451907286
  Core Hamiltonian energy:                                     12.55393389853402
  Hartree energy:                                              15.64084590863535
  Exchange-correlation energy:                                 -5.59475680832741

  Total energy:                                               -16.10118720495271

  outer SCF iter =    1 RMS gradient =   0.26E-04 energy =        -16.1011872050
  outer SCF loop converged in   1 iterations or    7 steps


 ENERGY| Total FORCE_EVAL ( QS ) energy [a.u.]:              -16.101187211097759

 STRESS| Analytical stress tensor [GPa]
 STRESS|                        x                   y                   z
 STRESS|      x       -7.46450740031E-02   4.18260197202E-02   4.08547786752E-02
 STRESS|      y        4.18260197202E-02  -2.48963870626E-02   1.91683161728E-02
 STRESS|      z        4.08547786752E-02   1.91683161728E-02  -9.24066694699E-02
 STRESS| 1/3 Trace                                            -6.39827101785E-02
 STRESS| Determinant                                           1.24420483159E-04

 STRESS| Eigenvectors and eigenvalues of the analytical stress tensor [GPa]
 STRESS|                        1                   2                   3
 STRESS| Eigenvalues  -1.26962971346E-01  -7.76117805848E-02   1.26266213955E-02
 STRESS|      x           0.677239132253      0.507577157202      0.532646775294
 STRESS|      y          -0.141944827909     -0.620204344084      0.771490918553
 STRESS|      z          -0.721941011146      0.598090295077      0.347978699578

 Number of electrons:                                                         14
 Number of occupied orbitals:                                                  7
 Number of molecular orbitals:                                                 7

 Number of orbital functions:                                                 14
 Number of independent orbital functions:                                     14

 Extrapolation method: ASPC


 SCF WAVEFUNCTION OPTIMIZATION

  ----------------------------------- OT ---------------------------------------
  Minimizer      : CG                  : conjugate gradient
  Preconditioner : FULL_ALL            : diagonalization, state selective
  Precond_solver : DEFAULT
  Line search    : 2PNT                : 2 energies, one gradient
  stepsize       :    0.15000000                  energy_gap     :    0.08000000
  eps_taylor     :   0.10000E-15                  max_taylor     :             4
  ----------------------------------- OT ---------------------------------------

  Step     Update method      Time    Convergence         Total energy    Change
  ------------------------------------------------------------------------------
     1 OT CG       0.15E+00    0.3     0.00339725       -16.1013436998 -1.61E+01
     2 OT LS       0.22E+00    0.3                      -16.1014556502
     3 OT CG       0.22E+00    0.5     0.00068467       -16.1014683261 -1.25E-04
     4 OT LS       0.15E+00    0.3                      -16.1014711079
     5 OT CG       0.15E+00    0.5     0.00015061       -16.1014718138 -3.49E-06
     6 OT LS       0.15E+00    0.3                      -16.1014719837
     7 OT CG       0.15E+00    0.5     0.00002910       -16.1014719837 -1.70E-07

  *** SCF run converged in     7 steps ***


  Electronic density on regular grids:        -13.9999999998        0.0000000002
  Core density on regular grids:               13.9999999987       -0.0000000013
  Total charge density on r-space grids:       -0.0000000011
  Total charge density g-space grids:          -0.0000000011

  Overlap energy of the core charge distribution:               0.00001731425773
  Self energy of the core charge distribution:                -38.70122451907286
  Core Hamiltonian energy:                                     12.55940812090363
  Hartree energy:                                              15.63660540821332
  Exchange-correlation energy:                                 -5.59627830800178

  Total energy:                                               -16.10147198369997

  outer SCF iter =    1 RMS gradient =   0.29E-04 energy =        -16.1014719837
  outer SCF loop converged in   1 iterations or    7 steps


 ENERGY| Total FORCE_EVAL ( QS ) energy [a.u.]:              -16.101471991161453

 STRESS| Analytical stress tensor [GPa]
 STRESS|                        x                   y                   z
 STRESS|      x       -7.70813899570E-02   4.08937900454E-02   3.14337266514E-02
 STRESS|      y        4.08937900454E-02  -2.50065749947E-02   1.04885051699E-02
 STRESS|      z        3.14337266514E-02   1.04885051699E-02  -6.41784406888E-02
 STRESS| 1/3 Trace                                            -5.54221352135E-02
 STRESS| Determinant                                           4.37720064373E-05

 STRESS| Eigenvectors and eigenvalues of the analytical stress tensor [GPa]
 STRESS|                        1                   2                   3
 STRESS| Eigenvalues  -1.11591585969E-01  -6.10951619840E-02   6.42034231217E-03
 STRESS|      x           0.818802579372      0.254764508382      0.514448618700
 STRESS|      y          -0.329797302630     -0.524749419453      0.784774990658
 STRESS|      z          -0.469889428687      0.812239553366      0.345645530502

 Number of electrons:                                                         14
 Number of occupied orbitals:                                                  7
 Number of molecular orbitals:                                                 7

 Number of orbital functions:                                                 14
 Number of independent orbital functions:                                     14

 Extrapolation method: ASPC


 SCF WAVEFUNCTION OPTIMIZATION

  ----------------------------------- OT ---------------------------------------
  Minimizer      : CG                  : conjugate gradient
  Preconditioner : FULL_ALL            : diagonalization, state selective
  Precond_solver : DEFAULT
  Line search    : 2PNT                : 2 energies, one gradient
  stepsize       :    0.15000000                  energy_gap     :    0.08000000
  eps_taylor     :   0.10000E-15                  max_taylor     :             4
  ----------------------------------- OT ---------------------------------------

  Step     Update method      Time    Convergence         Total energy    Change
  ------------------------------------------------------------------------------
     1 OT CG       0.15E+00    0.3     0.00373811       -16.1013152085 -1.61E+01
     2 OT LS       0.22E+00    0.3                      -16.1014519545
     3 OT CG       0.22E+00    0.5     0.00058924       -16.1014689275 -1.54E-04
     4 OT LS       0.17E+00    0.3                      -16.1014715757
     5 OT CG       0.17E+00    0.5     0.00011215       -16.1014718518 -2.92E-06
     6 OT LS       0.16E+00    0.3                      -16.1014719472
     7 OT CG       0.16E+00    0.5     0.00002965       -16.1014719481 -9.63E-08

  *** SCF run converged in     7 steps ***


  Electronic density on regular grids:        -13.9999999998        0.0000000002
  Core density on regular grids:               13.9999999987       -0.0000000013
  Total charge density on r-space grids:       -0.0000000011
  Total charge density g-space grids:          -0.0000000011

  Overlap energy of the core charge distribution:               0.00001731425773
  Self energy of the core charge distribution:                -38.70122451907286
  Core Hamiltonian energy:                                     12.55955048355978
  Hartree energy:                                              15.63648015850594
  Exchange-correlation energy:                                 -5.59629538534350

  Total energy:                                               -16.10147194809291

  outer SCF iter =    1 RMS gradient =   0.30E-04 energy =        -16.1014719481
  outer SCF loop converged in   1 iterations or    7 steps


 ENERGY| Total FORCE_EVAL ( QS ) energy [a.u.]:              -16.101471954919482

 STRESS| Analytical stress tensor [GPa]
 STRESS|                        x                   y                   z
 STRESS|      x       -7.70903568593E-02   4.08807744125E-02   3.14429694541E-02
 STRESS|      y        4.08807744125E-02  -2.50214167623E-02   1.04932930117E-02
 STRESS|      z        3.14429694541E-02   1.04932930117E-02  -6.42356783469E-02
 STRESS| 1/3 Trace                                            -5.54491506562E-02
 STRESS| Determinant                                           4.36507182207E-05

 STRESS| Eigenvectors and eigenvalues of the analytical stress tensor [GPa]
 STRESS|                        1                   2                   3
 STRESS| Eigenvalues  -1.11610465457E-01  -6.11343519768E-02   6.39736546489E-03
 STRESS|      x           0.818650349130      0.255260998558      0.514444776905
 STRESS|      y          -0.329503935906     -0.524899957276      0.784797547826
 STRESS|      z          -0.470360247143      0.811986365320      0.345600029574

 Number of electrons:                                                         14
 Number of occupied orbitals:                                                  7
 Number of molecular orbitals:                                                 7

 Number of orbital functions:                                                 14
 Number of independent orbital functions:                                     14

 Extrapolation method: ASPC


 SCF WAVEFUNCTION OPTIMIZATION

  ----------------------------------- OT ---------------------------------------
  Minimizer      : CG                  : conjugate gradient
  Preconditioner : FULL_ALL            : diagonalization, state selective
  Precond_solver : DEFAULT
  Line search    : 2PNT                : 2 energies, one gradient
  stepsize       :    0.15000000                  energy_gap     :    0.08000000
  eps_taylor     :   0.10000E-15                  max_taylor     :             4
  ----------------------------------- OT ---------------------------------------

  Step     Update method      Time    Convergence         Total energy    Change
  ------------------------------------------------------------------------------
     1 OT CG       0.15E+00    0.3     0.00425237       -16.1014695484 -1.61E+01
     2 OT LS       0.23E+00    0.3                      -16.1016470821
     3 OT CG       0.23E+00    0.5     0.00065430       -16.1016695337 -2.00E-04
     4 OT LS       0.16E+00    0.3                      -16.1016724069
     5 OT CG       0.16E+00    0.5     0.00015743       -16.1016729306 -3.40E-06
     6 OT LS       0.15E+00    0.3                      -16.1016731152
     7 OT CG       0.15E+00    0.5     0.00003327       -16.1016731159 -1.85E-07

  *** SCF run converged in     7 steps ***


  Electronic density on regular grids:        -13.9999999998        0.0000000002
  Core density on regular grids:               13.9999999987       -0.0000000013
  Total charge density on r-space grids:       -0.0000000011
  Total charge density g-space grids:          -0.0000000011

  Overlap energy of the core charge distribution:               0.00002036687736
  Self energy of the core charge distribution:                -38.70122451907286
  Core Hamiltonian energy:                                     12.56921889295063
  Hartree energy:                                              15.62940711823269
  Exchange-correlation energy:                                 -5.59909497492911

  Total energy:                                               -16.10167311594130

  outer SCF iter =    1 RMS gradient =   0.33E-04 energy =        -16.1016731159
  outer SCF loop converged in   1 iterations or    7 steps


 ENERGY| Total FORCE_EVAL ( QS ) energy [a.u.]:              -16.101673125180724

 STRESS| Analytical stress tensor [GPa]
 STRESS|                        x                   y                   z
 STRESS|      x       -7.06153532480E-02   4.11150358338E-02   2.21188241295E-02
 STRESS|      y        4.11150358338E-02  -2.22439842606E-02   4.47464401315E-03
 STRESS|      z        2.21188241295E-02   4.47464401315E-03  -3.11090598818E-02
 STRESS| 1/3 Trace                                            -4.13227991301E-02
 STRESS| Determinant                                           2.41583318982E-05

 STRESS| Eigenvectors and eigenvalues of the analytical stress tensor [GPa]
 STRESS|                        1                   2                   3
 STRESS| Eigenvalues  -9.85503218889E-02  -3.28747675219E-02   7.45669202044E-03
 STRESS|      x           0.858079381541      0.021737326408      0.513056784007
 STRESS|      y          -0.447584928970     -0.458107243138      0.767987945962
 STRESS|      z          -0.251729033553      0.888631105929      0.383363080175

 Number of electrons:                                                         14
 Number of occupied orbitals:                                                  7
 Number of molecular orbitals:                                                 7

 Number of orbital functions:                                                 14
 Number of independent orbital functions:                                     14

 Extrapolation method: ASPC


 SCF WAVEFUNCTION OPTIMIZATION

  ----------------------------------- OT ---------------------------------------
  Minimizer      : CG                  : conjugate gradient
  Preconditioner : FULL_ALL            : diagonalization, state selective
  Precond_solver : DEFAULT
  Line search    : 2PNT                : 2 energies, one gradient
  stepsize       :    0.15000000                  energy_gap     :    0.08000000
  eps_taylor     :   0.10000E-15                  max_taylor     :             4
  ----------------------------------- OT ---------------------------------------

  Step     Update method      Time    Convergence         Total energy    Change
  ------------------------------------------------------------------------------
     1 OT CG       0.15E+00    0.3     0.00471168       -16.1014250366 -1.61E+01
     2 OT LS       0.22E+00    0.3                      -16.1016413834
     3 OT CG       0.22E+00    0.5     0.00084205       -16.1016671970 -2.42E-04
     4 OT LS       0.15E+00    0.3                      -16.1016709467
     5 OT CG       0.15E+00    0.5     0.00020772       -16.1016723035 -5.11E-06
     6 OT LS       0.17E+00    0.3                      -16.1016726525
     7 OT CG       0.17E+00    0.5     0.00003564       -16.1016726580 -3.54E-07

  *** SCF run converged in     7 steps ***


  Electronic density on regular grids:        -13.9999999998        0.0000000002
  Core density on regular grids:               13.9999999987       -0.0000000013
  Total charge density on r-space grids:       -0.0000000011
  Total charge density g-space grids:          -0.0000000011

  Overlap energy of the core charge distribution:               0.00002036687736
  Self energy of the core charge distribution:                -38.70122451907286
  Core Hamiltonian energy:                                     12.56909505927212
  Hartree energy:                                              15.62949610876210
  Exchange-correlation energy:                                 -5.59905967379392

  Total energy:                                               -16.10167265795521

  outer SCF iter =    1 RMS gradient =   0.36E-04 energy =        -16.1016726580
  outer SCF loop converged in   1 iterations or    7 steps


 ENERGY| Total FORCE_EVAL ( QS ) energy [a.u.]:              -16.101672668892661

 STRESS| Analytical stress tensor [GPa]
 STRESS|                        x                   y                   z
 STRESS|      x       -7.05735861858E-02   4.11208813536E-02   2.21294086252E-02
 STRESS|      y        4.11208813536E-02  -2.22314217795E-02   4.48354342360E-03
 STRESS|      z        2.21294086252E-02   4.48354342360E-03  -3.11175076685E-02
 STRESS| 1/3 Trace                                            -4.13075052112E-02
 STRESS| Determinant                                           2.42611045545E-05

 STRESS| Eigenvectors and eigenvalues of the analytical stress tensor [GPa]
 STRESS|                        1                   2                   3
 STRESS| Eigenvalues  -9.85246482843E-02  -3.28857344925E-02   7.48786714309E-03
 STRESS|      x           0.857997886425      0.021830239389      0.513189114789
 STRESS|      y          -0.447644174270     -0.458189520127      0.767904327953
 STRESS|      z          -0.251901409546      0.888586407894      0.383353460365

 Number of electrons:                                                         14
 Number of occupied orbitals:                                                  7
 Number of molecular orbitals:                                                 7

 Number of orbital functions:                                                 14
 Number of independent orbital functions:                                     14

 Extrapolation method: ASPC


 SCF WAVEFUNCTION OPTIMIZATION

  ----------------------------------- OT ---------------------------------------
  Minimizer      : CG                  : conjugate gradient
  Preconditioner : FULL_ALL            : diagonalization, state selective
  Precond_solver : DEFAULT
  Line search    : 2PNT                : 2 energies, one gradient
  stepsize       :    0.15000000                  energy_gap     :    0.08000000
  eps_taylor     :   0.10000E-15                  max_taylor     :             4
  ----------------------------------- OT ---------------------------------------

  Step     Update method      Time    Convergence         Total energy    Change
  ------------------------------------------------------------------------------
     1 OT CG       0.15E+00    0.3     0.00535669       -16.1017766925 -1.61E+01
     2 OT LS       0.22E+00    0.3                      -16.1020526331
     3 OT CG       0.22E+00    0.5     0.00125485       -16.1020815785 -3.05E-04
     4 OT LS       0.14E+00    0.3                      -16.1020882275
     5 OT CG       0.14E+00    0.5     0.00023791       -16.1020920174 -1.04E-05
     6 OT LS       0.19E+00    0.3                      -16.1020924994
     7 OT CG       0.19E+00    0.5     0.00003523       -16.1020925418 -5.24E-07

  *** SCF run converged in     7 steps ***


  Electronic density on regular grids:        -13.9999999998        0.0000000002
  Core density on regular grids:               13.9999999987       -0.0000000013
  Total charge density on r-space grids:       -0.0000000011
  Total charge density g-space grids:          -0.0000000011

  Overlap energy of the core charge distribution:               0.00002294488214
  Self energy of the core charge distribution:                -38.70122451907286
  Core Hamiltonian energy:                                     12.58247295924325
  Hartree energy:                                              15.61962370314190
  Exchange-correlation energy:                                 -5.60298762996921

  Total energy:                                               -16.10209254177478

  outer SCF iter =    1 RMS gradient =   0.35E-04 energy =        -16.1020925418
  outer SCF loop converged in   1 iterations or    7 steps


 ENERGY| Total FORCE_EVAL ( QS ) energy [a.u.]:              -16.102092552501894

 STRESS| Analytical stress tensor [GPa]
 STRESS|                        x                   y                   z
 STRESS|      x       -5.66192685445E-02   4.20205922412E-02   1.26184523543E-02
 STRESS|      y        4.20205922412E-02  -1.73582753288E-02   5.47341516799E-04
 STRESS|      z        1.26184523543E-02   5.47341516799E-04   3.74636689963E-03
 STRESS| 1/3 Trace                                            -2.34103923245E-02
 STRESS| Determinant                                           4.28182994832E-07

 STRESS| Eigenvectors and eigenvalues of the analytical stress tensor [GPa]
 STRESS|                        1                   2                   3
 STRESS| Eigenvalues  -8.45891360072E-02  -3.44295145721E-04   1.47022541794E-02
 STRESS|      x           0.842584705402     -0.234823923928      0.484673848040
 STRESS|      y          -0.525678422308     -0.554272138187      0.645325184035
 STRESS|      z          -0.117103418151      0.798523713850      0.590463096117

 Number of electrons:                                                         14
 Number of occupied orbitals:                                                  7
 Number of molecular orbitals:                                                 7

 Number of orbital functions:                                                 14
 Number of independent orbital functions:                                     14

 Extrapolation method: ASPC


 SCF WAVEFUNCTION OPTIMIZATION

  ----------------------------------- OT ---------------------------------------
  Minimizer      : CG                  : conjugate gradient
  Preconditioner : FULL_ALL            : diagonalization, state selective
  Precond_solver : DEFAULT
  Line search    : 2PNT                : 2 energies, one gradient
  stepsize       :    0.15000000                  energy_gap     :    0.08000000
  eps_taylor     :   0.10000E-15                  max_taylor     :             4
  ----------------------------------- OT ---------------------------------------

  Step     Update method      Time    Convergence         Total energy    Change
  ------------------------------------------------------------------------------
     1 OT CG       0.15E+00    0.3     0.00588445       -16.1017156457 -1.61E+01
     2 OT LS       0.21E+00    0.3                      -16.1020453045
     3 OT CG       0.21E+00    0.5     0.00145657       -16.1020768286 -3.61E-04
     4 OT LS       0.14E+00    0.3                      -16.1020865074
     5 OT CG       0.14E+00    0.5     0.00026457       -16.1020909901 -1.42E-05
     6 OT LS       0.19E+00    0.3                      -16.1020915978
     7 OT CG       0.19E+00    0.5     0.00003504       -16.1020916584 -6.68E-07

  *** SCF run converged in     7 steps ***


  Electronic density on regular grids:        -13.9999999998        0.0000000002
  Core density on regular grids:               13.9999999987       -0.0000000013
  Total charge density on r-space grids:       -0.0000000011
  Total charge density g-space grids:          -0.0000000011

  Overlap energy of the core charge distribution:               0.00002294488214
  Self energy of the core charge distribution:                -38.70122451907286
  Core Hamiltonian energy:                                     12.58242985179390
  Hartree energy:                                              15.61964588785037
  Exchange-correlation energy:                                 -5.60296582383971

  Total energy:                                               -16.10209165838617

  outer SCF iter =    1 RMS gradient =   0.35E-04 energy =        -16.1020916584
  outer SCF loop converged in   1 iterations or    7 steps


 ENERGY| Total FORCE_EVAL ( QS ) energy [a.u.]:              -16.102091668750340

 STRESS| Analytical stress tensor [GPa]
 STRESS|                        x                   y                   z
 STRESS|      x       -5.65836530912E-02   4.20271555804E-02   1.26365391321E-02
 STRESS|      y        4.20271555804E-02  -1.73744559492E-02   5.66089653066E-04
 STRESS|      z        1.26365391321E-02   5.66089653066E-04   3.72642594686E-03
 STRESS| 1/3 Trace                                            -2.34105610312E-02
 STRESS| Determinant                                           4.75366889203E-07

 STRESS| Eigenvectors and eigenvalues of the analytical stress tensor [GPa]
 STRESS|                        1                   2                   3
 STRESS| Eigenvalues  -8.45756770799E-02  -3.81687590231E-04   1.47256815766E-02
 STRESS|      x           0.842450202714     -0.234807986521      0.484915317776
 STRESS|      y          -0.525875067876     -0.554130876207      0.645286281444
 STRESS|      z          -0.117188177450      0.798626434261      0.590307334840

 Number of electrons:                                                         14
 Number of occupied orbitals:                                                  7
 Number of molecular orbitals:                                                 7

 Number of orbital functions:                                                 14
 Number of independent orbital functions:                                     14

 Extrapolation method: ASPC


 SCF WAVEFUNCTION OPTIMIZATION

  ----------------------------------- OT ---------------------------------------
  Minimizer      : CG                  : conjugate gradient
  Preconditioner : FULL_ALL            : diagonalization, state selective
  Precond_solver : DEFAULT
  Line search    : 2PNT                : 2 energies, one gradient
  stepsize       :    0.15000000                  energy_gap     :    0.08000000
  eps_taylor     :   0.10000E-15                  max_taylor     :             4
  ----------------------------------- OT ---------------------------------------

  Step     Update method      Time    Convergence         Total energy    Change
  ------------------------------------------------------------------------------
     1 OT CG       0.15E+00    0.3     0.00658728       -16.1024575355 -1.61E+01
     2 OT LS       0.21E+00    0.3                      -16.1028641151
     3 OT CG       0.21E+00    0.5     0.00186314       -16.1028973708 -4.40E-04
     4 OT LS       0.14E+00    0.3                      -16.1029145855
     5 OT CG       0.14E+00    0.5     0.00028179       -16.1029206687 -2.33E-05
     6 OT LS       0.20E+00    0.3                      -16.1029213747
     7 OT CG       0.20E+00    0.5     0.00003371       -16.1029214584 -7.90E-07

  *** SCF run converged in     7 steps ***


  Electronic density on regular grids:        -13.9999999998        0.0000000002
  Core density on regular grids:               13.9999999987       -0.0000000013
  Total charge density on r-space grids:       -0.0000000011
  Total charge density g-space grids:          -0.0000000011

  Overlap energy of the core charge distribution:               0.00002447241439
  Self energy of the core charge distribution:                -38.70122451907286
  Core Hamiltonian energy:                                     12.59869437275595
  Hartree energy:                                              15.60733221881526
  Exchange-correlation energy:                                 -5.60774800330635

  Total energy:                                               -16.10292145839360

  outer SCF iter =    1 RMS gradient =   0.34E-04 energy =        -16.1029214584
  outer SCF loop converged in   1 iterations or    7 steps


 ENERGY| Total FORCE_EVAL ( QS ) energy [a.u.]:              -16.102921467979922

 STRESS| Analytical stress tensor [GPa]
 STRESS|                        x                   y                   z
 STRESS|      x       -3.69454916536E-02   4.30165077964E-02   2.70503413419E-03
 STRESS|      y        4.30165077964E-02  -1.13561962262E-02  -1.98806649546E-03
 STRESS|      z        2.70503413419E-03  -1.98806649546E-03   3.76645515403E-02
 STRESS| 1/3 Trace                                            -3.54571211320E-03
 STRESS| Determinant                                          -5.41262365007E-05

 STRESS| Eigenvectors and eigenvalues of the analytical stress tensor [GPa]
 STRESS|                        1                   2                   3
 STRESS| Eigenvalues  -6.91353407757E-02   2.07281044536E-02   3.77700999826E-02
 STRESS|      x           0.801198997117      0.597832339790      0.026012699198
 STRESS|      y          -0.597572729409      0.801619966695     -0.017670938367
 STRESS|      z          -0.031416557495     -0.001386541561      0.999505416402

 Number of electrons:                                                         14
 Number of occupied orbitals:                                                  7
 Number of molecular orbitals:                                                 7

 Number of orbital functions:                                                 14
 Number of independent orbital functions:                                     14

 Extrapolation method: ASPC


 SCF WAVEFUNCTION OPTIMIZATION

  ----------------------------------- OT ---------------------------------------
  Minimizer      : CG                  : conjugate gradient
  Preconditioner : FULL_ALL            : diagonalization, state selective
  Precond_solver : DEFAULT
  Line search    : 2PNT                : 2 energies, one gradient
  stepsize       :    0.15000000                  energy_gap     :    0.08000000
  eps_taylor     :   0.10000E-15                  max_taylor     :             4
  ----------------------------------- OT ---------------------------------------

  Step     Update method      Time    Convergence         Total energy    Change
  ------------------------------------------------------------------------------
     1 OT CG       0.15E+00    0.3     0.00713145       -16.1023830303 -1.61E+01
     2 OT LS       0.20E+00    0.3                      -16.1028559651
     3 OT CG       0.20E+00    0.5     0.00200597       -16.1028916738 -5.09E-04
     4 OT LS       0.14E+00    0.3                      -16.1029130955
     5 OT CG       0.14E+00    0.5     0.00031278       -16.1029190830 -2.74E-05
     6 OT LS       0.20E+00    0.3                      -16.1029199635
     7 OT CG       0.20E+00    0.5     0.00003220       -16.1029200643 -9.81E-07

  *** SCF run converged in     7 steps ***


  Electronic density on regular grids:        -13.9999999998        0.0000000002
  Core density on regular grids:               13.9999999987       -0.0000000013
  Total charge density on r-space grids:       -0.0000000011
  Total charge density g-space grids:          -0.0000000011

  Overlap energy of the core charge distribution:               0.00002447241439
  Self energy of the core charge distribution:                -38.70122451907286
  Core Hamiltonian energy:                                     12.59867028182860
  Hartree energy:                                              15.60734222018022
  Exchange-correlation energy:                                 -5.60773251968324

  Total energy:                                               -16.10292006433289

  outer SCF iter =    1 RMS gradient =   0.32E-04 energy =        -16.1029200643
  outer SCF loop converged in   1 iterations or    7 steps


 ENERGY| Total FORCE_EVAL ( QS ) energy [a.u.]:              -16.102920072994706

 STRESS| Analytical stress tensor [GPa]
 STRESS|                        x                   y                   z
 STRESS|      x       -3.69078223908E-02   4.30244760475E-02   2.72840329006E-03
 STRESS|      y        4.30244760475E-02  -1.13894673508E-02  -1.95904512779E-03
 STRESS|      z        2.72840329006E-03  -1.95904512779E-03   3.76540497984E-02
 STRESS| 1/3 Trace                                            -3.54774664772E-03
 STRESS| Determinant                                          -5.41068522698E-05

 STRESS| Eigenvectors and eigenvalues of the analytical stress tensor [GPa]
 STRESS|                        1                   2                   3
 STRESS| Eigenvalues  -6.91307818772E-02   2.07276490307E-02   3.77598929033E-02
 STRESS|      x           0.800965095226      0.598084913074      0.027374312478
 STRESS|      y          -0.597885306784      0.801424425901     -0.015876066956
 STRESS|      z          -0.031433678787     -0.003650523733      0.999499173344

 Number of electrons:                                                         14
 Number of occupied orbitals:                                                  7
 Number of molecular orbitals:                                                 7

 Number of orbital functions:                                                 14
 Number of independent orbital functions:                                     14

 Extrapolation method: ASPC


 SCF WAVEFUNCTION OPTIMIZATION

  ----------------------------------- OT ---------------------------------------
  Minimizer      : CG                  : conjugate gradient
  Preconditioner : FULL_ALL            : diagonalization, state selective
  Precond_solver : DEFAULT
  Line search    : 2PNT                : 2 energies, one gradient
  stepsize       :    0.15000000                  energy_gap     :    0.08000000
  eps_taylor     :   0.10000E-15                  max_taylor     :             4
  ----------------------------------- OT ---------------------------------------

  Step     Update method      Time    Convergence         Total energy    Change
  ------------------------------------------------------------------------------
     1 OT CG       0.15E+00    0.3     0.00782291       -16.1035133346 -1.61E+01
     2 OT LS       0.20E+00    0.3                      -16.1040746049
     3 OT CG       0.20E+00    0.5     0.00235705       -16.1041114701 -5.98E-04
     4 OT LS       0.14E+00    0.3                      -16.1041434953
     5 OT CG       0.14E+00    0.5     0.00032662       -16.1041499968 -3.85E-05
     6 OT LS       0.21E+00    0.3                      -16.1041509749
     7 OT CG       0.21E+00    0.5     0.00003141       -16.1041510892 -1.09E-06

  *** SCF run converged in     7 steps ***


  Electronic density on regular grids:        -13.9999999998        0.0000000002
  Core density on regular grids:               13.9999999987       -0.0000000013
  Total charge density on r-space grids:       -0.0000000011
  Total charge density g-space grids:          -0.0000000011

  Overlap energy of the core charge distribution:               0.00002456911979
  Self energy of the core charge distribution:                -38.70122451907286
  Core Hamiltonian energy:                                     12.61710402154050
  Hartree energy:                                              15.59301669939966
  Exchange-correlation energy:                                 -5.61307186016534

  Total energy:                                               -16.10415108917826

  outer SCF iter =    1 RMS gradient =   0.31E-04 energy =        -16.1041510892
  outer SCF loop converged in   1 iterations or    7 steps


 ENERGY| Total FORCE_EVAL ( QS ) energy [a.u.]:              -16.104151097537798

 STRESS| Analytical stress tensor [GPa]
 STRESS|                        x                   y                   z
 STRESS|      x       -1.34959592897E-02   4.36324130890E-02  -7.59393510554E-03
 STRESS|      y        4.36324130890E-02  -5.15600924802E-03  -3.70517435153E-03
 STRESS|      z       -7.59393510554E-03  -3.70517435153E-03   6.90499228262E-02
 STRESS| 1/3 Trace                                             1.67993180961E-02
 STRESS| Determinant                                          -1.23713548636E-04

 STRESS| Eigenvectors and eigenvalues of the analytical stress tensor [GPa]
 STRESS|                        1                   2                   3
 STRESS| Eigenvalues  -5.32376369530E-02   3.28102892724E-02   7.08253019690E-02
 STRESS|      x           0.741279326301      0.651777208587     -0.160285466481
 STRESS|      y          -0.670704031622      0.728451652954     -0.139693562037
 STRESS|      z           0.025711133081      0.211056058135      0.977135752063

 Number of electrons:                                                         14
 Number of occupied orbitals:                                                  7
 Number of molecular orbitals:                                                 7

 Number of orbital functions:                                                 14
 Number of independent orbital functions:                                     14

 Extrapolation method: ASPC


 SCF WAVEFUNCTION OPTIMIZATION

  ----------------------------------- OT ---------------------------------------
  Minimizer      : CG                  : conjugate gradient
  Preconditioner : FULL_ALL            : diagonalization, state selective
  Precond_solver : DEFAULT
  Line search    : 2PNT                : 2 energies, one gradient
  stepsize       :    0.15000000                  energy_gap     :    0.08000000
  eps_taylor     :   0.10000E-15                  max_taylor     :             4
  ----------------------------------- OT ---------------------------------------

  Step     Update method      Time    Convergence         Total energy    Change
  ------------------------------------------------------------------------------
     1 OT CG       0.15E+00    0.3     0.00833382       -16.1034331052 -1.61E+01
     2 OT LS       0.20E+00    0.3                      -16.1040672297
     3 OT CG       0.20E+00    0.5     0.00243316       -16.1041065821 -6.73E-04
     4 OT LS       0.14E+00    0.3                      -16.1041421180
     5 OT CG       0.14E+00    0.5     0.00036065       -16.1041481284 -4.15E-05
     6 OT LS       0.21E+00    0.3                      -16.1041493283
     7 OT CG       0.21E+00    0.5     0.00002961       -16.1041494587 -1.33E-06

  *** SCF run converged in     7 steps ***


  Electronic density on regular grids:        -13.9999999998        0.0000000002
  Core density on regular grids:               13.9999999987       -0.0000000013
  Total charge density on r-space grids:       -0.0000000011
  Total charge density g-space grids:          -0.0000000011

  Overlap energy of the core charge distribution:               0.00002456911979
  Self energy of the core charge distribution:                -38.70122451907286
  Core Hamiltonian energy:                                     12.61708408609288
  Hartree energy:                                              15.59302888746790
  Exchange-correlation energy:                                 -5.61306248229653

  Total energy:                                               -16.10414945868882

  outer SCF iter =    1 RMS gradient =   0.30E-04 energy =        -16.1041494587
  outer SCF loop converged in   1 iterations or    7 steps


 ENERGY| Total FORCE_EVAL ( QS ) energy [a.u.]:              -16.104149466126522

 STRESS| Analytical stress tensor [GPa]
 STRESS|                        x                   y                   z
 STRESS|      x       -1.34569090718E-02   4.36444112627E-02  -7.56773657833E-03
 STRESS|      y        4.36444112627E-02  -5.19337495840E-03  -3.66948354805E-03
 STRESS|      z       -7.56773657833E-03  -3.66948354805E-03   6.90552526581E-02
 STRESS| 1/3 Trace                                             1.68016562093E-02
 STRESS| Determinant                                          -1.23810178338E-04

 STRESS| Eigenvectors and eigenvalues of the analytical stress tensor [GPa]
 STRESS|                        1                   2                   3
 STRESS| Eigenvalues  -5.32451655882E-02   3.28368417214E-02   7.08132924947E-02
 STRESS|      x           0.740971096487      0.652271183611     -0.159700147781
 STRESS|      y          -0.671044348144      0.728292349443     -0.138887496081
 STRESS|      z           0.025716084376      0.210077501825      0.977346471949

 Number of electrons:                                                         14
 Number of occupied orbitals:                                                  7
 Number of molecular orbitals:                                                 7

 Number of orbital functions:                                                 14
 Number of independent orbital functions:                                     14

 Extrapolation method: ASPC


 SCF WAVEFUNCTION OPTIMIZATION

  ----------------------------------- OT ---------------------------------------
  Minimizer      : CG                  : conjugate gradient
  Preconditioner : FULL_ALL            : diagonalization, state selective
  Precond_solver : DEFAULT
  Line search    : 2PNT                : 2 energies, one gradient
  stepsize       :    0.15000000                  energy_gap     :    0.08000000
  eps_taylor     :   0.10000E-15                  max_taylor     :             4
  ----------------------------------- OT ---------------------------------------

  Step     Update method      Time    Convergence         Total energy    Change
  ------------------------------------------------------------------------------
     1 OT CG       0.15E+00    0.3     0.00894512       -16.1047324774 -1.61E+01
     2 OT LS       0.19E+00    0.3                      -16.1054555502
     3 OT CG       0.19E+00    0.5     0.00271527       -16.1054959663 -7.63E-04
     4 OT LS       0.15E+00    0.3                      -16.1055426139
     5 OT CG       0.15E+00    0.5     0.00036977       -16.1055486204 -5.27E-05
     6 OT LS       0.21E+00    0.3                      -16.1055498992
     7 OT CG       0.21E+00    0.5     0.00003071       -16.1055500365 -1.42E-06

  *** SCF run converged in     7 steps ***


  Electronic density on regular grids:        -13.9999999998        0.0000000002
  Core density on regular grids:               13.9999999987       -0.0000000013
  Total charge density on r-space grids:       -0.0000000011
  Total charge density g-space grids:          -0.0000000011

  Overlap energy of the core charge distribution:               0.00002323935993
  Self energy of the core charge distribution:                -38.70122451907286
  Core Hamiltonian energy:                                     12.63691497675089
  Hartree energy:                                              15.57735246535253
  Exchange-correlation energy:                                 -5.61861619892972

  Total energy:                                               -16.10555003653923

  outer SCF iter =    1 RMS gradient =   0.31E-04 energy =        -16.1055500365
  outer SCF loop converged in   1 iterations or    7 steps


 ENERGY| Total FORCE_EVAL ( QS ) energy [a.u.]:              -16.105550044554441

 STRESS| Analytical stress tensor [GPa]
 STRESS|                        x                   y                   z
 STRESS|      x        1.17983834046E-02   4.36225791272E-02  -1.79171608725E-02
 STRESS|      y        4.36225791272E-02   5.02934803330E-04  -4.95226810068E-03
 STRESS|      z       -1.79171608725E-02  -4.95226810068E-03   9.73692019693E-02
 STRESS| 1/3 Trace                                             3.65568400591E-02
 STRESS| Determinant                                          -1.77418442419E-04

 STRESS| Eigenvectors and eigenvalues of the analytical stress tensor [GPa]
 STRESS|                        1                   2                   3
 STRESS| Eigenvalues  -3.83320366300E-02   4.48855533642E-02   1.03117003443E-01
 STRESS|      x          -0.667548658263      0.696957681975     -0.261970949509
 STRESS|      y           0.742058391880      0.651613225416     -0.157319889093
 STRESS|      z          -0.061058430144      0.299416422394      0.952166831028

 Number of electrons:                                                         14
 Number of occupied orbitals:                                                  7
 Number of molecular orbitals:                                                 7

 Number of orbital functions:                                                 14
 Number of independent orbital functions:                                     14

 Extrapolation method: ASPC


 SCF WAVEFUNCTION OPTIMIZATION

  ----------------------------------- OT ---------------------------------------
  Minimizer      : CG                  : conjugate gradient
  Preconditioner : FULL_ALL            : diagonalization, state selective
  Precond_solver : DEFAULT
  Line search    : 2PNT                : 2 energies, one gradient
  stepsize       :    0.15000000                  energy_gap     :    0.08000000
  eps_taylor     :   0.10000E-15                  max_taylor     :             4
  ----------------------------------- OT ---------------------------------------

  Step     Update method      Time    Convergence         Total energy    Change
  ------------------------------------------------------------------------------
     1 OT CG       0.15E+00    0.3     0.00937645       -16.1046584676 -1.61E+01
     2 OT LS       0.19E+00    0.3                      -16.1054513321
     3 OT CG       0.19E+00    0.5     0.00272255       -16.1054941476 -8.36E-04
     4 OT LS       0.15E+00    0.3                      -16.1055422218
     5 OT CG       0.15E+00    0.5     0.00040384       -16.1055475844 -5.34E-05
     6 OT LS       0.21E+00    0.3                      -16.1055491124
     7 OT CG       0.21E+00    0.5     0.00002972       -16.1055492611 -1.68E-06

  *** SCF run converged in     7 steps ***


  Electronic density on regular grids:        -13.9999999998        0.0000000002
  Core density on regular grids:               13.9999999987       -0.0000000013
  Total charge density on r-space grids:       -0.0000000011
  Total charge density g-space grids:          -0.0000000011

  Overlap energy of the core charge distribution:               0.00002323935993
  Self energy of the core charge distribution:                -38.70122451907286
  Core Hamiltonian energy:                                     12.63689142940719
  Hartree energy:                                              15.57737381459131
  Exchange-correlation energy:                                 -5.61861322540038

  Total energy:                                               -16.10554926111480

  outer SCF iter =    1 RMS gradient =   0.30E-04 energy =        -16.1055492611
  outer SCF loop converged in   1 iterations or    7 steps


 ENERGY| Total FORCE_EVAL ( QS ) energy [a.u.]:              -16.105549268560541

 STRESS| Analytical stress tensor [GPa]
 STRESS|                        x                   y                   z
 STRESS|      x        1.18410534173E-02   4.36421251255E-02  -1.78906721287E-02
 STRESS|      y        4.36421251255E-02   4.81449102759E-04  -4.91543563274E-03
 STRESS|      z       -1.78906721287E-02  -4.91543563274E-03   9.73929720326E-02
 STRESS| 1/3 Trace                                             3.65718248509E-02
 STRESS| Determinant                                          -1.77707229538E-04

 STRESS| Eigenvectors and eigenvalues of the analytical stress tensor [GPa]
 STRESS|                        1                   2                   3
 STRESS| Eigenvalues  -3.83453193627E-02   4.49424616541E-02   1.03118332261E-01
 STRESS|      x          -0.667276664349      0.697333766049     -0.261662897528
 STRESS|      y           0.742302183414      0.651444052527     -0.156869738719
 STRESS|      z          -0.061068172681      0.298908456143      0.952325791487

 Number of electrons:                                                         14
 Number of occupied orbitals:                                                  7
 Number of molecular orbitals:                                                 7

 Number of orbital functions:                                                 14
 Number of independent orbital functions:                                     14

 Extrapolation method: ASPC


 SCF WAVEFUNCTION OPTIMIZATION

  ----------------------------------- OT ---------------------------------------
  Minimizer      : CG                  : conjugate gradient
  Preconditioner : FULL_ALL            : diagonalization, state selective
  Precond_solver : DEFAULT
  Line search    : 2PNT                : 2 energies, one gradient
  stepsize       :    0.15000000                  energy_gap     :    0.08000000
  eps_taylor     :   0.10000E-15                  max_taylor     :             4
  ----------------------------------- OT ---------------------------------------

  Step     Update method      Time    Convergence         Total energy    Change
  ------------------------------------------------------------------------------
     1 OT CG       0.15E+00    0.3     0.00984603       -16.1057605369 -1.61E+01
     2 OT LS       0.19E+00    0.3                      -16.1066290250
     3 OT CG       0.19E+00    0.5     0.00292782       -16.1066729742 -9.12E-04
     4 OT LS       0.15E+00    0.3                      -16.1067303773
     5 OT CG       0.15E+00    0.5     0.00040640       -16.1067356277 -6.27E-05
     6 OT LS       0.21E+00    0.3                      -16.1067371910
     7 OT CG       0.21E+00    0.5     0.00003261       -16.1067373422 -1.71E-06

  *** SCF run converged in     7 steps ***


  Electronic density on regular grids:        -13.9999999998        0.0000000002
  Core density on regular grids:               13.9999999987       -0.0000000013
  Total charge density on r-space grids:       -0.0000000011
  Total charge density g-space grids:          -0.0000000011

  Overlap energy of the core charge distribution:               0.00002086086740
  Self energy of the core charge distribution:                -38.70122451907286
  Core Hamiltonian energy:                                     12.65722334799226
  Hartree energy:                                              15.56123188911374
  Exchange-correlation energy:                                 -5.62398892109249

  Total energy:                                               -16.10673734219196

  outer SCF iter =    1 RMS gradient =   0.33E-04 energy =        -16.1067373422
  outer SCF loop converged in   1 iterations or    7 steps


 ENERGY| Total FORCE_EVAL ( QS ) energy [a.u.]:              -16.106737350924956

 STRESS| Analytical stress tensor [GPa]
 STRESS|                        x                   y                   z
 STRESS|      x        3.68162566465E-02   4.28952490844E-02  -2.77234510045E-02
 STRESS|      y        4.28952490844E-02   5.04269571027E-03  -5.96549399548E-03
 STRESS|      z       -2.77234510045E-02  -5.96549399548E-03   1.22501877910E-01
 STRESS| 1/3 Trace                                             5.47869434223E-02
 STRESS| Determinant                                          -1.93658451501E-04

 STRESS| Eigenvectors and eigenvalues of the analytical stress tensor [GPa]
 STRESS|                        1                   2                   3
 STRESS| Eigenvalues  -2.56636998727E-02   5.65242955022E-02   1.33500234638E-01
 STRESS|      x          -0.587430313192      0.736556012477     -0.335277299601
 STRESS|      y           0.805557129042      0.571854839095     -0.155112071914
 STRESS|      z          -0.077481217040      0.361202551884      0.929262814019

 Number of electrons:                                                         14
 Number of occupied orbitals:                                                  7
 Number of molecular orbitals:                                                 7

 Number of orbital functions:                                                 14
 Number of independent orbital functions:                                     14

 Extrapolation method: ASPC


 SCF WAVEFUNCTION OPTIMIZATION

  ----------------------------------- OT ---------------------------------------
  Minimizer      : CG                  : conjugate gradient
  Preconditioner : FULL_ALL            : diagonalization, state selective
  Precond_solver : DEFAULT
  Line search    : 2PNT                : 2 energies, one gradient
  stepsize       :    0.15000000                  energy_gap     :    0.08000000
  eps_taylor     :   0.10000E-15                  max_taylor     :             4
  ----------------------------------- OT ---------------------------------------

  Step     Update method      Time    Convergence         Total energy    Change
  ------------------------------------------------------------------------------
     1 OT CG       0.15E+00    0.3     0.01015938       -16.1057060809 -1.61E+01
     2 OT LS       0.19E+00    0.3                      -16.1066303483
     3 OT CG       0.19E+00    0.5     0.00286777       -16.1066763442 -9.70E-04
     4 OT LS       0.15E+00    0.3                      -16.1067324287
     5 OT CG       0.15E+00    0.5     0.00043694       -16.1067369664 -6.06E-05
     6 OT LS       0.21E+00    0.3                      -16.1067387716
     7 OT CG       0.21E+00    0.5     0.00003211       -16.1067389262 -1.96E-06

  *** SCF run converged in     7 steps ***


  Electronic density on regular grids:        -13.9999999997        0.0000000003
  Core density on regular grids:               13.9999999987       -0.0000000013
  Total charge density on r-space grids:       -0.0000000011
  Total charge density g-space grids:          -0.0000000011

  Overlap energy of the core charge distribution:               0.00002086086740
  Self energy of the core charge distribution:                -38.70122451907286
  Core Hamiltonian energy:                                     12.65719211106257
  Hartree energy:                                              15.56126494531592
  Exchange-correlation energy:                                 -5.62399232437995

  Total energy:                                               -16.10673892620692

  outer SCF iter =    1 RMS gradient =   0.32E-04 energy =        -16.1067389262
  outer SCF loop converged in   1 iterations or    7 steps


 ENERGY| Total FORCE_EVAL ( QS ) energy [a.u.]:              -16.106738934549632

 STRESS| Analytical stress tensor [GPa]
 STRESS|                        x                   y                   z
 STRESS|      x        3.68681769329E-02   4.29237525065E-02  -2.76976966844E-02
 STRESS|      y        4.29237525065E-02   5.05577489863E-03  -5.93147965999E-03
 STRESS|      z       -2.76976966844E-02  -5.93147965999E-03   1.22543336237E-01
 STRESS| 1/3 Trace                                             5.48224293561E-02
 STRESS| Determinant                                          -1.94010024914E-04

 STRESS| Eigenvectors and eigenvalues of the analytical stress tensor [GPa]
 STRESS|                        1                   2                   3
 STRESS| Eigenvalues  -2.56659270236E-02   5.66139106360E-02   1.33519304456E-01
 STRESS|      x          -0.587324095252      0.736714310052     -0.335115550969
 STRESS|      y           0.805631000640      0.571812700627     -0.154883589216
 STRESS|      z          -0.077518371654      0.360946340563      0.929359263843

 Number of electrons:                                                         14
 Number of occupied orbitals:                                                  7
 Number of molecular orbitals:                                                 7

 Number of orbital functions:                                                 14
 Number of independent orbital functions:                                     14

 Extrapolation method: ASPC


 SCF WAVEFUNCTION OPTIMIZATION

  ----------------------------------- OT ---------------------------------------
  Minimizer      : CG                  : conjugate gradient
  Preconditioner : FULL_ALL            : diagonalization, state selective
  Precond_solver : DEFAULT
  Line search    : 2PNT                : 2 energies, one gradient
  stepsize       :    0.15000000                  energy_gap     :    0.08000000
  eps_taylor     :   0.10000E-15                  max_taylor     :             4
  ----------------------------------- OT ---------------------------------------

  Step     Update method      Time    Convergence         Total energy    Change
  ------------------------------------------------------------------------------
     1 OT CG       0.15E+00    0.3     0.01043900       -16.1062508268 -1.61E+01
     2 OT LS       0.19E+00    0.3                      -16.1072235730
     3 OT CG       0.19E+00    0.5     0.00299086       -16.1072707184 -1.02E-03
     4 OT LS       0.15E+00    0.3                      -16.1073326891
     5 OT CG       0.15E+00    0.5     0.00043196       -16.1073372091 -6.65E-05
     6 OT LS       0.21E+00    0.3                      -16.1073389869
     7 OT CG       0.21E+00    0.5     0.00003543       -16.1073391424 -1.93E-06

  *** SCF run converged in     7 steps ***


  Electronic density on regular grids:        -13.9999999997        0.0000000003
  Core density on regular grids:               13.9999999987       -0.0000000013
  Total charge density on r-space grids:       -0.0000000011
  Total charge density g-space grids:          -0.0000000011

  Overlap energy of the core charge distribution:               0.00001798751523
  Self energy of the core charge distribution:                -38.70122451907286
  Core Hamiltonian energy:                                     12.67687585868100
  Hartree energy:                                              15.54572801448994
  Exchange-correlation energy:                                 -5.62873648406192

  Total energy:                                               -16.10733914244860

  outer SCF iter =    1 RMS gradient =   0.35E-04 energy =        -16.1073391424
  outer SCF loop converged in   1 iterations or    7 steps


 ENERGY| Total FORCE_EVAL ( QS ) energy [a.u.]:              -16.107339152248557

 STRESS| Analytical stress tensor [GPa]
 STRESS|                        x                   y                   z
 STRESS|      x        5.89394786049E-02   4.12400025378E-02  -3.66390773680E-02
 STRESS|      y        4.12400025378E-02   7.86278761246E-03  -7.15708386649E-03
 STRESS|      z       -3.66390773680E-02  -7.15708386649E-03   1.43675136704E-01
 STRESS| 1/3 Trace                                             7.01591343071E-02
 STRESS| Determinant                                          -1.69716210360E-04

 STRESS| Eigenvectors and eigenvalues of the analytical stress tensor [GPa]
 STRESS|                        1                   2                   3
 STRESS| Eigenvalues  -1.60185203102E-02   6.60240102811E-02   1.60471912950E-01
 STRESS|      x          -0.509749006826      0.767757362400     -0.388206881083
 STRESS|      y           0.856729100167      0.494205179869     -0.147568591233
 STRESS|      z          -0.078556979113      0.407811074728      0.909680673842

 Number of electrons:                                                         14
 Number of occupied orbitals:                                                  7
 Number of molecular orbitals:                                                 7

 Number of orbital functions:                                                 14
 Number of independent orbital functions:                                     14

 Extrapolation method: ASPC


 SCF WAVEFUNCTION OPTIMIZATION

  ----------------------------------- OT ---------------------------------------
  Minimizer      : CG                  : conjugate gradient
  Preconditioner : FULL_ALL            : diagonalization, state selective
  Precond_solver : DEFAULT
  Line search    : 2PNT                : 2 energies, one gradient
  stepsize       :    0.15000000                  energy_gap     :    0.08000000
  eps_taylor     :   0.10000E-15                  max_taylor     :             4
  ----------------------------------- OT ---------------------------------------

  Step     Update method      Time    Convergence         Total energy    Change
  ------------------------------------------------------------------------------
     1 OT CG       0.15E+00    0.3     0.01060683       -16.1062263257 -1.61E+01
     2 OT LS       0.19E+00    0.3                      -16.1072313205
     3 OT CG       0.19E+00    0.5     0.00286759       -16.1072799447 -1.05E-03
     4 OT LS       0.15E+00    0.3                      -16.1073378416
     5 OT CG       0.15E+00    0.5     0.00045597       -16.1073416123 -6.17E-05
     6 OT LS       0.21E+00    0.3                      -16.1073435874
     7 OT CG       0.21E+00    0.5     0.00003461       -16.1073437368 -2.12E-06

  *** SCF run converged in     7 steps ***


  Electronic density on regular grids:        -13.9999999997        0.0000000003
  Core density on regular grids:               13.9999999987       -0.0000000013
  Total charge density on r-space grids:       -0.0000000010
  Total charge density g-space grids:          -0.0000000010

  Overlap energy of the core charge distribution:               0.00001798751523
  Self energy of the core charge distribution:                -38.70122451907286
  Core Hamiltonian energy:                                     12.67683488216121
  Hartree energy:                                              15.54577301530954
  Exchange-correlation energy:                                 -5.62874510266899

  Total energy:                                               -16.10734373675587

  outer SCF iter =    1 RMS gradient =   0.35E-04 energy =        -16.1073437368
  outer SCF loop converged in   1 iterations or    7 steps


 ENERGY| Total FORCE_EVAL ( QS ) energy [a.u.]:              -16.107343746003245

 STRESS| Analytical stress tensor [GPa]
 STRESS|                        x                   y                   z
 STRESS|      x        5.90045041008E-02   4.12757935987E-02  -3.66135838534E-02
 STRESS|      y        4.12757935987E-02   7.91472266499E-03  -7.12558670769E-03
 STRESS|      z       -3.66135838534E-02  -7.12558670769E-03   1.43731663232E-01
 STRESS| 1/3 Trace                                             7.02169633326E-02
 STRESS| Determinant                                          -1.69819915920E-04

 STRESS| Eigenvectors and eigenvalues of the analytical stress tensor [GPa]
 STRESS|                        1                   2                   3
 STRESS| Eigenvalues  -1.59966165524E-02   6.61402456051E-02   1.60507260945E-01
 STRESS|      x          -0.509847816684      0.767734768463     -0.388121796754
 STRESS|      y           0.856661472285      0.494352605460     -0.147467363771
 STRESS|      z          -0.078653199081      0.407674903284      0.909733393642

 Number of electrons:                                                         14
 Number of occupied orbitals:                                                  7
 Number of molecular orbitals:                                                 7

 Number of orbital functions:                                                 14
 Number of independent orbital functions:                                     14

 Extrapolation method: ASPC


 SCF WAVEFUNCTION OPTIMIZATION

  ----------------------------------- OT ---------------------------------------
  Minimizer      : CG                  : conjugate gradient
  Preconditioner : FULL_ALL            : diagonalization, state selective
  Precond_solver : DEFAULT
  Line search    : 2PNT                : 2 energies, one gradient
  stepsize       :    0.15000000                  energy_gap     :    0.08000000
  eps_taylor     :   0.10000E-15                  max_taylor     :             4
  ----------------------------------- OT ---------------------------------------

  Step     Update method      Time    Convergence         Total energy    Change
  ------------------------------------------------------------------------------
     1 OT CG       0.15E+00    0.3     0.01066910       -16.1060342801 -1.61E+01
     2 OT LS       0.19E+00    0.3                      -16.1070511053
     3 OT CG       0.19E+00    0.5     0.00290682       -16.1071007084 -1.07E-03
     4 OT LS       0.15E+00    0.3                      -16.1071602675
     5 OT CG       0.15E+00    0.5     0.00044381       -16.1071641835 -6.35E-05
     6 OT LS       0.21E+00    0.3                      -16.1071660654
     7 OT CG       0.21E+00    0.5     0.00003727       -16.1071662170 -2.03E-06

  *** SCF run converged in     7 steps ***


  Electronic density on regular grids:        -13.9999999997        0.0000000003
  Core density on regular grids:               13.9999999987       -0.0000000013
  Total charge density on r-space grids:       -0.0000000011
  Total charge density g-space grids:          -0.0000000011

  Overlap energy of the core charge distribution:               0.00001511985071
  Self energy of the core charge distribution:                -38.70122451907286
  Core Hamiltonian energy:                                     12.69439640843386
  Hartree energy:                                              15.53199673460189
  Exchange-correlation energy:                                 -5.63234996086195

  Total energy:                                               -16.10716621704836

  outer SCF iter =    1 RMS gradient =   0.37E-04 energy =        -16.1071662170
  outer SCF loop converged in   1 iterations or    7 steps


 ENERGY| Total FORCE_EVAL ( QS ) energy [a.u.]:              -16.107166227387200

 STRESS| Analytical stress tensor [GPa]
 STRESS|                        x                   y                   z
 STRESS|      x        7.48669725826E-02   3.79722752965E-02  -4.48192870878E-02
 STRESS|      y        3.79722752965E-02   8.10688024239E-03  -9.39098320671E-03
 STRESS|      z       -4.48192870878E-02  -9.39098320671E-03   1.58540857867E-01
 STRESS| 1/3 Trace                                             8.05049035640E-02
 STRESS| Determinant                                          -1.23297217695E-04

 STRESS| Eigenvectors and eigenvalues of the analytical stress tensor [GPa]
 STRESS|                        1                   2                   3
 STRESS| Eigenvalues  -9.73282822666E-03   6.98281452751E-02   1.81419393644E-01
 STRESS|      x          -0.437710926497      0.791616510425     -0.426324342781
 STRESS|      y           0.896649959238      0.419413204059     -0.141814720181
 STRESS|      z          -0.066543184657      0.444337557138      0.893384653938

 Number of electrons:                                                         14
 Number of occupied orbitals:                                                  7
 Number of molecular orbitals:                                                 7

 Number of orbital functions:                                                 14
 Number of independent orbital functions:                                     14

 Extrapolation method: ASPC


 SCF WAVEFUNCTION OPTIMIZATION

  ----------------------------------- OT ---------------------------------------
  Minimizer      : CG                  : conjugate gradient
  Preconditioner : FULL_ALL            : diagonalization, state selective
  Precond_solver : DEFAULT
  Line search    : 2PNT                : 2 energies, one gradient
  stepsize       :    0.15000000                  energy_gap     :    0.08000000
  eps_taylor     :   0.10000E-15                  max_taylor     :             4
  ----------------------------------- OT ---------------------------------------

  Step     Update method      Time    Convergence         Total energy    Change
  ------------------------------------------------------------------------------
     1 OT CG       0.15E+00    0.3     0.01067963       -16.1060426002 -1.61E+01
     2 OT LS       0.19E+00    0.3                      -16.1070631054
     3 OT CG       0.19E+00    0.5     0.00272580       -16.1071135448 -1.07E-03
     4 OT LS       0.16E+00    0.3                      -16.1071668102
     5 OT CG       0.16E+00    0.5     0.00045947       -16.1071699466 -5.64E-05
     6 OT LS       0.21E+00    0.3                      -16.1071719544
     7 OT CG       0.21E+00    0.5     0.00003572       -16.1071720901 -2.14E-06

  *** SCF run converged in     7 steps ***


  Electronic density on regular grids:        -13.9999999997        0.0000000003
  Core density on regular grids:               13.9999999987       -0.0000000013
  Total charge density on r-space grids:       -0.0000000010
  Total charge density g-space grids:          -0.0000000010

  Overlap energy of the core charge distribution:               0.00001511985071
  Self energy of the core charge distribution:                -38.70122451907286
  Core Hamiltonian energy:                                     12.69434408053944
  Hartree energy:                                              15.53205348399942
  Exchange-correlation energy:                                 -5.63236025544671

  Total energy:                                               -16.10717209013000

  outer SCF iter =    1 RMS gradient =   0.36E-04 energy =        -16.1071720901
  outer SCF loop converged in   1 iterations or    7 steps


 ENERGY| Total FORCE_EVAL ( QS ) energy [a.u.]:              -16.107172099584286

 STRESS| Analytical stress tensor [GPa]
 STRESS|                        x                   y                   z
 STRESS|      x        7.49402533417E-02   3.80127001838E-02  -4.47931361471E-02
 STRESS|      y        3.80127001838E-02   8.17655982953E-03  -9.35779209010E-03
 STRESS|      z       -4.47931361471E-02  -9.35779209010E-03   1.58607004954E-01
 STRESS| 1/3 Trace                                             8.05746060418E-02
 STRESS| Determinant                                          -1.23095505609E-04

 STRESS| Eigenvectors and eigenvalues of the analytical stress tensor [GPa]
 STRESS|                        1                   2                   3
 STRESS| Eigenvalues  -9.69665171346E-03   6.99570030464E-02   1.81463466792E-01
 STRESS|      x          -0.437956989780      0.791510131784     -0.426269147822
 STRESS|      y           0.896517176443      0.419717522484     -0.141753848846
 STRESS|      z          -0.066713023055      0.444239701741      0.893420651178

 Number of electrons:                                                         14
 Number of occupied orbitals:                                                  7
 Number of molecular orbitals:                                                 7

 Number of orbital functions:                                                 14
 Number of independent orbital functions:                                     14

 Extrapolation method: ASPC


 SCF WAVEFUNCTION OPTIMIZATION

  ----------------------------------- OT ---------------------------------------
  Minimizer      : CG                  : conjugate gradient
  Preconditioner : FULL_ALL            : diagonalization, state selective
  Precond_solver : DEFAULT
  Line search    : 2PNT                : 2 energies, one gradient
  stepsize       :    0.15000000                  energy_gap     :    0.08000000
  eps_taylor     :   0.10000E-15                  max_taylor     :             4
  ----------------------------------- OT ---------------------------------------

  Step     Update method      Time    Convergence         Total energy    Change
  ------------------------------------------------------------------------------
     1 OT CG       0.15E+00    0.3     0.01052671       -16.1052167388 -1.61E+01
     2 OT LS       0.19E+00    0.3                      -16.1062110978
     3 OT CG       0.19E+00    0.5     0.00268336       -16.1062621013 -1.05E-03
     4 OT LS       0.15E+00    0.3                      -16.1063130283
     5 OT CG       0.15E+00    0.5     0.00044153       -16.1063164439 -5.43E-05
     6 OT LS       0.21E+00    0.3                      -16.1063183049
     7 OT CG       0.21E+00    0.5     0.00003717       -16.1063184459 -2.00E-06

  *** SCF run converged in     7 steps ***


  Electronic density on regular grids:        -13.9999999997        0.0000000003
  Core density on regular grids:               13.9999999987       -0.0000000013
  Total charge density on r-space grids:       -0.0000000010
  Total charge density g-space grids:          -0.0000000010

  Overlap energy of the core charge distribution:               0.00001257494122
  Self energy of the core charge distribution:                -38.70122451907286
  Core Hamiltonian energy:                                     12.70808512107238
  Hartree energy:                                              15.52112095534090
  Exchange-correlation energy:                                 -5.63431257820354

  Total energy:                                               -16.10631844592189

  outer SCF iter =    1 RMS gradient =   0.37E-04 energy =        -16.1063184459
  outer SCF loop converged in   1 iterations or    7 steps


 ENERGY| Total FORCE_EVAL ( QS ) energy [a.u.]:              -16.106318455798949

 STRESS| Analytical stress tensor [GPa]
 STRESS|                        x                   y                   z
 STRESS|      x        8.08755163998E-02   3.17349249708E-02  -5.30680530627E-02
 STRESS|      y        3.17349249708E-02   4.56616245221E-03  -1.39950737835E-02
 STRESS|      z       -5.30680530627E-02  -1.39950737835E-02   1.63013266885E-01
 STRESS| 1/3 Trace                                             8.28183152458E-02
 STRESS| Determinant                                          -8.55335118523E-05

 STRESS| Eigenvectors and eigenvalues of the analytical stress tensor [GPa]
 STRESS|                        1                   2                   3
 STRESS| Eigenvalues  -7.07674322095E-03   6.26694026966E-02   1.92862286262E-01
 STRESS|      x          -0.357723052278      0.814642016777     -0.456500385948
 STRESS|      y           0.933178053394      0.330080957884     -0.142215617660
 STRESS|      z          -0.034827267080      0.476869946363      0.878283619182

 Number of electrons:                                                         14
 Number of occupied orbitals:                                                  7
 Number of molecular orbitals:                                                 7

 Number of orbital functions:                                                 14
 Number of independent orbital functions:                                     14

 Extrapolation method: ASPC


 SCF WAVEFUNCTION OPTIMIZATION

  ----------------------------------- OT ---------------------------------------
  Minimizer      : CG                  : conjugate gradient
  Preconditioner : FULL_ALL            : diagonalization, state selective
  Precond_solver : DEFAULT
  Line search    : 2PNT                : 2 energies, one gradient
  stepsize       :    0.15000000                  energy_gap     :    0.08000000
  eps_taylor     :   0.10000E-15                  max_taylor     :             4
  ----------------------------------- OT ---------------------------------------

  Step     Update method      Time    Convergence         Total energy    Change
  ------------------------------------------------------------------------------
     1 OT CG       0.15E+00    0.3     0.01039010       -16.1052503257 -1.61E+01
     2 OT LS       0.19E+00    0.4                      -16.1062213861
     3 OT CG       0.19E+00    0.5     0.00245042       -16.1062726022 -1.02E-03
     4 OT LS       0.16E+00    0.3                      -16.1063159898
     5 OT CG       0.16E+00    0.5     0.00044817       -16.1063185630 -4.60E-05
     6 OT LS       0.21E+00    0.3                      -16.1063204680
     7 OT CG       0.21E+00    0.5     0.00003488       -16.1063205831 -2.02E-06

  *** SCF run converged in     7 steps ***


  Electronic density on regular grids:        -13.9999999997        0.0000000003
  Core density on regular grids:               13.9999999987       -0.0000000013
  Total charge density on r-space grids:       -0.0000000010
  Total charge density g-space grids:          -0.0000000010

  Overlap energy of the core charge distribution:               0.00001257494122
  Self energy of the core charge distribution:                -38.70122451907286
  Core Hamiltonian energy:                                     12.70802008853034
  Hartree energy:                                              15.52118906959956
  Exchange-correlation energy:                                 -5.63431779710045

  Total energy:                                               -16.10632058310219

  outer SCF iter =    1 RMS gradient =   0.35E-04 energy =        -16.1063205831
  outer SCF loop converged in   1 iterations or    7 steps


 ENERGY| Total FORCE_EVAL ( QS ) energy [a.u.]:              -16.106320591826034

 STRESS| Analytical stress tensor [GPa]
 STRESS|                        x                   y                   z
 STRESS|      x        8.09390387176E-02   3.17828928883E-02  -5.30406750105E-02
 STRESS|      y        3.17828928883E-02   4.60432578674E-03  -1.39605260403E-02
 STRESS|      z       -5.30406750105E-02  -1.39605260403E-02   1.63073485418E-01
 STRESS| 1/3 Trace                                             8.28722833076E-02
 STRESS| Determinant                                          -8.56157131587E-05

 STRESS| Eigenvectors and eigenvalues of the analytical stress tensor [GPa]
 STRESS|                        1                   2                   3
 STRESS| Eigenvalues  -7.06891207014E-03   6.27873699437E-02   1.92898392049E-01
 STRESS|      x          -0.358089673837      0.814504327697     -0.456458635206
 STRESS|      y           0.933028148495      0.330525169390     -0.142167459412
 STRESS|      z          -0.035075056772      0.476797454442      0.878313114914

 Number of electrons:                                                         14
 Number of occupied orbitals:                                                  7
 Number of molecular orbitals:                                                 7

 Number of orbital functions:                                                 14
 Number of independent orbital functions:                                     14

 Extrapolation method: ASPC


 SCF WAVEFUNCTION OPTIMIZATION

  ----------------------------------- OT ---------------------------------------
  Minimizer      : CG                  : conjugate gradient
  Preconditioner : FULL_ALL            : diagonalization, state selective
  Precond_solver : DEFAULT
  Line search    : 2PNT                : 2 energies, one gradient
  stepsize       :    0.15000000                  energy_gap     :    0.08000000
  eps_taylor     :   0.10000E-15                  max_taylor     :             4
  ----------------------------------- OT ---------------------------------------

  Step     Update method      Time    Convergence         Total energy    Change
  ------------------------------------------------------------------------------
     1 OT CG       0.15E+00    0.3     0.01006203       -16.1041322026 -1.61E+01
     2 OT LS       0.19E+00    0.3                      -16.1050477674
     3 OT CG       0.19E+00    0.5     0.00233179       -16.1050988719 -9.67E-04
     4 OT LS       0.15E+00    0.3                      -16.1051371001
     5 OT CG       0.15E+00    0.5     0.00042611       -16.1051399547 -4.11E-05
     6 OT LS       0.21E+00    0.3                      -16.1051416795
     7 OT CG       0.21E+00    0.5     0.00003497       -16.1051418012 -1.85E-06

  *** SCF run converged in     7 steps ***


  Electronic density on regular grids:        -13.9999999997        0.0000000003
  Core density on regular grids:               13.9999999987       -0.0000000013
  Total charge density on r-space grids:       -0.0000000010
  Total charge density g-space grids:          -0.0000000010

  Overlap energy of the core charge distribution:               0.00001047713156
  Self energy of the core charge distribution:                -38.70122451907286
  Core Hamiltonian energy:                                     12.71634507441154
  Hartree energy:                                              15.51392493771137
  Exchange-correlation energy:                                 -5.63419777133920

  Total energy:                                               -16.10514180115759

  outer SCF iter =    1 RMS gradient =   0.35E-04 energy =        -16.1051418012
  outer SCF loop converged in   1 iterations or    7 steps


 ENERGY| Total FORCE_EVAL ( QS ) energy [a.u.]:              -16.105141809633647

 STRESS| Analytical stress tensor [GPa]
 STRESS|                        x                   y                   z
 STRESS|      x        7.36895070880E-02   2.07002912584E-02  -6.25383942959E-02
 STRESS|      y        2.07002912584E-02  -4.11255578571E-03  -2.23646713309E-02
 STRESS|      z       -6.25383942959E-02  -2.23646713309E-02   1.52237725940E-01
 STRESS| 1/3 Trace                                             7.39382257474E-02
 STRESS| Determinant                                          -7.42387014449E-05

 STRESS| Eigenvectors and eigenvalues of the analytical stress tensor [GPa]
 STRESS|                        1                   2                   3
 STRESS| Eigenvalues  -9.65967889949E-03   4.01747989284E-02   1.91299557213E-01
 STRESS|      x          -0.199324442566      0.851704147229     -0.484633688664
 STRESS|      y           0.978207605986      0.143596953225     -0.149965978193
 STRESS|      z           0.058134724448      0.503964245375      0.861765857525

 Number of electrons:                                                         14
 Number of occupied orbitals:                                                  7
 Number of molecular orbitals:                                                 7

 Number of orbital functions:                                                 14
 Number of independent orbital functions:                                     14

 Extrapolation method: ASPC


 SCF WAVEFUNCTION OPTIMIZATION

  ----------------------------------- OT ---------------------------------------
  Minimizer      : CG                  : conjugate gradient
  Preconditioner : FULL_ALL            : diagonalization, state selective
  Precond_solver : DEFAULT
  Line search    : 2PNT                : 2 energies, one gradient
  stepsize       :    0.15000000                  energy_gap     :    0.08000000
  eps_taylor     :   0.10000E-15                  max_taylor     :             4
  ----------------------------------- OT ---------------------------------------

  Step     Update method      Time    Convergence         Total energy    Change
  ------------------------------------------------------------------------------
     1 OT CG       0.15E+00    0.3     0.00981578       -16.1041790733 -1.61E+01
     2 OT LS       0.20E+00    0.3                      -16.1050526495
     3 OT CG       0.20E+00    0.5     0.00205424       -16.1051032874 -9.24E-04
     4 OT LS       0.16E+00    0.3                      -16.1051340436
     5 OT CG       0.16E+00    0.5     0.00042335       -16.1051359294 -3.26E-05
     6 OT LS       0.20E+00    0.3                      -16.1051376160
     7 OT CG       0.20E+00    0.5     0.00003212       -16.1051376995 -1.77E-06

  *** SCF run converged in     7 steps ***


  Electronic density on regular grids:        -13.9999999997        0.0000000003
  Core density on regular grids:               13.9999999987       -0.0000000013
  Total charge density on r-space grids:       -0.0000000010
  Total charge density g-space grids:          -0.0000000010

  Overlap energy of the core charge distribution:               0.00001047713156
  Self energy of the core charge distribution:                -38.70122451907286
  Core Hamiltonian energy:                                     12.71627122763127
  Hartree energy:                                              15.51399929243242
  Exchange-correlation energy:                                 -5.63419417767127

  Total energy:                                               -16.10513769954887

  outer SCF iter =    1 RMS gradient =   0.32E-04 energy =        -16.1051376995
  outer SCF loop converged in   1 iterations or    7 steps


 ENERGY| Total FORCE_EVAL ( QS ) energy [a.u.]:              -16.105137706783992

 STRESS| Analytical stress tensor [GPa]
 STRESS|                        x                   y                   z
 STRESS|      x        7.37289366301E-02   2.07528940293E-02  -6.25130853348E-02
 STRESS|      y        2.07528940293E-02  -4.12586241023E-03  -2.23397587351E-02
 STRESS|      z       -6.25130853348E-02  -2.23397587351E-02   1.52280777305E-01
 STRESS| 1/3 Trace                                             7.39612838416E-02
 STRESS| Determinant                                          -7.46159574314E-05

 STRESS| Eigenvectors and eigenvalues of the analytical stress tensor [GPa]
 STRESS|                        1                   2                   3
 STRESS| Eigenvalues  -9.68900874961E-03   4.02523027065E-02   1.91320557568E-01
 STRESS|      x          -0.200111922569      0.851538319590     -0.484600566153
 STRESS|      y           0.978074495751      0.144508063658     -0.149958995391
 STRESS|      z           0.057667141480      0.503984037255      0.861785698991

 Number of electrons:                                                         14
 Number of occupied orbitals:                                                  7
 Number of molecular orbitals:                                                 7

 Number of orbital functions:                                                 14
 Number of independent orbital functions:                                     14

 Extrapolation method: ASPC


 SCF WAVEFUNCTION OPTIMIZATION

  ----------------------------------- OT ---------------------------------------
  Minimizer      : CG                  : conjugate gradient
  Preconditioner : FULL_ALL            : diagonalization, state selective
  Precond_solver : DEFAULT
  Line search    : 2PNT                : 2 energies, one gradient
  stepsize       :    0.15000000                  energy_gap     :    0.08000000
  eps_taylor     :   0.10000E-15                  max_taylor     :             4
  ----------------------------------- OT ---------------------------------------

  Step     Update method      Time    Convergence         Total energy    Change
  ------------------------------------------------------------------------------
     1 OT CG       0.15E+00    0.3     0.00938926       -16.1031689498 -1.61E+01
     2 OT LS       0.20E+00    0.3                      -16.1039735574
     3 OT CG       0.20E+00    0.5     0.00186951       -16.1040230375 -8.54E-04
     4 OT LS       0.16E+00    0.3                      -16.1040477175
     5 OT CG       0.16E+00    0.5     0.00039779       -16.1040496653 -2.66E-05
     6 OT LS       0.20E+00    0.3                      -16.1040511530
     7 OT CG       0.20E+00    0.5     0.00003095       -16.1040512377 -1.57E-06

  *** SCF run converged in     7 steps ***


  Electronic density on regular grids:        -13.9999999997        0.0000000003
  Core density on regular grids:               13.9999999987       -0.0000000013
  Total charge density on r-space grids:       -0.0000000010
  Total charge density g-space grids:          -0.0000000010

  Overlap energy of the core charge distribution:               0.00000882190437
  Self energy of the core charge distribution:                -38.70122451907286
  Core Hamiltonian energy:                                     12.71816250317105
  Hartree energy:                                              15.51080667234564
  Exchange-correlation energy:                                 -5.63180471603044

  Total energy:                                               -16.10405123768225

  outer SCF iter =    1 RMS gradient =   0.31E-04 energy =        -16.1040512377
  outer SCF loop converged in   1 iterations or    7 steps


 ENERGY| Total FORCE_EVAL ( QS ) energy [a.u.]:              -16.104051244215608

 STRESS| Analytical stress tensor [GPa]
 STRESS|                        x                   y                   z
 STRESS|      x        5.17360371127E-02   3.20651765935E-03  -7.40875068205E-02
 STRESS|      y        3.20651765935E-03  -1.88375385325E-02  -3.52430387273E-02
 STRESS|      z       -7.40875068205E-02  -3.52430387273E-02   1.22531111721E-01
 STRESS| 1/3 Trace                                             5.18098701004E-02
 STRESS| Determinant                                          -6.47926802314E-05

 STRESS| Eigenvectors and eigenvalues of the analytical stress tensor [GPa]
 STRESS|                        1                   2                   3
 STRESS| Eigenvalues  -3.09844516064E-02   1.19887120346E-02   1.74425349873E-01
 STRESS|      x           0.265594560715      0.816151624062     -0.513182283266
 STRESS|      y           0.903766191671     -0.396100018636     -0.162208033186
 STRESS|      z           0.335657861686      0.420715226462      0.842812255554

 Number of electrons:                                                         14
 Number of occupied orbitals:                                                  7
 Number of molecular orbitals:                                                 7

 Number of orbital functions:                                                 14
 Number of independent orbital functions:                                     14

 Extrapolation method: ASPC


 SCF WAVEFUNCTION OPTIMIZATION

  ----------------------------------- OT ---------------------------------------
  Minimizer      : CG                  : conjugate gradient
  Preconditioner : FULL_ALL            : diagonalization, state selective
  Precond_solver : DEFAULT
  Line search    : 2PNT                : 2 energies, one gradient
  stepsize       :    0.15000000                  energy_gap     :    0.08000000
  eps_taylor     :   0.10000E-15                  max_taylor     :             4
  ----------------------------------- OT ---------------------------------------

  Step     Update method      Time    Convergence         Total energy    Change
  ------------------------------------------------------------------------------
     1 OT CG       0.15E+00    0.3     0.00910457       -16.1032195623 -1.61E+01
     2 OT LS       0.20E+00    0.3                      -16.1039769945
     3 OT CG       0.20E+00    0.5     0.00156600       -16.1040251001 -8.06E-04
     4 OT LS       0.16E+00    0.3                      -16.1040438291
     5 OT CG       0.16E+00    0.5     0.00038326       -16.1040447357 -1.96E-05
     6 OT LS       0.19E+00    0.3                      -16.1040460907
     7 OT CG       0.19E+00    0.5     0.00002776       -16.1040461236 -1.39E-06

  *** SCF run converged in     7 steps ***


  Electronic density on regular grids:        -13.9999999997        0.0000000003
  Core density on regular grids:               13.9999999987       -0.0000000013
  Total charge density on r-space grids:       -0.0000000010
  Total charge density g-space grids:          -0.0000000010

  Overlap energy of the core charge distribution:               0.00000882190437
  Self energy of the core charge distribution:                -38.70122451907286
  Core Hamiltonian energy:                                     12.71808301994445
  Hartree energy:                                              15.51088347315891
  Exchange-correlation energy:                                 -5.63179691949201

  Total energy:                                               -16.10404612355715

  outer SCF iter =    1 RMS gradient =   0.28E-04 energy =        -16.1040461236
  outer SCF loop converged in   1 iterations or    7 steps


 ENERGY| Total FORCE_EVAL ( QS ) energy [a.u.]:              -16.104046128945924

 STRESS| Analytical stress tensor [GPa]
 STRESS|                        x                   y                   z
 STRESS|      x        5.17661079838E-02   3.24890568565E-03  -7.40681491929E-02
 STRESS|      y        3.24890568565E-03  -1.88557661985E-02  -3.52238480654E-02
 STRESS|      z       -7.40681491929E-02  -3.52238480654E-02   1.22569487807E-01
 STRESS| 1/3 Trace                                             5.18266098642E-02
 STRESS| Determinant                                          -6.47627845970E-05

 STRESS| Eigenvectors and eigenvalues of the analytical stress tensor [GPa]
 STRESS|                        1                   2                   3
 STRESS| Eigenvalues  -3.09575280113E-02   1.19922432301E-02   1.74445114374E-01
 STRESS|      x           0.264508318974      0.816519831660     -0.513157591486
 STRESS|      y           0.904297474730     -0.394885868917     -0.162207360274
 STRESS|      z           0.335084207910      0.421141917928      0.842827419211

 Number of electrons:                                                         14
 Number of occupied orbitals:                                                  7
 Number of molecular orbitals:                                                 7

 Number of orbital functions:                                                 14
 Number of independent orbital functions:                                     14

 Extrapolation method: ASPC


 SCF WAVEFUNCTION OPTIMIZATION

  ----------------------------------- OT ---------------------------------------
  Minimizer      : CG                  : conjugate gradient
  Preconditioner : FULL_ALL            : diagonalization, state selective
  Precond_solver : DEFAULT
  Line search    : 2PNT                : 2 energies, one gradient
  stepsize       :    0.15000000                  energy_gap     :    0.08000000
  eps_taylor     :   0.10000E-15                  max_taylor     :             4
  ----------------------------------- OT ---------------------------------------

  Step     Update method      Time    Convergence         Total energy    Change
  ------------------------------------------------------------------------------
     1 OT CG       0.15E+00    0.3     0.00868577       -16.1025604973 -1.61E+01
     2 OT LS       0.20E+00    0.3                      -16.1032536614
     3 OT CG       0.20E+00    0.5     0.00134209       -16.1032991607 -7.39E-04
     4 OT LS       0.16E+00    0.3                      -16.1033129107
     5 OT CG       0.16E+00    0.5     0.00035153       -16.1033136008 -1.44E-05
     6 OT LS       0.19E+00    0.3                      -16.1033147307
     7 OT CG       0.19E+00    0.5     0.00002552       -16.1033147522 -1.15E-06

  *** SCF run converged in     7 steps ***


  Electronic density on regular grids:        -13.9999999997        0.0000000003
  Core density on regular grids:               13.9999999987       -0.0000000013
  Total charge density on r-space grids:       -0.0000000010
  Total charge density g-space grids:          -0.0000000010

  Overlap energy of the core charge distribution:               0.00000755560723
  Self energy of the core charge distribution:                -38.70122451907286
  Core Hamiltonian energy:                                     12.71351963920688
  Hartree energy:                                              15.51164662184061
  Exchange-correlation energy:                                 -5.62726404981925

  Total energy:                                               -16.10331475223738

  outer SCF iter =    1 RMS gradient =   0.26E-04 energy =        -16.1033147522
  outer SCF loop converged in   1 iterations or    7 steps


 ENERGY| Total FORCE_EVAL ( QS ) energy [a.u.]:              -16.103314756738754

 STRESS| Analytical stress tensor [GPa]
 STRESS|                        x                   y                   z
 STRESS|      x        1.61066094148E-02  -2.13628493734E-02  -8.76178861346E-02
 STRESS|      y       -2.13628493734E-02  -3.94872920466E-02  -5.20624285707E-02
 STRESS|      z       -8.76178861346E-02  -5.20624285707E-02   7.33859947087E-02
 STRESS| 1/3 Trace                                             1.66684373590E-02
 STRESS| Determinant                                          -1.55799242954E-05

 STRESS| Eigenvectors and eigenvalues of the analytical stress tensor [GPa]
 STRESS|                        1                   2                   3
 STRESS| Eigenvalues  -9.32672121701E-02   1.17557841687E-03   1.42096945830E-01
 STRESS|      x           0.530344876381      0.651369735406     -0.542634112357
 STRESS|      y           0.688944273976     -0.704136658226     -0.171893437621
 STRESS|      z           0.494054753496      0.282681860646      0.822192718412

 Number of electrons:                                                         14
 Number of occupied orbitals:                                                  7
 Number of molecular orbitals:                                                 7

 Number of orbital functions:                                                 14
 Number of independent orbital functions:                                     14

 Extrapolation method: ASPC


 SCF WAVEFUNCTION OPTIMIZATION

  ----------------------------------- OT ---------------------------------------
  Minimizer      : CG                  : conjugate gradient
  Preconditioner : FULL_ALL            : diagonalization, state selective
  Precond_solver : DEFAULT
  Line search    : 2PNT                : 2 energies, one gradient
  stepsize       :    0.15000000                  energy_gap     :    0.08000000
  eps_taylor     :   0.10000E-15                  max_taylor     :             4
  ----------------------------------- OT ---------------------------------------

  Step     Update method      Time    Convergence         Total energy    Change
  ------------------------------------------------------------------------------
     1 OT CG       0.15E+00    0.3     0.00844940       -16.1026047072 -1.61E+01
     2 OT LS       0.20E+00    0.3                      -16.1032586124
     3 OT CG       0.20E+00    0.5     0.00106677       -16.1033015225 -6.97E-04
     4 OT LS       0.18E+00    0.3                      -16.1033117501
     5 OT CG       0.18E+00    0.5     0.00030753       -16.1033118168 -1.03E-05
     6 OT LS       0.17E+00    0.3                      -16.1033126049
     7 OT CG       0.17E+00    0.5     0.00002238       -16.1033126095 -7.93E-07

  *** SCF run converged in     7 steps ***


  Electronic density on regular grids:        -13.9999999997        0.0000000003
  Core density on regular grids:               13.9999999987       -0.0000000013
  Total charge density on r-space grids:       -0.0000000011
  Total charge density g-space grids:          -0.0000000011

  Overlap energy of the core charge distribution:               0.00000755560723
  Self energy of the core charge distribution:                -38.70122451907286
  Core Hamiltonian energy:                                     12.71342484815251
  Hartree energy:                                              15.51173289480776
  Exchange-correlation energy:                                 -5.62725338902332

  Total energy:                                               -16.10331260952867

  outer SCF iter =    1 RMS gradient =   0.22E-04 energy =        -16.1033126095
  outer SCF loop converged in   1 iterations or    7 steps


 ENERGY| Total FORCE_EVAL ( QS ) energy [a.u.]:              -16.103312613141313

 STRESS| Analytical stress tensor [GPa]
 STRESS|                        x                   y                   z
 STRESS|      x        1.61409476482E-02  -2.13349048199E-02  -8.76045947072E-02
 STRESS|      y       -2.13349048199E-02  -3.94767233630E-02  -5.20472282145E-02
 STRESS|      z       -8.76045947072E-02  -5.20472282145E-02   7.34283890075E-02
 STRESS| 1/3 Trace                                             1.66975377643E-02
 STRESS| Determinant                                          -1.55249738255E-05

 STRESS| Eigenvectors and eigenvalues of the analytical stress tensor [GPa]
 STRESS|                        1                   2                   3
 STRESS| Eigenvalues  -9.32044597899E-02   1.17198876288E-03   1.42125084320E-01
 STRESS|      x           0.530221877045      0.651482851497     -0.542618517292
 STRESS|      y           0.689085734814     -0.703997569294     -0.171896109624
 STRESS|      z           0.493989484887      0.282767601810      0.822202452069

 Number of electrons:                                                         14
 Number of occupied orbitals:                                                  7
 Number of molecular orbitals:                                                 7

 Number of orbital functions:                                                 14
 Number of independent orbital functions:                                     14

 Extrapolation method: ASPC


 SCF WAVEFUNCTION OPTIMIZATION

  ----------------------------------- OT ---------------------------------------
  Minimizer      : CG                  : conjugate gradient
  Preconditioner : FULL_ALL            : diagonalization, state selective
  Precond_solver : DEFAULT
  Line search    : 2PNT                : 2 energies, one gradient
  stepsize       :    0.15000000                  energy_gap     :    0.08000000
  eps_taylor     :   0.10000E-15                  max_taylor     :             4
  ----------------------------------- OT ---------------------------------------

  Step     Update method      Time    Convergence         Total energy    Change
  ------------------------------------------------------------------------------
     1 OT CG       0.15E+00    0.3     0.00813639       -16.1022873937 -1.61E+01
     2 OT LS       0.20E+00    0.3                      -16.1028945495
     3 OT CG       0.20E+00    0.5     0.00087035       -16.1029333430 -6.46E-04
     4 OT LS       0.20E+00    0.3                      -16.1029406160
     5 OT CG       0.20E+00    0.5     0.00024883       -16.1029406169 -7.27E-06
     6 OT LS       0.16E+00    0.3                      -16.1029410815
     7 OT CG       0.16E+00    0.5     0.00001964       -16.1029411058 -4.89E-07

  *** SCF run converged in     7 steps ***


  Electronic density on regular grids:        -13.9999999997        0.0000000003
  Core density on regular grids:               13.9999999987       -0.0000000013
  Total charge density on r-space grids:       -0.0000000011
  Total charge density g-space grids:          -0.0000000011

  Overlap energy of the core charge distribution:               0.00000662884498
  Self energy of the core charge distribution:                -38.70122451907286
  Core Hamiltonian energy:                                     12.70353421297891
  Hartree energy:                                              15.51579842917920
  Exchange-correlation energy:                                 -5.62105585777236

  Total energy:                                               -16.10294110584213

  outer SCF iter =    1 RMS gradient =   0.20E-04 energy =        -16.1029411058
  outer SCF loop converged in   1 iterations or    7 steps


 ENERGY| Total FORCE_EVAL ( QS ) energy [a.u.]:              -16.102941108650274

 STRESS| Analytical stress tensor [GPa]
 STRESS|                        x                   y                   z
 STRESS|      x       -2.94017473882E-02  -5.19389349542E-02  -1.01836419363E-01
 STRESS|      y       -5.19389349542E-02  -6.46732227909E-02  -7.08528257051E-02
 STRESS|      z       -1.01836419363E-01  -7.08528257051E-02   8.43258978111E-03
 STRESS| 1/3 Trace                                            -2.85474601327E-02
 STRESS| Determinant                                           6.20703866091E-05

 STRESS| Eigenvectors and eigenvalues of the analytical stress tensor [GPa]
 STRESS|                        1                   2                   3
 STRESS| Eigenvalues  -1.78712902181E-01  -3.59306949166E-03   9.66635912748E-02
 STRESS|      x           0.581773734787      0.572512863591     -0.577726875379
 STRESS|      y           0.603646416447     -0.779977606246     -0.165063435277
 STRESS|      z           0.545114965327      0.252713186790      0.799365823512

 Number of electrons:                                                         14
 Number of occupied orbitals:                                                  7
 Number of molecular orbitals:                                                 7

 Number of orbital functions:                                                 14
 Number of independent orbital functions:                                     14

 Extrapolation method: ASPC


 SCF WAVEFUNCTION OPTIMIZATION

  ----------------------------------- OT ---------------------------------------
  Minimizer      : CG                  : conjugate gradient
  Preconditioner : FULL_ALL            : diagonalization, state selective
  Precond_solver : DEFAULT
  Line search    : 2PNT                : 2 energies, one gradient
  stepsize       :    0.15000000                  energy_gap     :    0.08000000
  eps_taylor     :   0.10000E-15                  max_taylor     :             4
  ----------------------------------- OT ---------------------------------------

  Step     Update method      Time    Convergence         Total energy    Change
  ------------------------------------------------------------------------------
     1 OT CG       0.15E+00    0.3     0.00801616       -16.1023165846 -1.61E+01
     2 OT LS       0.20E+00    0.3                      -16.1029003870
     3 OT CG       0.20E+00    0.5     0.00073848       -16.1029356866 -6.19E-04
     4 OT LS       0.23E+00    0.3                      -16.1029416568
     5 OT CG       0.23E+00    0.5     0.00013375       -16.1029417683 -6.08E-06
     6 OT LS       0.16E+00    0.3                      -16.1029418804
     7 OT CG       0.16E+00    0.5     0.00000924       -16.1029419069 -1.39E-07

  *** SCF run converged in     7 steps ***


  Electronic density on regular grids:        -13.9999999998        0.0000000002
  Core density on regular grids:               13.9999999987       -0.0000000013
  Total charge density on r-space grids:       -0.0000000011
  Total charge density g-space grids:          -0.0000000011

  Overlap energy of the core charge distribution:               0.00000662884498
  Self energy of the core charge distribution:                -38.70122451907286
  Core Hamiltonian energy:                                     12.70344717337555
  Hartree energy:                                              15.51587209960438
  Exchange-correlation energy:                                 -5.62104328960544

  Total energy:                                               -16.10294190685340

  outer SCF iter =    1 RMS gradient =   0.92E-05 energy =        -16.1029419069
  outer SCF loop converged in   1 iterations or    7 steps


 ENERGY| Total FORCE_EVAL ( QS ) energy [a.u.]:              -16.102941907588765

 STRESS| Analytical stress tensor [GPa]
 STRESS|                        x                   y                   z
 STRESS|      x       -2.93803569961E-02  -5.19325270935E-02  -1.01832881554E-01
 STRESS|      y       -5.19325270935E-02  -6.46416376312E-02  -7.08463275281E-02
 STRESS|      z       -1.01832881554E-01  -7.08463275281E-02   8.46508122380E-03
 STRESS| 1/3 Trace                                            -2.85189711345E-02
 STRESS| Determinant                                           6.17092518381E-05

 STRESS| Eigenvectors and eigenvalues of the analytical stress tensor [GPa]
 STRESS|                        1                   2                   3
 STRESS| Eigenvalues  -1.78673477253E-01  -3.57202880682E-03   9.66885926563E-02
 STRESS|      x           0.581795681359      0.572514282100     -0.577703368472
 STRESS|      y           0.603630532449     -0.779987471162     -0.165074907623
 STRESS|      z           0.545109131687      0.252679523553      0.799380443174

 Number of electrons:                                                         14
 Number of occupied orbitals:                                                  7
 Number of molecular orbitals:                                                 7

 Number of orbital functions:                                                 14
 Number of independent orbital functions:                                     14

 Extrapolation method: ASPC


 SCF WAVEFUNCTION OPTIMIZATION

  ----------------------------------- OT ---------------------------------------
  Minimizer      : CG                  : conjugate gradient
  Preconditioner : FULL_ALL            : diagonalization, state selective
  Precond_solver : DEFAULT
  Line search    : 2PNT                : 2 energies, one gradient
  stepsize       :    0.15000000                  energy_gap     :    0.08000000
  eps_taylor     :   0.10000E-15                  max_taylor     :             4
  ----------------------------------- OT ---------------------------------------

  Step     Update method      Time    Convergence         Total energy    Change
  ------------------------------------------------------------------------------
     1 OT CG       0.15E+00    0.3     0.00785467       -16.1021590238 -1.61E+01
     2 OT LS       0.20E+00    0.3                      -16.1027174321
     3 OT CG       0.20E+00    0.5     0.00065599       -16.1027480602 -5.89E-04
     4 OT LS       0.22E+00    0.3                      -16.1027526217
     5 OT CG       0.22E+00    0.5     0.00015000       -16.1027526867 -4.63E-06
     6 OT LS       0.15E+00    0.3                      -16.1027528190
     7 OT CG       0.15E+00    0.5     0.00001479       -16.1027528541 -1.67E-07

  *** SCF run converged in     7 steps ***


  Electronic density on regular grids:        -13.9999999998        0.0000000002
  Core density on regular grids:               13.9999999987       -0.0000000013
  Total charge density on r-space grids:       -0.0000000011
  Total charge density g-space grids:          -0.0000000011

  Overlap energy of the core charge distribution:               0.00000601147335
  Self energy of the core charge distribution:                -38.70122451907286
  Core Hamiltonian energy:                                     12.69010118853923
  Hartree energy:                                              15.52228260005215
  Exchange-correlation energy:                                 -5.61391813511729

  Total energy:                                               -16.10275285412542

  outer SCF iter =    1 RMS gradient =   0.15E-04 energy =        -16.1027528541
  outer SCF loop converged in   1 iterations or    7 steps


 ENERGY| Total FORCE_EVAL ( QS ) energy [a.u.]:              -16.102752855787614

 STRESS| Analytical stress tensor [GPa]
 STRESS|                        x                   y                   z
 STRESS|      x       -7.91348353890E-02  -8.57509523436E-02  -1.14604259177E-01
 STRESS|      y       -8.57509523436E-02  -9.18377459387E-02  -8.87623694901E-02
 STRESS|      z       -1.14604259177E-01  -8.87623694901E-02  -6.50479572582E-02
 STRESS| 1/3 Trace                                            -7.86735128620E-02
 STRESS| Determinant                                           9.06548239155E-05

 STRESS| Eigenvectors and eigenvalues of the analytical stress tensor [GPa]
 STRESS|                        1                   2                   3
 STRESS| Eigenvalues  -2.71534536945E-01  -7.72185749128E-03   4.32358558508E-02
 STRESS|      x           0.593255175509      0.476842771310     -0.648590215916
 STRESS|      y           0.565907686326     -0.820047167323     -0.085270944182
 STRESS|      z           0.572535402651      0.316454759506      0.756346215629

 Number of electrons:                                                         14
 Number of occupied orbitals:                                                  7
 Number of molecular orbitals:                                                 7

 Number of orbital functions:                                                 14
 Number of independent orbital functions:                                     14

 Extrapolation method: ASPC


 SCF WAVEFUNCTION OPTIMIZATION

  ----------------------------------- OT ---------------------------------------
  Minimizer      : CG                  : conjugate gradient
  Preconditioner : FULL_ALL            : diagonalization, state selective
  Precond_solver : DEFAULT
  Line search    : 2PNT                : 2 energies, one gradient
  stepsize       :    0.15000000                  energy_gap     :    0.08000000
  eps_taylor     :   0.10000E-15                  max_taylor     :             4
  ----------------------------------- OT ---------------------------------------

  Step     Update method      Time    Convergence         Total energy    Change
  ------------------------------------------------------------------------------
     1 OT CG       0.15E+00    0.3     0.00785627       -16.1021704154 -1.61E+01
     2 OT LS       0.19E+00    0.3                      -16.1027212555
     3 OT CG       0.19E+00    0.5     0.00071211       -16.1027485725 -5.78E-04
     4 OT LS       0.19E+00    0.3                      -16.1027532604
     5 OT CG       0.19E+00    0.5     0.00022767       -16.1027532613 -4.69E-06
     6 OT LS       0.17E+00    0.3                      -16.1027536857
     7 OT CG       0.17E+00    0.5     0.00001293       -16.1027536912 -4.30E-07

  *** SCF run converged in     7 steps ***


  Electronic density on regular grids:        -13.9999999998        0.0000000002
  Core density on regular grids:               13.9999999987       -0.0000000013
  Total charge density on r-space grids:       -0.0000000011
  Total charge density g-space grids:          -0.0000000011

  Overlap energy of the core charge distribution:               0.00000601147335
  Self energy of the core charge distribution:                -38.70122451907286
  Core Hamiltonian energy:                                     12.69015910488827
  Hartree energy:                                              15.52224003144122
  Exchange-correlation energy:                                 -5.61393431990933

  Total energy:                                               -16.10275369117936

  outer SCF iter =    1 RMS gradient =   0.13E-04 energy =        -16.1027536912
  outer SCF loop converged in   1 iterations or    7 steps


 ENERGY| Total FORCE_EVAL ( QS ) energy [a.u.]:              -16.102753692461441

 STRESS| Analytical stress tensor [GPa]
 STRESS|                        x                   y                   z
 STRESS|      x       -7.91442791138E-02  -8.57523662396E-02  -1.14600068536E-01
 STRESS|      y       -8.57523662396E-02  -9.18089592516E-02  -8.87567330837E-02
 STRESS|      z       -1.14600068536E-01  -8.87567330837E-02  -6.50618245752E-02
 STRESS| 1/3 Trace                                            -7.86716876469E-02
 STRESS| Determinant                                           9.04383444147E-05

 STRESS| Eigenvectors and eigenvalues of the analytical stress tensor [GPa]
 STRESS|                        1                   2                   3
 STRESS| Eigenvalues  -2.71527638753E-01  -7.70658888165E-03   4.32191646945E-02
 STRESS|      x           0.593286144971      0.476775972568     -0.648610994485
 STRESS|      y           0.565851720346     -0.820089130361     -0.085238775478
 STRESS|      z           0.572558626489      0.316446662560      0.756332022982

 Number of electrons:                                                         14
 Number of occupied orbitals:                                                  7
 Number of molecular orbitals:                                                 7

 Number of orbital functions:                                                 14
 Number of independent orbital functions:                                     14

 Extrapolation method: ASPC


 SCF WAVEFUNCTION OPTIMIZATION

  ----------------------------------- OT ---------------------------------------
  Minimizer      : CG                  : conjugate gradient
  Preconditioner : FULL_ALL            : diagonalization, state selective
  Precond_solver : DEFAULT
  Line search    : 2PNT                : 2 energies, one gradient
  stepsize       :    0.15000000                  energy_gap     :    0.08000000
  eps_taylor     :   0.10000E-15                  max_taylor     :             4
  ----------------------------------- OT ---------------------------------------

  Step     Update method      Time    Convergence         Total energy    Change
  ------------------------------------------------------------------------------
     1 OT CG       0.15E+00    0.3     0.00782629       -16.1019894850 -1.61E+01
     2 OT LS       0.19E+00    0.3                      -16.1025329454
     3 OT CG       0.19E+00    0.5     0.00069206       -16.1025564185 -5.67E-04
     4 OT LS       0.17E+00    0.3                      -16.1025603229
     5 OT CG       0.17E+00    0.5     0.00021601       -16.1025603731 -3.95E-06
     6 OT LS       0.19E+00    0.3                      -16.1025607945
     7 OT CG       0.19E+00    0.5     0.00000915       -16.1025607975 -4.24E-07

  *** SCF run converged in     7 steps ***


  Electronic density on regular grids:        -13.9999999998        0.0000000002
  Core density on regular grids:               13.9999999987       -0.0000000013
  Total charge density on r-space grids:       -0.0000000011
  Total charge density g-space grids:          -0.0000000011

  Overlap energy of the core charge distribution:               0.00000568784579
  Self energy of the core charge distribution:                -38.70122451907286
  Core Hamiltonian energy:                                     12.67602012441553
  Hartree energy:                                              15.52946395078073
  Exchange-correlation energy:                                 -5.60682604149819

  Total energy:                                               -16.10256079752900

  outer SCF iter =    1 RMS gradient =   0.91E-05 energy =        -16.1025607975
  outer SCF loop converged in   1 iterations or    7 steps


 ENERGY| Total FORCE_EVAL ( QS ) energy [a.u.]:              -16.102560798155931

 STRESS| Analytical stress tensor [GPa]
 STRESS|                        x                   y                   z
 STRESS|      x       -1.26995219551E-01  -1.18988445854E-01  -1.23636876154E-01
 STRESS|      y       -1.18988445854E-01  -1.17807450783E-01  -1.02919322420E-01
 STRESS|      z       -1.23636876154E-01  -1.02919322420E-01  -1.37990117931E-01
 STRESS| 1/3 Trace                                            -1.27597596088E-01
 STRESS| Determinant                                           7.06073302892E-06

 STRESS| Eigenvectors and eigenvalues of the analytical stress tensor [GPa]
 STRESS|                        1                   2                   3
 STRESS| Eigenvalues  -3.58454060360E-01  -2.51227864286E-02   7.84058523277E-04
 STRESS|      x           0.595481805468     -0.123314414064     -0.793848206297
 STRESS|      y           0.546338385342     -0.662308180203      0.512700929527
 STRESS|      z           0.588995575584      0.739013822415      0.327021073055

 Number of electrons:                                                         14
 Number of occupied orbitals:                                                  7
 Number of molecular orbitals:                                                 7

 Number of orbital functions:                                                 14
 Number of independent orbital functions:                                     14

 Extrapolation method: ASPC


 SCF WAVEFUNCTION OPTIMIZATION

  ----------------------------------- OT ---------------------------------------
  Minimizer      : CG                  : conjugate gradient
  Preconditioner : FULL_ALL            : diagonalization, state selective
  Precond_solver : DEFAULT
  Line search    : 2PNT                : 2 energies, one gradient
  stepsize       :    0.15000000                  energy_gap     :    0.08000000
  eps_taylor     :   0.10000E-15                  max_taylor     :             4
  ----------------------------------- OT ---------------------------------------

  Step     Update method      Time    Convergence         Total energy    Change
  ------------------------------------------------------------------------------
     1 OT CG       0.15E+00    0.3     0.00790471       -16.1019870242 -1.61E+01
     2 OT LS       0.19E+00    0.3                      -16.1025335409
     3 OT CG       0.19E+00    0.5     0.00079879       -16.1025547390 -5.68E-04
     4 OT LS       0.15E+00    0.3                      -16.1025593853
     5 OT CG       0.15E+00    0.5     0.00021341       -16.1025595780 -4.84E-06
     6 OT LS       0.21E+00    0.3                      -16.1025600091
     7 OT CG       0.21E+00    0.5     0.00000792       -16.1025600382 -4.60E-07

  *** SCF run converged in     7 steps ***


  Electronic density on regular grids:        -13.9999999997        0.0000000003
  Core density on regular grids:               13.9999999987       -0.0000000013
  Total charge density on r-space grids:       -0.0000000011
  Total charge density g-space grids:          -0.0000000011

  Overlap energy of the core charge distribution:               0.00000568784579
  Self energy of the core charge distribution:                -38.70122451907286
  Core Hamiltonian energy:                                     12.67602949802704
  Hartree energy:                                              15.52945955729323
  Exchange-correlation energy:                                 -5.60683026225471

  Total energy:                                               -16.10256003816151

  outer SCF iter =    1 RMS gradient =   0.79E-05 energy =        -16.1025600382
  outer SCF loop converged in   1 iterations or    7 steps


 ENERGY| Total FORCE_EVAL ( QS ) energy [a.u.]:              -16.102560038665196

 STRESS| Analytical stress tensor [GPa]
 STRESS|                        x                   y                   z
 STRESS|      x       -1.27002190886E-01  -1.18967273246E-01  -1.23623471007E-01
 STRESS|      y       -1.18967273246E-01  -1.17787417666E-01  -1.02906635163E-01
 STRESS|      z       -1.23623471007E-01  -1.02906635163E-01  -1.37999781852E-01
 STRESS| 1/3 Trace                                            -1.27596463468E-01
 STRESS| Determinant                                           6.88131503644E-06

 STRESS| Eigenvectors and eigenvalues of the analytical stress tensor [GPa]
 STRESS|                        1                   2                   3
 STRESS| Eigenvalues  -3.58422561225E-01  -2.51307880781E-02   7.63958898986E-04
 STRESS|      x           0.595490981305     -0.123537698476     -0.793806606321
 STRESS|      y           0.546297683116     -0.662207578151      0.512874219338
 STRESS|      z           0.589024050957      0.739066682035      0.326850282086

 Number of electrons:                                                         14
 Number of occupied orbitals:                                                  7
 Number of molecular orbitals:                                                 7

 Number of orbital functions:                                                 14
 Number of independent orbital functions:                                     14

 Extrapolation method: ASPC


 SCF WAVEFUNCTION OPTIMIZATION

  ----------------------------------- OT ---------------------------------------
  Minimizer      : CG                  : conjugate gradient
  Preconditioner : FULL_ALL            : diagonalization, state selective
  Precond_solver : DEFAULT
  Line search    : 2PNT                : 2 energies, one gradient
  stepsize       :    0.15000000                  energy_gap     :    0.08000000
  eps_taylor     :   0.10000E-15                  max_taylor     :             4
  ----------------------------------- OT ---------------------------------------

  Step     Update method      Time    Convergence         Total energy    Change
  ------------------------------------------------------------------------------
     1 OT CG       0.15E+00    0.3     0.00794357       -16.1017326589 -1.61E+01
     2 OT LS       0.18E+00    0.3                      -16.1022823074
     3 OT CG       0.18E+00    0.5     0.00075368       -16.1023010129 -5.68E-04
     4 OT LS       0.15E+00    0.3                      -16.1023048385
     5 OT CG       0.15E+00    0.5     0.00018489       -16.1023050874 -4.07E-06
     6 OT LS       0.21E+00    0.3                      -16.1023054105
     7 OT CG       0.21E+00    0.5     0.00000880       -16.1023054440 -3.57E-07

  *** SCF run converged in     7 steps ***


  Electronic density on regular grids:        -13.9999999997        0.0000000003
  Core density on regular grids:               13.9999999987       -0.0000000013
  Total charge density on r-space grids:       -0.0000000011
  Total charge density g-space grids:          -0.0000000011

  Overlap energy of the core charge distribution:               0.00000565449472
  Self energy of the core charge distribution:                -38.70122451907286
  Core Hamiltonian energy:                                     12.66358244032424
  Hartree energy:                                              15.53601339480453
  Exchange-correlation energy:                                 -5.60068241456278

  Total energy:                                               -16.10230544401215

  outer SCF iter =    1 RMS gradient =   0.88E-05 energy =        -16.1023054440
  outer SCF loop converged in   1 iterations or    7 steps


 ENERGY| Total FORCE_EVAL ( QS ) energy [a.u.]:              -16.102305444707692

 STRESS| Analytical stress tensor [GPa]
 STRESS|                        x                   y                   z
 STRESS|      x       -1.67377341900E-01  -1.47509244187E-01  -1.27119836657E-01
 STRESS|      y       -1.47509244187E-01  -1.39255187869E-01  -1.11114193806E-01
 STRESS|      z       -1.27119836657E-01  -1.11114193806E-01  -2.01179158961E-01
 STRESS| 1/3 Trace                                            -1.69270562910E-01
 STRESS| Determinant                                          -1.61957210058E-04

 STRESS| Eigenvectors and eigenvalues of the analytical stress tensor [GPa]
 STRESS|                        1                   2                   3
 STRESS| Eigenvalues  -4.27444401384E-01  -7.53379985429E-02  -5.02928880246E-03
 STRESS|      x           0.596156574381     -0.416909378047     -0.686136946475
 STRESS|      y           0.535709499079     -0.429986075227      0.726723680437
 STRESS|      z           0.598007250306      0.800811179746      0.032996711564

 Number of electrons:                                                         14
 Number of occupied orbitals:                                                  7
 Number of molecular orbitals:                                                 7

 Number of orbital functions:                                                 14
 Number of independent orbital functions:                                     14

 Extrapolation method: ASPC


 SCF WAVEFUNCTION OPTIMIZATION

  ----------------------------------- OT ---------------------------------------
  Minimizer      : CG                  : conjugate gradient
  Preconditioner : FULL_ALL            : diagonalization, state selective
  Precond_solver : DEFAULT
  Line search    : 2PNT                : 2 energies, one gradient
  stepsize       :    0.15000000                  energy_gap     :    0.08000000
  eps_taylor     :   0.10000E-15                  max_taylor     :             4
  ----------------------------------- OT ---------------------------------------

  Step     Update method      Time    Convergence         Total energy    Change
  ------------------------------------------------------------------------------
     1 OT CG       0.15E+00    0.3     0.00806018       -16.1017228450 -1.61E+01
     2 OT LS       0.18E+00    0.3                      -16.1022822460
     3 OT CG       0.18E+00    0.5     0.00084520       -16.1022998530 -5.77E-04
     4 OT LS       0.14E+00    0.3                      -16.1023045055
     5 OT CG       0.14E+00    0.5     0.00017742       -16.1023048651 -5.01E-06
     6 OT LS       0.22E+00    0.3                      -16.1023051640
     7 OT CG       0.22E+00    0.5     0.00000874       -16.1023052076 -3.43E-07

  *** SCF run converged in     7 steps ***


  Electronic density on regular grids:        -13.9999999997        0.0000000003
  Core density on regular grids:               13.9999999987       -0.0000000013
  Total charge density on r-space grids:       -0.0000000011
  Total charge density g-space grids:          -0.0000000011

  Overlap energy of the core charge distribution:               0.00000565449472
  Self energy of the core charge distribution:                -38.70122451907286
  Core Hamiltonian energy:                                     12.66358223486602
  Hartree energy:                                              15.53601320333450
  Exchange-correlation energy:                                 -5.60068178121540

  Total energy:                                               -16.10230520759301

  outer SCF iter =    1 RMS gradient =   0.87E-05 energy =        -16.1023052076
  outer SCF loop converged in   1 iterations or    7 steps


 ENERGY| Total FORCE_EVAL ( QS ) energy [a.u.]:              -16.102305208294133

 STRESS| Analytical stress tensor [GPa]
 STRESS|                        x                   y                   z
 STRESS|      x       -1.67372304682E-01  -1.47493795840E-01  -1.27104935487E-01
 STRESS|      y       -1.47493795840E-01  -1.39246110429E-01  -1.11102946070E-01
 STRESS|      z       -1.27104935487E-01  -1.11102946070E-01  -2.01190816548E-01
 STRESS| 1/3 Trace                                            -1.69269743886E-01
 STRESS| Determinant                                          -1.62253515991E-04

 STRESS| Eigenvectors and eigenvalues of the analytical stress tensor [GPa]
 STRESS|                        1                   2                   3
 STRESS| Eigenvalues  -4.27416476611E-01  -7.53550778699E-02  -5.03767717743E-03
 STRESS|      x           0.596146018567     -0.416965410878     -0.686112068600
 STRESS|      y           0.535693437596     -0.429963205446      0.726749050828
 STRESS|      z           0.598032160894      0.800794285752      0.032955218745

 Number of electrons:                                                         14
 Number of occupied orbitals:                                                  7
 Number of molecular orbitals:                                                 7

 Number of orbital functions:                                                 14
 Number of independent orbital functions:                                     14

 Extrapolation method: ASPC


 SCF WAVEFUNCTION OPTIMIZATION

  ----------------------------------- OT ---------------------------------------
  Minimizer      : CG                  : conjugate gradient
  Preconditioner : FULL_ALL            : diagonalization, state selective
  Precond_solver : DEFAULT
  Line search    : 2PNT                : 2 energies, one gradient
  stepsize       :    0.15000000                  energy_gap     :    0.08000000
  eps_taylor     :   0.10000E-15                  max_taylor     :             4
  ----------------------------------- OT ---------------------------------------

  Step     Update method      Time    Convergence         Total energy    Change
  ------------------------------------------------------------------------------
     1 OT CG       0.15E+00    0.3     0.00811789       -16.1014965604 -1.61E+01
     2 OT LS       0.18E+00    0.3                      -16.1020636551
     3 OT CG       0.18E+00    0.5     0.00075390       -16.1020799715 -5.83E-04
     4 OT LS       0.14E+00    0.3                      -16.1020835461
     5 OT CG       0.14E+00    0.5     0.00015805       -16.1020838621 -3.89E-06
     6 OT LS       0.22E+00    0.3                      -16.1020840969
     7 OT CG       0.22E+00    0.5     0.00001117       -16.1020841324 -2.70E-07

  *** SCF run converged in     7 steps ***


  Electronic density on regular grids:        -13.9999999997        0.0000000003
  Core density on regular grids:               13.9999999987       -0.0000000013
  Total charge density on r-space grids:       -0.0000000011
  Total charge density g-space grids:          -0.0000000011

  Overlap energy of the core charge distribution:               0.00000592517796
  Self energy of the core charge distribution:                -38.70122451907286
  Core Hamiltonian energy:                                     12.65486279843890
  Hartree energy:                                              15.54057889980561
  Exchange-correlation energy:                                 -5.59630723679481

  Total energy:                                               -16.10208413244521

  outer SCF iter =    1 RMS gradient =   0.11E-04 energy =        -16.1020841324
  outer SCF loop converged in   1 iterations or    7 steps


 ENERGY| Total FORCE_EVAL ( QS ) energy [a.u.]:              -16.102084133501364

 STRESS| Analytical stress tensor [GPa]
 STRESS|                        x                   y                   z
 STRESS|      x       -1.95973582882E-01  -1.67696737535E-01  -1.24082285831E-01
 STRESS|      y       -1.67696737535E-01  -1.53298882902E-01  -1.12159591804E-01
 STRESS|      z       -1.24082285831E-01  -1.12159591804E-01  -2.46895388694E-01
 STRESS| 1/3 Trace                                            -1.98722618159E-01
 STRESS| Determinant                                          -3.16242796554E-04

 STRESS| Eigenvectors and eigenvalues of the analytical stress tensor [GPa]
 STRESS|                        1                   2                   3
 STRESS| Eigenvalues  -4.69401856914E-01  -1.21207648556E-01  -5.55834900816E-03
 STRESS|      x           0.597996947023     -0.460687866940     -0.655870673690
 STRESS|      y           0.530441728575     -0.385981322314      0.754751609082
 STRESS|      z           0.600858738755      0.799240331865     -0.013552416121

 Number of electrons:                                                         14
 Number of occupied orbitals:                                                  7
 Number of molecular orbitals:                                                 7

 Number of orbital functions:                                                 14
 Number of independent orbital functions:                                     14

 Extrapolation method: ASPC


 SCF WAVEFUNCTION OPTIMIZATION

  ----------------------------------- OT ---------------------------------------
  Minimizer      : CG                  : conjugate gradient
  Preconditioner : FULL_ALL            : diagonalization, state selective
  Precond_solver : DEFAULT
  Line search    : 2PNT                : 2 energies, one gradient
  stepsize       :    0.15000000                  energy_gap     :    0.08000000
  eps_taylor     :   0.10000E-15                  max_taylor     :             4
  ----------------------------------- OT ---------------------------------------

  Step     Update method      Time    Convergence         Total energy    Change
  ------------------------------------------------------------------------------
     1 OT CG       0.15E+00    0.3     0.00823669       -16.1014861679 -1.61E+01
     2 OT LS       0.18E+00    0.3                      -16.1020653232
     3 OT CG       0.18E+00    0.5     0.00081834       -16.1020814117 -5.95E-04
     4 OT LS       0.14E+00    0.3                      -16.1020856261
     5 OT CG       0.14E+00    0.5     0.00015807       -16.1020859952 -4.58E-06
     6 OT LS       0.22E+00    0.3                      -16.1020862307
     7 OT CG       0.22E+00    0.5     0.00001116       -16.1020862705 -2.75E-07

  *** SCF run converged in     7 steps ***


  Electronic density on regular grids:        -13.9999999997        0.0000000003
  Core density on regular grids:               13.9999999987       -0.0000000013
  Total charge density on r-space grids:       -0.0000000011
  Total charge density g-space grids:          -0.0000000011

  Overlap energy of the core charge distribution:               0.00000592517796
  Self energy of the core charge distribution:                -38.70122451907286
  Core Hamiltonian energy:                                     12.65486720210705
  Hartree energy:                                              15.54057194012003
  Exchange-correlation energy:                                 -5.59630681885398

  Total energy:                                               -16.10208627052180

  outer SCF iter =    1 RMS gradient =   0.11E-04 energy =        -16.1020862705
  outer SCF loop converged in   1 iterations or    7 steps


 ENERGY| Total FORCE_EVAL ( QS ) energy [a.u.]:              -16.102086271502362

 STRESS| Analytical stress tensor [GPa]
 STRESS|                        x                   y                   z
 STRESS|      x       -1.95947204315E-01  -1.67702608051E-01  -1.24076884978E-01
 STRESS|      y       -1.67702608051E-01  -1.53288112676E-01  -1.12154581008E-01
 STRESS|      z       -1.24076884978E-01  -1.12154581008E-01  -2.46910212791E-01
 STRESS| 1/3 Trace                                            -1.98715176594E-01
 STRESS| Determinant                                          -3.14940617304E-04

 STRESS| Eigenvectors and eigenvalues of the analytical stress tensor [GPa]
 STRESS|                        1                   2                   3
 STRESS| Eigenvalues  -4.69391394995E-01  -1.21219071412E-01  -5.53506337565E-03
 STRESS|      x           0.597972266918     -0.460675168263     -0.655902094327
 STRESS|      y           0.530439203949     -0.386037067944      0.754724872445
 STRESS|      z           0.600885528958      0.799220727659     -0.013520708900

 Number of electrons:                                                         14
 Number of occupied orbitals:                                                  7
 Number of molecular orbitals:                                                 7

 Number of orbital functions:                                                 14
 Number of independent orbital functions:                                     14

 Extrapolation method: ASPC


 SCF WAVEFUNCTION OPTIMIZATION

  ----------------------------------- OT ---------------------------------------
  Minimizer      : CG                  : conjugate gradient
  Preconditioner : FULL_ALL            : diagonalization, state selective
  Precond_solver : DEFAULT
  Line search    : 2PNT                : 2 energies, one gradient
  stepsize       :    0.15000000                  energy_gap     :    0.08000000
  eps_taylor     :   0.10000E-15                  max_taylor     :             4
  ----------------------------------- OT ---------------------------------------

  Step     Update method      Time    Convergence         Total energy    Change
  ------------------------------------------------------------------------------
     1 OT CG       0.15E+00    0.3     0.00829235       -16.1014667495 -1.61E+01
     2 OT LS       0.18E+00    0.3                      -16.1020551820
     3 OT CG       0.18E+00    0.5     0.00068401       -16.1020708528 -6.04E-04
     4 OT LS       0.14E+00    0.3                      -16.1020738466
     5 OT CG       0.14E+00    0.5     0.00015208       -16.1020740768 -3.22E-06
     6 OT LS       0.22E+00    0.3                      -16.1020742933
     7 OT CG       0.22E+00    0.5     0.00001303       -16.1020743232 -2.46E-07

  *** SCF run converged in     7 steps ***


  Electronic density on regular grids:        -13.9999999997        0.0000000003
  Core density on regular grids:               13.9999999987       -0.0000000013
  Total charge density on r-space grids:       -0.0000000011
  Total charge density g-space grids:          -0.0000000011

  Overlap energy of the core charge distribution:               0.00000653796796
  Self energy of the core charge distribution:                -38.70122451907286
  Core Hamiltonian energy:                                     12.65134504100945
  Hartree energy:                                              15.54211527301323
  Exchange-correlation energy:                                 -5.59431665615678

  Total energy:                                               -16.10207432323901

  outer SCF iter =    1 RMS gradient =   0.13E-04 energy =        -16.1020743232
  outer SCF loop converged in   1 iterations or    7 steps


 ENERGY| Total FORCE_EVAL ( QS ) energy [a.u.]:              -16.102074324519013

 STRESS| Analytical stress tensor [GPa]
 STRESS|                        x                   y                   z
 STRESS|      x       -2.09956922556E-01  -1.76815209535E-01  -1.14395353180E-01
 STRESS|      y       -1.76815209535E-01  -1.57827182695E-01  -1.05828414088E-01
 STRESS|      z       -1.14395353180E-01  -1.05828414088E-01  -2.69570357383E-01
 STRESS| 1/3 Trace                                            -2.12451487545E-01
 STRESS| Determinant                                          -3.69314153672E-04

 STRESS| Eigenvectors and eigenvalues of the analytical stress tensor [GPa]
 STRESS|                        1                   2                   3
 STRESS| Eigenvalues  -4.78663781374E-01  -1.53669836956E-01  -5.02084430378E-03
 STRESS|      x           0.602538941164     -0.471014744459     -0.644276287692
 STRESS|      y           0.529136979174     -0.368569301262      0.764310622350
 STRESS|      z           0.597462033648      0.801437321735     -0.027153962502

 Number of electrons:                                                         14
 Number of occupied orbitals:                                                  7
 Number of molecular orbitals:                                                 7

 Number of orbital functions:                                                 14
 Number of independent orbital functions:                                     14

 Extrapolation method: ASPC


 SCF WAVEFUNCTION OPTIMIZATION

  ----------------------------------- OT ---------------------------------------
  Minimizer      : CG                  : conjugate gradient
  Preconditioner : FULL_ALL            : diagonalization, state selective
  Precond_solver : DEFAULT
  Line search    : 2PNT                : 2 energies, one gradient
  stepsize       :    0.15000000                  energy_gap     :    0.08000000
  eps_taylor     :   0.10000E-15                  max_taylor     :             4
  ----------------------------------- OT ---------------------------------------

  Step     Update method      Time    Convergence         Total energy    Change
  ------------------------------------------------------------------------------
     1 OT CG       0.15E+00    0.3     0.00839740       -16.1014571100 -1.61E+01
     2 OT LS       0.18E+00    0.3                      -16.1020574704
     3 OT CG       0.18E+00    0.5     0.00072327       -16.1020734176 -6.16E-04
     4 OT LS       0.14E+00    0.3                      -16.1020768208
     5 OT CG       0.14E+00    0.5     0.00015994       -16.1020770603 -3.64E-06
     6 OT LS       0.22E+00    0.3                      -16.1020773005
     7 OT CG       0.22E+00    0.5     0.00001392       -16.1020773342 -2.74E-07

  *** SCF run converged in     7 steps ***


  Electronic density on regular grids:        -13.9999999997        0.0000000003
  Core density on regular grids:               13.9999999987       -0.0000000013
  Total charge density on r-space grids:       -0.0000000011
  Total charge density g-space grids:          -0.0000000011

  Overlap energy of the core charge distribution:               0.00000653796796
  Self energy of the core charge distribution:                -38.70122451907286
  Core Hamiltonian energy:                                     12.65136766006577
  Hartree energy:                                              15.54209123814812
  Exchange-correlation energy:                                 -5.59431825131710

  Total energy:                                               -16.10207733420811

  outer SCF iter =    1 RMS gradient =   0.14E-04 energy =        -16.1020773342
  outer SCF loop converged in   1 iterations or    7 steps


 ENERGY| Total FORCE_EVAL ( QS ) energy [a.u.]:              -16.102077335527326

 STRESS| Analytical stress tensor [GPa]
 STRESS|                        x                   y                   z
 STRESS|      x       -2.09929863204E-01  -1.76834399601E-01  -1.14402008415E-01
 STRESS|      y       -1.76834399601E-01  -1.57825801608E-01  -1.05833614790E-01
 STRESS|      z       -1.14402008415E-01  -1.05833614790E-01  -2.69588346726E-01
 STRESS| 1/3 Trace                                            -2.12448003846E-01
 STRESS| Determinant                                          -3.67062657323E-04

 STRESS| Eigenvectors and eigenvalues of the analytical stress tensor [GPa]
 STRESS|                        1                   2                   3
 STRESS| Eigenvalues  -4.78680309336E-01  -1.53673767023E-01  -4.98993517875E-03
 STRESS|      x           0.602508816966     -0.470986855232     -0.644324846392
 STRESS|      y           0.529144412528     -0.368640346273      0.764271212195
 STRESS|      z           0.597485829262      0.801421036222     -0.027111003902

 Number of electrons:                                                         14
 Number of occupied orbitals:                                                  7
 Number of molecular orbitals:                                                 7

 Number of orbital functions:                                                 14
 Number of independent orbital functions:                                     14

 Extrapolation method: ASPC


 SCF WAVEFUNCTION OPTIMIZATION

  ----------------------------------- OT ---------------------------------------
  Minimizer      : CG                  : conjugate gradient
  Preconditioner : FULL_ALL            : diagonalization, state selective
  Precond_solver : DEFAULT
  Line search    : 2PNT                : 2 energies, one gradient
  stepsize       :    0.15000000                  energy_gap     :    0.08000000
  eps_taylor     :   0.10000E-15                  max_taylor     :             4
  ----------------------------------- OT ---------------------------------------

  Step     Update method      Time    Convergence         Total energy    Change
  ------------------------------------------------------------------------------
     1 OT CG       0.15E+00    0.3     0.00845116       -16.1017944321 -1.61E+01
     2 OT LS       0.18E+00    0.3                      -16.1024049184
     3 OT CG       0.18E+00    0.5     0.00056613       -16.1024210268 -6.27E-04
     4 OT LS       0.15E+00    0.3                      -16.1024233631
     5 OT CG       0.15E+00    0.5     0.00016014       -16.1024234282 -2.40E-06
     6 OT LS       0.20E+00    0.3                      -16.1024236664
     7 OT CG       0.20E+00    0.5     0.00001492       -16.1024236799 -2.52E-07

  *** SCF run converged in     7 steps ***


  Electronic density on regular grids:        -13.9999999997        0.0000000003
  Core density on regular grids:               13.9999999987       -0.0000000013
  Total charge density on r-space grids:       -0.0000000010
  Total charge density g-space grids:          -0.0000000010

  Overlap energy of the core charge distribution:               0.00000755866404
  Self energy of the core charge distribution:                -38.70122451907286
  Core Hamiltonian energy:                                     12.65389132255387
  Hartree energy:                                              15.53997549391729
  Exchange-correlation energy:                                 -5.59507353597011

  Total energy:                                               -16.10242367990777

  outer SCF iter =    1 RMS gradient =   0.15E-04 energy =        -16.1024236799
  outer SCF loop converged in   1 iterations or    7 steps


 ENERGY| Total FORCE_EVAL ( QS ) energy [a.u.]:              -16.102423681484890

 STRESS| Analytical stress tensor [GPa]
 STRESS|                        x                   y                   z
 STRESS|      x       -2.07942900060E-01  -1.73183647012E-01  -9.86029549950E-02
 STRESS|      y       -1.73183647012E-01  -1.51668654777E-01  -9.26505191257E-02
 STRESS|      z       -9.86029549950E-02  -9.26505191257E-02  -2.65935699688E-01
 STRESS| 1/3 Trace                                            -2.08515751508E-01
 STRESS| Determinant                                          -3.15761915958E-04

 STRESS| Eigenvectors and eigenvalues of the analytical stress tensor [GPa]
 STRESS|                        1                   2                   3
 STRESS| Eigenvalues  -4.52958216391E-01  -1.68450672513E-01  -4.13836562035E-03
 STRESS|      x           0.611598729644     -0.467569241102     -0.638220963832
 STRESS|      y           0.531711094224     -0.354433544906      0.769194497201
 STRESS|      z           0.585858605960      0.809787544373     -0.031840647005

 Number of electrons:                                                         14
 Number of occupied orbitals:                                                  7
 Number of molecular orbitals:                                                 7

 Number of orbital functions:                                                 14
 Number of independent orbital functions:                                     14

 Extrapolation method: ASPC


 SCF WAVEFUNCTION OPTIMIZATION

  ----------------------------------- OT ---------------------------------------
  Minimizer      : CG                  : conjugate gradient
  Preconditioner : FULL_ALL            : diagonalization, state selective
  Precond_solver : DEFAULT
  Line search    : 2PNT                : 2 energies, one gradient
  stepsize       :    0.15000000                  energy_gap     :    0.08000000
  eps_taylor     :   0.10000E-15                  max_taylor     :             4
  ----------------------------------- OT ---------------------------------------

  Step     Update method      Time    Convergence         Total energy    Change
  ------------------------------------------------------------------------------
     1 OT CG       0.15E+00    0.3     0.00853683       -16.1017833649 -1.61E+01
     2 OT LS       0.18E+00    0.3                      -16.1024043259
     3 OT CG       0.18E+00    0.5     0.00058947       -16.1024208723 -6.38E-04
     4 OT LS       0.16E+00    0.3                      -16.1024234887
     5 OT CG       0.16E+00    0.5     0.00017171       -16.1024235408 -2.67E-06
     6 OT LS       0.20E+00    0.3                      -16.1024238139
     7 OT CG       0.20E+00    0.5     0.00001651       -16.1024238263 -2.85E-07

  *** SCF run converged in     7 steps ***


  Electronic density on regular grids:        -13.9999999997        0.0000000003
  Core density on regular grids:               13.9999999987       -0.0000000013
  Total charge density on r-space grids:       -0.0000000011
  Total charge density g-space grids:          -0.0000000011

  Overlap energy of the core charge distribution:               0.00000755866404
  Self energy of the core charge distribution:                -38.70122451907286
  Core Hamiltonian energy:                                     12.65394819075394
  Hartree energy:                                              15.53992213338963
  Exchange-correlation energy:                                 -5.59507718999183

  Total energy:                                               -16.10242382625708

  outer SCF iter =    1 RMS gradient =   0.17E-04 energy =        -16.1024238263
  outer SCF loop converged in   1 iterations or    7 steps


 ENERGY| Total FORCE_EVAL ( QS ) energy [a.u.]:              -16.102423828129758

 STRESS| Analytical stress tensor [GPa]
 STRESS|                        x                   y                   z
 STRESS|      x       -2.07959410196E-01  -1.73200935782E-01  -9.86111122984E-02
 STRESS|      y       -1.73200935782E-01  -1.51702896673E-01  -9.26644293060E-02
 STRESS|      z       -9.86111122984E-02  -9.26644293060E-02  -2.65953286386E-01
 STRESS| 1/3 Trace                                            -2.08538531085E-01
 STRESS| Determinant                                          -3.16554308738E-04

 STRESS| Eigenvectors and eigenvalues of the analytical stress tensor [GPa]
 STRESS|                        1                   2                   3
 STRESS| Eigenvalues  -4.53005865911E-01  -1.68461684196E-01  -4.14804314856E-03
 STRESS|      x           0.611591018989     -0.467546923451     -0.638244702181
 STRESS|      y           0.531739647494     -0.354433818655      0.769174632627
 STRESS|      z           0.585840740112      0.809800310302     -0.031844695947

 Number of electrons:                                                         14
 Number of occupied orbitals:                                                  7
 Number of molecular orbitals:                                                 7

 Number of orbital functions:                                                 14
 Number of independent orbital functions:                                     14

 Extrapolation method: ASPC


 SCF WAVEFUNCTION OPTIMIZATION

  ----------------------------------- OT ---------------------------------------
  Minimizer      : CG                  : conjugate gradient
  Preconditioner : FULL_ALL            : diagonalization, state selective
  Precond_solver : DEFAULT
  Line search    : 2PNT                : 2 energies, one gradient
  stepsize       :    0.15000000                  energy_gap     :    0.08000000
  eps_taylor     :   0.10000E-15                  max_taylor     :             4
  ----------------------------------- OT ---------------------------------------

  Step     Update method      Time    Convergence         Total energy    Change
  ------------------------------------------------------------------------------
     1 OT CG       0.15E+00    0.3     0.00859358       -16.1025156724 -1.61E+01
     2 OT LS       0.18E+00    0.3                      -16.1031474182
     3 OT CG       0.18E+00    0.5     0.00046039       -16.1031644748 -6.49E-04
     4 OT LS       0.19E+00    0.3                      -16.1031664691
     5 OT CG       0.19E+00    0.5     0.00014595       -16.1031664804 -2.01E-06
     6 OT LS       0.16E+00    0.3                      -16.1031666465
     7 OT CG       0.16E+00    0.5     0.00001646       -16.1031666521 -1.72E-07

  *** SCF run converged in     7 steps ***


  Electronic density on regular grids:        -13.9999999997        0.0000000003
  Core density on regular grids:               13.9999999987       -0.0000000013
  Total charge density on r-space grids:       -0.0000000011
  Total charge density g-space grids:          -0.0000000011

  Overlap energy of the core charge distribution:               0.00000907490848
  Self energy of the core charge distribution:                -38.70122451907286
  Core Hamiltonian energy:                                     12.66275973328263
  Hartree energy:                                              15.53395973994496
  Exchange-correlation energy:                                 -5.59867068111812

  Total energy:                                               -16.10316665205491

  outer SCF iter =    1 RMS gradient =   0.16E-04 energy =        -16.1031666521
  outer SCF loop converged in   1 iterations or    7 steps


 ENERGY| Total FORCE_EVAL ( QS ) energy [a.u.]:              -16.103166654009087

 STRESS| Analytical stress tensor [GPa]
 STRESS|                        x                   y                   z
 STRESS|      x       -1.89839357401E-01  -1.56248386042E-01  -7.77501407305E-02
 STRESS|      y       -1.56248386042E-01  -1.34581854821E-01  -7.37045322756E-02
 STRESS|      z       -7.77501407305E-02  -7.37045322756E-02  -2.34941177353E-01
 STRESS| 1/3 Trace                                            -1.86454129858E-01
 STRESS| Determinant                                          -2.12686783635E-04

 STRESS| Eigenvectors and eigenvalues of the analytical stress tensor [GPa]
 STRESS|                        1                   2                   3
 STRESS| Eigenvalues  -3.93191813929E-01  -1.62848946966E-01  -3.32162867934E-03
 STRESS|      x           0.628670286075     -0.450880108791     -0.633625124899
 STRESS|      y           0.539471620156     -0.334002076388      0.772924953676
 STRESS|      z           0.560128594568      0.827737724443     -0.033259841873

 Number of electrons:                                                         14
 Number of occupied orbitals:                                                  7
 Number of molecular orbitals:                                                 7

 Number of orbital functions:                                                 14
 Number of independent orbital functions:                                     14

 Extrapolation method: ASPC


 SCF WAVEFUNCTION OPTIMIZATION

  ----------------------------------- OT ---------------------------------------
  Minimizer      : CG                  : conjugate gradient
  Preconditioner : FULL_ALL            : diagonalization, state selective
  Precond_solver : DEFAULT
  Line search    : 2PNT                : 2 energies, one gradient
  stepsize       :    0.15000000                  energy_gap     :    0.08000000
  eps_taylor     :   0.10000E-15                  max_taylor     :             4
  ----------------------------------- OT ---------------------------------------

  Step     Update method      Time    Convergence         Total energy    Change
  ------------------------------------------------------------------------------
     1 OT CG       0.15E+00    0.3     0.00865993       -16.1025027413 -1.61E+01
     2 OT LS       0.18E+00    0.3                      -16.1031430424
     3 OT CG       0.18E+00    0.5     0.00048483       -16.1031604212 -6.58E-04
     4 OT LS       0.20E+00    0.3                      -16.1031626981
     5 OT CG       0.20E+00    0.5     0.00015012       -16.1031627230 -2.30E-06
     6 OT LS       0.16E+00    0.3                      -16.1031628900
     7 OT CG       0.16E+00    0.5     0.00001713       -16.1031629004 -1.77E-07

  *** SCF run converged in     7 steps ***


  Electronic density on regular grids:        -13.9999999998        0.0000000002
  Core density on regular grids:               13.9999999987       -0.0000000013
  Total charge density on r-space grids:       -0.0000000011
  Total charge density g-space grids:          -0.0000000011

  Overlap energy of the core charge distribution:               0.00000907490848
  Self energy of the core charge distribution:                -38.70122451907286
  Core Hamiltonian energy:                                     12.66287085864757
  Hartree energy:                                              15.53386327440162
  Exchange-correlation energy:                                 -5.59868158931695

  Total energy:                                               -16.10316290043214

  outer SCF iter =    1 RMS gradient =   0.17E-04 energy =        -16.1031629004
  outer SCF loop converged in   1 iterations or    7 steps


 ENERGY| Total FORCE_EVAL ( QS ) energy [a.u.]:              -16.103162902526847

 STRESS| Analytical stress tensor [GPa]
 STRESS|                        x                   y                   z
 STRESS|      x       -1.89910034858E-01  -1.56271427873E-01  -7.77554406490E-02
 STRESS|      y       -1.56271427873E-01  -1.34644948097E-01  -7.37144723288E-02
 STRESS|      z       -7.77554406490E-02  -7.37144723288E-02  -2.34973803907E-01
 STRESS| 1/3 Trace                                            -1.86509595621E-01
 STRESS| Determinant                                          -2.15555418885E-04

 STRESS| Eigenvectors and eigenvalues of the analytical stress tensor [GPa]
 STRESS|                        1                   2                   3
 STRESS| Eigenvalues  -3.93273717275E-01  -1.62890193445E-01  -3.36487614188E-03
 STRESS|      x           0.628709873059     -0.450832494661     -0.633619726079
 STRESS|      y           0.539510501872     -0.333931325316      0.772928385003
 STRESS|      z           0.560046706881      0.827792203231     -0.033282944305

 Number of electrons:                                                         14
 Number of occupied orbitals:                                                  7
 Number of molecular orbitals:                                                 7

 Number of orbital functions:                                                 14
 Number of independent orbital functions:                                     14

 Extrapolation method: ASPC


 SCF WAVEFUNCTION OPTIMIZATION

  ----------------------------------- OT ---------------------------------------
  Minimizer      : CG                  : conjugate gradient
  Preconditioner : FULL_ALL            : diagonalization, state selective
  Precond_solver : DEFAULT
  Line search    : 2PNT                : 2 energies, one gradient
  stepsize       :    0.15000000                  energy_gap     :    0.08000000
  eps_taylor     :   0.10000E-15                  max_taylor     :             4
  ----------------------------------- OT ---------------------------------------

  Step     Update method      Time    Convergence         Total energy    Change
  ------------------------------------------------------------------------------
     1 OT CG       0.15E+00    0.3     0.00871675       -16.1035255821 -1.61E+01
     2 OT LS       0.18E+00    0.3                      -16.1041762379
     3 OT CG       0.18E+00    0.5     0.00046296       -16.1041943005 -6.69E-04
     4 OT LS       0.22E+00    0.3                      -16.1041965426
     5 OT CG       0.22E+00    0.5     0.00010635       -16.1041966263 -2.33E-06
     6 OT LS       0.16E+00    0.3                      -16.1041967022
     7 OT CG       0.16E+00    0.5     0.00001103       -16.1041967152 -8.89E-08

  *** SCF run converged in     7 steps ***


  Electronic density on regular grids:        -13.9999999998        0.0000000002
  Core density on regular grids:               13.9999999987       -0.0000000013
  Total charge density on r-space grids:       -0.0000000011
  Total charge density g-space grids:          -0.0000000011

  Overlap energy of the core charge distribution:               0.00001117204269
  Self energy of the core charge distribution:                -38.70122451907286
  Core Hamiltonian energy:                                     12.67776121578839
  Hartree energy:                                              15.52421612291512
  Exchange-correlation energy:                                 -5.60496070685968

  Total energy:                                               -16.10419671518634

  outer SCF iter =    1 RMS gradient =   0.11E-04 energy =        -16.1041967152
  outer SCF loop converged in   1 iterations or    7 steps


 ENERGY| Total FORCE_EVAL ( QS ) energy [a.u.]:              -16.104196715979526

 STRESS| Analytical stress tensor [GPa]
 STRESS|                        x                   y                   z
 STRESS|      x       -1.56726990117E-01  -1.26653874206E-01  -5.32992158667E-02
 STRESS|      y       -1.26653874206E-01  -1.07193345273E-01  -5.05072578806E-02
 STRESS|      z       -5.32992158667E-02  -5.05072578806E-02  -1.77780428383E-01
 STRESS| 1/3 Trace                                            -1.47233587924E-01
 STRESS| Determinant                                          -1.12495483821E-04

 STRESS| Eigenvectors and eigenvalues of the analytical stress tensor [GPa]
 STRESS|                        1                   2                   3
 STRESS| Eigenvalues  -3.03665731724E-01  -1.35296918866E-01  -2.73811318330E-03
 STRESS|      x           0.661665559299     -0.409624802639     -0.628017681837
 STRESS|      y           0.555887846849     -0.294094219419      0.777494239098
 STRESS|      z           0.503177294164      0.863548557504     -0.033113433376

 Number of electrons:                                                         14
 Number of occupied orbitals:                                                  7
 Number of molecular orbitals:                                                 7

 Number of orbital functions:                                                 14
 Number of independent orbital functions:                                     14

 Extrapolation method: ASPC


 SCF WAVEFUNCTION OPTIMIZATION

  ----------------------------------- OT ---------------------------------------
  Minimizer      : CG                  : conjugate gradient
  Preconditioner : FULL_ALL            : diagonalization, state selective
  Precond_solver : DEFAULT
  Line search    : 2PNT                : 2 energies, one gradient
  stepsize       :    0.15000000                  energy_gap     :    0.08000000
  eps_taylor     :   0.10000E-15                  max_taylor     :             4
  ----------------------------------- OT ---------------------------------------

  Step     Update method      Time    Convergence         Total energy    Change
  ------------------------------------------------------------------------------
     1 OT CG       0.15E+00    0.3     0.00875971       -16.1035160476 -1.61E+01
     2 OT LS       0.18E+00    0.3                      -16.1041724287
     3 OT CG       0.18E+00    0.5     0.00049654       -16.1041905137 -6.74E-04
     4 OT LS       0.22E+00    0.3                      -16.1041930980
     5 OT CG       0.22E+00    0.5     0.00011336       -16.1041931975 -2.68E-06
     6 OT LS       0.16E+00    0.3                      -16.1041932808
     7 OT CG       0.16E+00    0.5     0.00001209       -16.1041932971 -9.96E-08

  *** SCF run converged in     7 steps ***


  Electronic density on regular grids:        -13.9999999998        0.0000000002
  Core density on regular grids:               13.9999999987       -0.0000000013
  Total charge density on r-space grids:       -0.0000000011
  Total charge density g-space grids:          -0.0000000011

  Overlap energy of the core charge distribution:               0.00001117204269
  Self energy of the core charge distribution:                -38.70122451907286
  Core Hamiltonian energy:                                     12.67766035508596
  Hartree energy:                                              15.52429481903330
  Exchange-correlation energy:                                 -5.60493512417677

  Total energy:                                               -16.10419329708768

  outer SCF iter =    1 RMS gradient =   0.12E-04 energy =        -16.1041932971
  outer SCF loop converged in   1 iterations or    7 steps


 ENERGY| Total FORCE_EVAL ( QS ) energy [a.u.]:              -16.104193298043953

 STRESS| Analytical stress tensor [GPa]
 STRESS|                        x                   y                   z
 STRESS|      x       -1.56744489720E-01  -1.26653260372E-01  -5.33030058826E-02
 STRESS|      y       -1.26653260372E-01  -1.07208335858E-01  -5.05068716635E-02
 STRESS|      z       -5.33030058826E-02  -5.05068716635E-02  -1.77740564007E-01
 STRESS| 1/3 Trace                                            -1.47231129862E-01
 STRESS| Determinant                                          -1.13159459462E-04

 STRESS| Eigenvectors and eigenvalues of the analytical stress tensor [GPa]
 STRESS|                        1                   2                   3
 STRESS| Eigenvalues  -3.03669791377E-01  -1.35268788060E-01  -2.75481014827E-03
 STRESS|      x           0.661724953123     -0.409534565450     -0.628013953759
 STRESS|      y           0.555923733394     -0.294018124412      0.777497360231
 STRESS|      z           0.503059528350      0.863617266049     -0.033110854985

 Number of electrons:                                                         14
 Number of occupied orbitals:                                                  7
 Number of molecular orbitals:                                                 7

 Number of orbital functions:                                                 14
 Number of independent orbital functions:                                     14

 Extrapolation method: ASPC


 SCF WAVEFUNCTION OPTIMIZATION

  ----------------------------------- OT ---------------------------------------
  Minimizer      : CG                  : conjugate gradient
  Preconditioner : FULL_ALL            : diagonalization, state selective
  Precond_solver : DEFAULT
  Line search    : 2PNT                : 2 energies, one gradient
  stepsize       :    0.15000000                  energy_gap     :    0.08000000
  eps_taylor     :   0.10000E-15                  max_taylor     :             4
  ----------------------------------- OT ---------------------------------------

  Step     Update method      Time    Convergence         Total energy    Change
  ------------------------------------------------------------------------------
     1 OT CG       0.15E+00    0.3     0.00881072       -16.1046040177 -1.61E+01
     2 OT LS       0.18E+00    0.3                      -16.1052691976
     3 OT CG       0.18E+00    0.5     0.00058338       -16.1052880609 -6.84E-04
     4 OT LS       0.19E+00    0.3                      -16.1052911458
     5 OT CG       0.19E+00    0.5     0.00018963       -16.1052911482 -3.09E-06
     6 OT LS       0.17E+00    0.3                      -16.1052914458
     7 OT CG       0.17E+00    0.5     0.00001892       -16.1052914481 -3.00E-07

  *** SCF run converged in     7 steps ***


  Electronic density on regular grids:        -13.9999999998        0.0000000002
  Core density on regular grids:               13.9999999987       -0.0000000013
  Total charge density on r-space grids:       -0.0000000011
  Total charge density g-space grids:          -0.0000000011

  Overlap energy of the core charge distribution:               0.00001387997202
  Self energy of the core charge distribution:                -38.70122451907286
  Core Hamiltonian energy:                                     12.69773453661806
  Hartree energy:                                              15.51165154291067
  Exchange-correlation energy:                                 -5.61346688848805

  Total energy:                                               -16.10529144806015

  outer SCF iter =    1 RMS gradient =   0.19E-04 energy =        -16.1052914481
  outer SCF loop converged in   1 iterations or    7 steps


 ENERGY| Total FORCE_EVAL ( QS ) energy [a.u.]:              -16.105291450709025

 STRESS| Analytical stress tensor [GPa]
 STRESS|                        x                   y                   z
 STRESS|      x       -1.10744156885E-01  -8.61420282132E-02  -2.70816412744E-02
 STRESS|      y       -8.61420282132E-02  -7.09500143778E-02  -2.49861832352E-02
 STRESS|      z       -2.70816412744E-02  -2.49861832352E-02  -9.77737171669E-02
 STRESS| 1/3 Trace                                            -9.31559628100E-02
 STRESS| Determinant                                          -3.81169685065E-05

 STRESS| Eigenvectors and eigenvalues of the analytical stress tensor [GPa]
 STRESS|                        1                   2                   3
 STRESS| Eigenvalues  -1.93386874710E-01  -8.37269060893E-02  -2.35410763105E-03
 STRESS|      x           0.727338007764     -0.300127628623     -0.617173256873
 STRESS|      y           0.584965935333     -0.199150850637      0.786227570866
 STRESS|      z           0.358879195499      0.932878526512     -0.030714456050

 Number of electrons:                                                         14
 Number of occupied orbitals:                                                  7
 Number of molecular orbitals:                                                 7

 Number of orbital functions:                                                 14
 Number of independent orbital functions:                                     14

 Extrapolation method: ASPC


 SCF WAVEFUNCTION OPTIMIZATION

  ----------------------------------- OT ---------------------------------------
  Minimizer      : CG                  : conjugate gradient
  Preconditioner : FULL_ALL            : diagonalization, state selective
  Precond_solver : DEFAULT
  Line search    : 2PNT                : 2 energies, one gradient
  stepsize       :    0.15000000                  energy_gap     :    0.08000000
  eps_taylor     :   0.10000E-15                  max_taylor     :             4
  ----------------------------------- OT ---------------------------------------

  Step     Update method      Time    Convergence         Total energy    Change
  ------------------------------------------------------------------------------
     1 OT CG       0.15E+00    0.3     0.00882572       -16.1046008807 -1.61E+01
     2 OT LS       0.18E+00    0.3                      -16.1052681395
     3 OT CG       0.18E+00    0.5     0.00061365       -16.1052866884 -6.86E-04
     4 OT LS       0.19E+00    0.3                      -16.1052901262
     5 OT CG       0.19E+00    0.5     0.00019745       -16.1052901313 -3.44E-06
     6 OT LS       0.17E+00    0.3                      -16.1052904493
     7 OT CG       0.17E+00    0.5     0.00001886       -16.1052904532 -3.22E-07

  *** SCF run converged in     7 steps ***


  Electronic density on regular grids:        -13.9999999998        0.0000000002
  Core density on regular grids:               13.9999999987       -0.0000000013
  Total charge density on r-space grids:       -0.0000000011
  Total charge density g-space grids:          -0.0000000011

  Overlap energy of the core charge distribution:               0.00001387997202
  Self energy of the core charge distribution:                -38.70122451907286
  Core Hamiltonian energy:                                     12.69768045478914
  Hartree energy:                                              15.51168626957497
  Exchange-correlation energy:                                 -5.61344653843929

  Total energy:                                               -16.10529045317602

  outer SCF iter =    1 RMS gradient =   0.19E-04 energy =        -16.1052904532
  outer SCF loop converged in   1 iterations or    7 steps


 ENERGY| Total FORCE_EVAL ( QS ) energy [a.u.]:              -16.105290455814050

 STRESS| Analytical stress tensor [GPa]
 STRESS|                        x                   y                   z
 STRESS|      x       -1.10762389994E-01  -8.61697731438E-02  -2.70901465093E-02
 STRESS|      y       -8.61697731438E-02  -7.09600136383E-02  -2.49932442979E-02
 STRESS|      z       -2.70901465093E-02  -2.49932442979E-02  -9.77597634677E-02
 STRESS| 1/3 Trace                                            -9.31607223665E-02
 STRESS| Determinant                                          -3.78948825192E-05

 STRESS| Eigenvectors and eigenvalues of the analytical stress tensor [GPa]
 STRESS|                        1                   2                   3
 STRESS| Eigenvalues  -1.93429159900E-01  -8.37127310374E-02  -2.34027616168E-03
 STRESS|      x           0.727359600776     -0.300054045069     -0.617183587919
 STRESS|      y           0.584994086089     -0.199099889089      0.786219532577
 STRESS|      z           0.358789534964      0.932913074301     -0.030712626030

 Number of electrons:                                                         14
 Number of occupied orbitals:                                                  7
 Number of molecular orbitals:                                                 7

 Number of orbital functions:                                                 14
 Number of independent orbital functions:                                     14

 Extrapolation method: ASPC


 SCF WAVEFUNCTION OPTIMIZATION

  ----------------------------------- OT ---------------------------------------
  Minimizer      : CG                  : conjugate gradient
  Preconditioner : FULL_ALL            : diagonalization, state selective
  Precond_solver : DEFAULT
  Line search    : 2PNT                : 2 energies, one gradient
  stepsize       :    0.15000000                  energy_gap     :    0.08000000
  eps_taylor     :   0.10000E-15                  max_taylor     :             4
  ----------------------------------- OT ---------------------------------------

  Step     Update method      Time    Convergence         Total energy    Change
  ------------------------------------------------------------------------------
     1 OT CG       0.15E+00    0.3     0.00886048       -16.1054821914 -1.61E+01
     2 OT LS       0.18E+00    0.3                      -16.1061551424
     3 OT CG       0.18E+00    0.5     0.00073893       -16.1061745231 -6.92E-04
     4 OT LS       0.16E+00    0.3                      -16.1061788127
     5 OT CG       0.16E+00    0.5     0.00021860       -16.1061788651 -4.34E-06
     6 OT LS       0.19E+00    0.3                      -16.1061793071
     7 OT CG       0.19E+00    0.5     0.00001914       -16.1061793194 -4.54E-07

  *** SCF run converged in     7 steps ***


  Electronic density on regular grids:        -13.9999999998        0.0000000002
  Core density on regular grids:               13.9999999987       -0.0000000013
  Total charge density on r-space grids:       -0.0000000011
  Total charge density g-space grids:          -0.0000000011

  Overlap energy of the core charge distribution:               0.00001709096958
  Self energy of the core charge distribution:                -38.70122451907286
  Core Hamiltonian energy:                                     12.72129892913290
  Hartree energy:                                              15.49724145761721
  Exchange-correlation energy:                                 -5.62351227808951

  Total energy:                                               -16.10617931944267

  outer SCF iter =    1 RMS gradient =   0.19E-04 energy =        -16.1061793194
  outer SCF loop converged in   1 iterations or    7 steps


 ENERGY| Total FORCE_EVAL ( QS ) energy [a.u.]:              -16.106179322106676

 STRESS| Analytical stress tensor [GPa]
 STRESS|                        x                   y                   z
 STRESS|      x       -5.54453655409E-02  -3.77214063504E-02  -1.28503070256E-03
 STRESS|      y       -3.77214063504E-02  -2.83620132011E-02   5.28871470137E-04
 STRESS|      z       -1.28503070256E-03   5.28871470137E-04  -8.85081906275E-04
 STRESS| 1/3 Trace                                            -2.82308202161E-02
 STRESS| Determinant                                          -1.88268146804E-08

 STRESS| Eigenvectors and eigenvalues of the analytical stress tensor [GPa]
 STRESS|                        1                   2                   3
 STRESS| Eigenvalues  -8.19890073559E-02  -2.61566447782E-03  -8.77888145928E-05
 STRESS|      x           0.817930084571     -0.472713162125     -0.327921702709
 STRESS|      y           0.575243933151      0.681094040808      0.452995943634
 STRESS|      z           0.009208372622     -0.559153980519      0.829012685032

 Number of electrons:                                                         14
 Number of occupied orbitals:                                                  7
 Number of molecular orbitals:                                                 7

 Number of orbital functions:                                                 14
 Number of independent orbital functions:                                     14

 Extrapolation method: ASPC


 SCF WAVEFUNCTION OPTIMIZATION

  ----------------------------------- OT ---------------------------------------
  Minimizer      : CG                  : conjugate gradient
  Preconditioner : FULL_ALL            : diagonalization, state selective
  Precond_solver : DEFAULT
  Line search    : 2PNT                : 2 energies, one gradient
  stepsize       :    0.15000000                  energy_gap     :    0.08000000
  eps_taylor     :   0.10000E-15                  max_taylor     :             4
  ----------------------------------- OT ---------------------------------------

  Step     Update method      Time    Convergence         Total energy    Change
  ------------------------------------------------------------------------------
     1 OT CG       0.15E+00    0.3     0.00883953       -16.1054852438 -1.61E+01
     2 OT LS       0.18E+00    0.3                      -16.1061555236
     3 OT CG       0.18E+00    0.5     0.00075067       -16.1061743548 -6.89E-04
     4 OT LS       0.16E+00    0.3                      -16.1061788526
     5 OT CG       0.16E+00    0.5     0.00022403       -16.1061788914 -4.54E-06
     6 OT LS       0.19E+00    0.3                      -16.1061793517
     7 OT CG       0.19E+00    0.5     0.00001858       -16.1061793603 -4.69E-07

  *** SCF run converged in     7 steps ***


  Electronic density on regular grids:        -13.9999999998        0.0000000002
  Core density on regular grids:               13.9999999987       -0.0000000013
  Total charge density on r-space grids:       -0.0000000011
  Total charge density g-space grids:          -0.0000000011

  Overlap energy of the core charge distribution:               0.00001709096958
  Self energy of the core charge distribution:                -38.70122451907286
  Core Hamiltonian energy:                                     12.72127944002370
  Hartree energy:                                              15.49724774623301
  Exchange-correlation energy:                                 -5.62349911849290

  Total energy:                                               -16.10617936033947

  outer SCF iter =    1 RMS gradient =   0.19E-04 energy =        -16.1061793603
  outer SCF loop converged in   1 iterations or    7 steps


 ENERGY| Total FORCE_EVAL ( QS ) energy [a.u.]:              -16.106179362895638

 STRESS| Analytical stress tensor [GPa]
 STRESS|                        x                   y                   z
 STRESS|      x       -5.54606824596E-02  -3.77362606131E-02  -1.29175123037E-03
 STRESS|      y       -3.77362606131E-02  -2.83684781260E-02   5.21246860107E-04
 STRESS|      z       -1.29175123037E-03   5.21246860107E-04  -8.84810311130E-04
 STRESS| 1/3 Trace                                            -2.82379902989E-02
 STRESS| Determinant                                          -1.88887718674E-08

 STRESS| Eigenvectors and eigenvalues of the analytical stress tensor [GPa]
 STRESS|                        1                   2                   3
 STRESS| Eigenvalues  -8.20155550794E-02  -2.61018165648E-03  -8.82341608244E-05
 STRESS|      x           0.817923873607     -0.472531073174     -0.328199515338
 STRESS|      y           0.575250853151      0.680942631250      0.453214727139
 STRESS|      z           0.009327000156     -0.559492196399      0.828783137640

 Number of electrons:                                                         14
 Number of occupied orbitals:                                                  7
 Number of molecular orbitals:                                                 7

 Number of orbital functions:                                                 14
 Number of independent orbital functions:                                     14

 Extrapolation method: ASPC


 SCF WAVEFUNCTION OPTIMIZATION

  ----------------------------------- OT ---------------------------------------
  Minimizer      : CG                  : conjugate gradient
  Preconditioner : FULL_ALL            : diagonalization, state selective
  Precond_solver : DEFAULT
  Line search    : 2PNT                : 2 energies, one gradient
  stepsize       :    0.15000000                  energy_gap     :    0.08000000
  eps_taylor     :   0.10000E-15                  max_taylor     :             4
  ----------------------------------- OT ---------------------------------------

  Step     Update method      Time    Convergence         Total energy    Change
  ------------------------------------------------------------------------------
     1 OT CG       0.15E+00    0.3     0.00884082       -16.1059501379 -1.61E+01
     2 OT LS       0.18E+00    0.3                      -16.1066209055
     3 OT CG       0.18E+00    0.5     0.00085798       -16.1066407028 -6.91E-04
     4 OT LS       0.15E+00    0.3                      -16.1066460638
     5 OT CG       0.15E+00    0.5     0.00022085       -16.1066462367 -5.53E-06
     6 OT LS       0.21E+00    0.3                      -16.1066466987
     7 OT CG       0.21E+00    0.5     0.00001839       -16.1066467328 -4.96E-07

  *** SCF run converged in     7 steps ***


  Electronic density on regular grids:        -13.9999999998        0.0000000002
  Core density on regular grids:               13.9999999987       -0.0000000013
  Total charge density on r-space grids:       -0.0000000011
  Total charge density g-space grids:          -0.0000000011

  Overlap energy of the core charge distribution:               0.00002048076607
  Self energy of the core charge distribution:                -38.70122451907286
  Core Hamiltonian energy:                                     12.74630409878637
  Hartree energy:                                              15.48242417001032
  Exchange-correlation energy:                                 -5.63417096329349

  Total energy:                                               -16.10664673280359

  outer SCF iter =    1 RMS gradient =   0.18E-04 energy =        -16.1066467328
  outer SCF loop converged in   1 iterations or    7 steps


 ENERGY| Total FORCE_EVAL ( QS ) energy [a.u.]:              -16.106646735257396

 STRESS| Analytical stress tensor [GPa]
 STRESS|                        x                   y                   z
 STRESS|      x        4.38435005159E-03   1.44388831409E-02   2.16599810451E-02
 STRESS|      y        1.44388831409E-02   1.71131344526E-02   2.34777468559E-02
 STRESS|      z        2.16599810451E-02   2.34777468559E-02   1.04296674581E-01
 STRESS| 1/3 Trace                                             4.19313863618E-02
 STRESS| Determinant                                          -9.67877749610E-06

 STRESS| Eigenvectors and eigenvalues of the analytical stress tensor [GPa]
 STRESS|                        1                   2                   3
 STRESS| Eigenvalues  -5.39064627114E-03   1.55235799203E-02   1.15661225436E-01
 STRESS|      x           0.870210267760      0.442509509213      0.216608919811
 STRESS|      y          -0.488051690708      0.834376294385      0.256167419018
 STRESS|      z          -0.067376828976     -0.328635867831      0.942050332674

 Number of electrons:                                                         14
 Number of occupied orbitals:                                                  7
 Number of molecular orbitals:                                                 7

 Number of orbital functions:                                                 14
 Number of independent orbital functions:                                     14

 Extrapolation method: ASPC


 SCF WAVEFUNCTION OPTIMIZATION

  ----------------------------------- OT ---------------------------------------
  Minimizer      : CG                  : conjugate gradient
  Preconditioner : FULL_ALL            : diagonalization, state selective
  Precond_solver : DEFAULT
  Line search    : 2PNT                : 2 energies, one gradient
  stepsize       :    0.15000000                  energy_gap     :    0.08000000
  eps_taylor     :   0.10000E-15                  max_taylor     :             4
  ----------------------------------- OT ---------------------------------------

  Step     Update method      Time    Convergence         Total energy    Change
  ------------------------------------------------------------------------------
     1 OT CG       0.15E+00    0.3     0.00877424       -16.1059602289 -1.61E+01
     2 OT LS       0.18E+00    0.3                      -16.1066225261
     3 OT CG       0.18E+00    0.5     0.00083973       -16.1066417867 -6.82E-04
     4 OT LS       0.16E+00    0.3                      -16.1066470108
     5 OT CG       0.16E+00    0.5     0.00022258       -16.1066471484 -5.36E-06
     6 OT LS       0.20E+00    0.3                      -16.1066476152
     7 OT CG       0.20E+00    0.5     0.00001756       -16.1066476423 -4.94E-07

  *** SCF run converged in     7 steps ***


  Electronic density on regular grids:        -13.9999999998        0.0000000002
  Core density on regular grids:               13.9999999987       -0.0000000013
  Total charge density on r-space grids:       -0.0000000011
  Total charge density g-space grids:          -0.0000000011

  Overlap energy of the core charge distribution:               0.00002048076607
  Self energy of the core charge distribution:                -38.70122451907286
  Core Hamiltonian energy:                                     12.74630326392449
  Hartree energy:                                              15.48241587757059
  Exchange-correlation energy:                                 -5.63416274546297

  Total energy:                                               -16.10664764227467

  outer SCF iter =    1 RMS gradient =   0.18E-04 energy =        -16.1066476423
  outer SCF loop converged in   1 iterations or    7 steps


 ENERGY| Total FORCE_EVAL ( QS ) energy [a.u.]:              -16.106647644598219

 STRESS| Analytical stress tensor [GPa]
 STRESS|                        x                   y                   z
 STRESS|      x        4.37330311667E-03   1.44458365201E-02   2.16561293671E-02
 STRESS|      y        1.44458365201E-02   1.71153916770E-02   2.34733445214E-02
 STRESS|      z        2.16561293671E-02   2.34733445214E-02   1.04287294862E-01
 STRESS| 1/3 Trace                                             4.19253298852E-02
 STRESS| Determinant                                          -9.70666281476E-06

 STRESS| Eigenvectors and eigenvalues of the analytical stress tensor [GPa]
 STRESS|                        1                   2                   3
 STRESS| Eigenvalues  -5.40426091732E-03   1.55306444378E-02   1.15649606135E-01
 STRESS|      x           0.870236509828      0.442464886527      0.216594647102
 STRESS|      y          -0.488004666320      0.834401502936      0.256174896406
 STRESS|      z          -0.067378502600     -0.328631946240      0.942051581018

 Number of electrons:                                                         14
 Number of occupied orbitals:                                                  7
 Number of molecular orbitals:                                                 7

 Number of orbital functions:                                                 14
 Number of independent orbital functions:                                     14

 Extrapolation method: ASPC


 SCF WAVEFUNCTION OPTIMIZATION

  ----------------------------------- OT ---------------------------------------
  Minimizer      : CG                  : conjugate gradient
  Preconditioner : FULL_ALL            : diagonalization, state selective
  Precond_solver : DEFAULT
  Line search    : 2PNT                : 2 energies, one gradient
  stepsize       :    0.15000000                  energy_gap     :    0.08000000
  eps_taylor     :   0.10000E-15                  max_taylor     :             4
  ----------------------------------- OT ---------------------------------------

  Step     Update method      Time    Convergence         Total energy    Change
  ------------------------------------------------------------------------------
     1 OT CG       0.15E+00    0.3     0.00873385       -16.1059619462 -1.61E+01
     2 OT LS       0.18E+00    0.3                      -16.1066190213
     3 OT CG       0.18E+00    0.5     0.00090558       -16.1066395530 -6.78E-04
     4 OT LS       0.15E+00    0.3                      -16.1066453452
     5 OT CG       0.15E+00    0.5     0.00021193       -16.1066456020 -6.05E-06
     6 OT LS       0.21E+00    0.3                      -16.1066460309
     7 OT CG       0.21E+00    0.5     0.00001687       -16.1066460726 -4.71E-07

  *** SCF run converged in     7 steps ***


  Electronic density on regular grids:        -13.9999999998        0.0000000002
  Core density on regular grids:               13.9999999987       -0.0000000013
  Total charge density on r-space grids:       -0.0000000011
  Total charge density g-space grids:          -0.0000000011

  Overlap energy of the core charge distribution:               0.00002350478834
  Self energy of the core charge distribution:                -38.70122451907286
  Core Hamiltonian energy:                                     12.77000034881237
  Hartree energy:                                              15.46889289836745
  Exchange-correlation energy:                                 -5.64433830546731

  Total energy:                                               -16.10664607257202

  outer SCF iter =    1 RMS gradient =   0.17E-04 energy =        -16.1066460726
  outer SCF loop converged in   1 iterations or    7 steps


 ENERGY| Total FORCE_EVAL ( QS ) energy [a.u.]:              -16.106646074721432

 STRESS| Analytical stress tensor [GPa]
 STRESS|                        x                   y                   z
 STRESS|      x        6.29390570009E-02   6.50663478121E-02   3.93144038240E-02
 STRESS|      y        6.50663478121E-02   6.11417029223E-02   4.13598241540E-02
 STRESS|      z        3.93144038240E-02   4.13598241540E-02   2.06678421248E-01
 STRESS| 1/3 Trace                                             1.10253060390E-01
 STRESS| Determinant                                          -7.02269361628E-05

 STRESS| Eigenvectors and eigenvalues of the analytical stress tensor [GPa]
 STRESS|                        1                   2                   3
 STRESS| Eigenvalues  -3.05050442142E-03   9.73648618271E-02   2.36444823765E-01
 STRESS|      x          -0.699058198901      0.637193472554      0.324502870686
 STRESS|      y           0.714995399170      0.616548184709      0.329620865689
 STRESS|      z          -0.009960608180     -0.462442228247      0.886593464796

 Number of electrons:                                                         14
 Number of occupied orbitals:                                                  7
 Number of molecular orbitals:                                                 7

 Number of orbital functions:                                                 14
 Number of independent orbital functions:                                     14

 Extrapolation method: ASPC


 SCF WAVEFUNCTION OPTIMIZATION

  ----------------------------------- OT ---------------------------------------
  Minimizer      : CG                  : conjugate gradient
  Preconditioner : FULL_ALL            : diagonalization, state selective
  Precond_solver : DEFAULT
  Line search    : 2PNT                : 2 energies, one gradient
  stepsize       :    0.15000000                  energy_gap     :    0.08000000
  eps_taylor     :   0.10000E-15                  max_taylor     :             4
  ----------------------------------- OT ---------------------------------------

  Step     Update method      Time    Convergence         Total energy    Change
  ------------------------------------------------------------------------------
     1 OT CG       0.15E+00    0.3     0.00862461       -16.1059794558 -1.61E+01
     2 OT LS       0.18E+00    0.3                      -16.1066233056
     3 OT CG       0.18E+00    0.5     0.00085265       -16.1066436475 -6.64E-04
     4 OT LS       0.15E+00    0.3                      -16.1066488774
     5 OT CG       0.15E+00    0.5     0.00021103       -16.1066490755 -5.43E-06
     6 OT LS       0.21E+00    0.3                      -16.1066494987
     7 OT CG       0.21E+00    0.5     0.00001589       -16.1066495310 -4.55E-07

  *** SCF run converged in     7 steps ***


  Electronic density on regular grids:        -13.9999999997        0.0000000003
  Core density on regular grids:               13.9999999987       -0.0000000013
  Total charge density on r-space grids:       -0.0000000011
  Total charge density g-space grids:          -0.0000000011

  Overlap energy of the core charge distribution:               0.00002350478834
  Self energy of the core charge distribution:                -38.70122451907286
  Core Hamiltonian energy:                                     12.77000549238024
  Hartree energy:                                              15.46888125734390
  Exchange-correlation energy:                                 -5.64433526639092

  Total energy:                                               -16.10664953095130

  outer SCF iter =    1 RMS gradient =   0.16E-04 energy =        -16.1066495310
  outer SCF loop converged in   1 iterations or    7 steps


 ENERGY| Total FORCE_EVAL ( QS ) energy [a.u.]:              -16.106649532967833

 STRESS| Analytical stress tensor [GPa]
 STRESS|                        x                   y                   z
 STRESS|      x        6.29478685011E-02   6.50726319672E-02   3.93136867048E-02
 STRESS|      y        6.50726319672E-02   6.11691396911E-02   4.13600155028E-02
 STRESS|      z        3.93136867048E-02   4.13600155028E-02   2.06663268822E-01
 STRESS| 1/3 Trace                                             1.10260092338E-01
 STRESS| Determinant                                          -6.99593148485E-05

 STRESS| Eigenvectors and eigenvalues of the analytical stress tensor [GPa]
 STRESS|                        1                   2                   3
 STRESS| Eigenvalues  -3.03846910940E-03   9.73808785255E-02   2.36437867598E-01
 STRESS|      x          -0.699115737603      0.637100779385      0.324560906985
 STRESS|      y           0.714939382085      0.616567026201      0.329707115703
 STRESS|      z          -0.009943107142     -0.462544807677      0.886540148844

 Number of electrons:                                                         14
 Number of occupied orbitals:                                                  7
 Number of molecular orbitals:                                                 7

 Number of orbital functions:                                                 14
 Number of independent orbital functions:                                     14

 Extrapolation method: ASPC


 SCF WAVEFUNCTION OPTIMIZATION

  ----------------------------------- OT ---------------------------------------
  Minimizer      : CG                  : conjugate gradient
  Preconditioner : FULL_ALL            : diagonalization, state selective
  Precond_solver : DEFAULT
  Line search    : 2PNT                : 2 energies, one gradient
  stepsize       :    0.15000000                  energy_gap     :    0.08000000
  eps_taylor     :   0.10000E-15                  max_taylor     :             4
  ----------------------------------- OT ---------------------------------------

  Step     Update method      Time    Convergence         Total energy    Change
  ------------------------------------------------------------------------------
     1 OT CG       0.15E+00    0.3     0.00855375       -16.1056808553 -1.61E+01
     2 OT LS       0.18E+00    0.3                      -16.1063161567
     3 OT CG       0.18E+00    0.5     0.00086974       -16.1063383392 -6.57E-04
     4 OT LS       0.15E+00    0.3                      -16.1063437203
     5 OT CG       0.15E+00    0.5     0.00020431       -16.1063439673 -5.63E-06
     6 OT LS       0.21E+00    0.3                      -16.1063443669
     7 OT CG       0.21E+00    0.5     0.00001448       -16.1063444034 -4.36E-07

  *** SCF run converged in     7 steps ***


  Electronic density on regular grids:        -13.9999999997        0.0000000003
  Core density on regular grids:               13.9999999987       -0.0000000013
  Total charge density on r-space grids:       -0.0000000011
  Total charge density g-space grids:          -0.0000000011

  Overlap energy of the core charge distribution:               0.00002553415383
  Self energy of the core charge distribution:                -38.70122451907286
  Core Hamiltonian energy:                                     12.78926602588417
  Hartree energy:                                              15.45842315473839
  Exchange-correlation energy:                                 -5.65283459911874

  Total energy:                                               -16.10634440341521

  outer SCF iter =    1 RMS gradient =   0.14E-04 energy =        -16.1063444034
  outer SCF loop converged in   1 iterations or    7 steps


 ENERGY| Total FORCE_EVAL ( QS ) energy [a.u.]:              -16.106344405137865

 STRESS| Analytical stress tensor [GPa]
 STRESS|                        x                   y                   z
 STRESS|      x        1.13920900485E-01   1.08249830960E-01   4.96601728078E-02
 STRESS|      y        1.08249830960E-01   9.87616271567E-02   5.22285339623E-02
 STRESS|      z        4.96601728078E-02   5.22285339623E-02   2.93540447731E-01
 STRESS| 1/3 Trace                                             1.68740991791E-01
 STRESS| Determinant                                          -1.29871583088E-04

 STRESS| Eigenvectors and eigenvalues of the analytical stress tensor [GPa]
 STRESS|                        1                   2                   3
 STRESS| Eigenvalues  -2.24263503622E-03   1.72232457718E-01   3.36233152691E-01
 STRESS|      x          -0.678007747281      0.637815009046      0.365373109113
 STRESS|      y           0.734882118931      0.577404091602      0.355742584289
 STRESS|      z          -0.015930031453     -0.509702392811      0.860203292752

 Number of electrons:                                                         14
 Number of occupied orbitals:                                                  7
 Number of molecular orbitals:                                                 7

 Number of orbital functions:                                                 14
 Number of independent orbital functions:                                     14

 Extrapolation method: ASPC


 SCF WAVEFUNCTION OPTIMIZATION

  ----------------------------------- OT ---------------------------------------
  Minimizer      : CG                  : conjugate gradient
  Preconditioner : FULL_ALL            : diagonalization, state selective
  Precond_solver : DEFAULT
  Line search    : 2PNT                : 2 energies, one gradient
  stepsize       :    0.15000000                  energy_gap     :    0.08000000
  eps_taylor     :   0.10000E-15                  max_taylor     :             4
  ----------------------------------- OT ---------------------------------------

  Step     Update method      Time    Convergence         Total energy    Change
  ------------------------------------------------------------------------------
     1 OT CG       0.15E+00    0.3     0.00842113       -16.1057009738 -1.61E+01
     2 OT LS       0.19E+00    0.3                      -16.1063216113
     3 OT CG       0.19E+00    0.5     0.00078074       -16.1063443281 -6.43E-04
     4 OT LS       0.16E+00    0.3                      -16.1063488381
     5 OT CG       0.16E+00    0.5     0.00020363       -16.1063489900 -4.66E-06
     6 OT LS       0.20E+00    0.3                      -16.1063493830
     7 OT CG       0.20E+00    0.5     0.00001334       -16.1063494054 -4.15E-07

  *** SCF run converged in     7 steps ***


  Electronic density on regular grids:        -13.9999999997        0.0000000003
  Core density on regular grids:               13.9999999987       -0.0000000013
  Total charge density on r-space grids:       -0.0000000011
  Total charge density g-space grids:          -0.0000000011

  Overlap energy of the core charge distribution:               0.00002553415383
  Self energy of the core charge distribution:                -38.70122451907286
  Core Hamiltonian energy:                                     12.78926623589332
  Hartree energy:                                              15.45841776458654
  Exchange-correlation energy:                                 -5.65283442097132

  Total energy:                                               -16.10634940541049

  outer SCF iter =    1 RMS gradient =   0.13E-04 energy =        -16.1063494054
  outer SCF loop converged in   1 iterations or    7 steps


 ENERGY| Total FORCE_EVAL ( QS ) energy [a.u.]:              -16.106349406973646

 STRESS| Analytical stress tensor [GPa]
 STRESS|                        x                   y                   z
 STRESS|      x        1.13949950943E-01   1.08241095160E-01   4.96630483548E-02
 STRESS|      y        1.08241095160E-01   9.88059246885E-02   5.22306552587E-02
 STRESS|      z        4.96630483548E-02   5.22306552587E-02   2.93521815891E-01
 STRESS| 1/3 Trace                                             1.68759230508E-01
 STRESS| Determinant                                          -1.27215976354E-04

 STRESS| Eigenvectors and eigenvalues of the analytical stress tensor [GPa]
 STRESS|                        1                   2                   3
 STRESS| Eigenvalues  -2.19664491998E-03   1.72244648374E-01   3.36229688070E-01
 STRESS|      x          -0.678032425367      0.637744552538      0.365450291912
 STRESS|      y           0.734859479656      0.577379938124      0.355828543279
 STRESS|      z          -0.015924048182     -0.509817901569      0.860134949836

 Number of electrons:                                                         14
 Number of occupied orbitals:                                                  7
 Number of molecular orbitals:                                                 7

 Number of orbital functions:                                                 14
 Number of independent orbital functions:                                     14

 Extrapolation method: ASPC


 SCF WAVEFUNCTION OPTIMIZATION

  ----------------------------------- OT ---------------------------------------
  Minimizer      : CG                  : conjugate gradient
  Preconditioner : FULL_ALL            : diagonalization, state selective
  Precond_solver : DEFAULT
  Line search    : 2PNT                : 2 energies, one gradient
  stepsize       :    0.15000000                  energy_gap     :    0.08000000
  eps_taylor     :   0.10000E-15                  max_taylor     :             4
  ----------------------------------- OT ---------------------------------------

  Step     Update method      Time    Convergence         Total energy    Change
  ------------------------------------------------------------------------------
     1 OT CG       0.15E+00    0.3     0.00835936       -16.1054235301 -1.61E+01
     2 OT LS       0.19E+00    0.3                      -16.1060381991
     3 OT CG       0.19E+00    0.5     0.00075339       -16.1060635904 -6.40E-04
     4 OT LS       0.16E+00    0.3                      -16.1060680063
     5 OT CG       0.16E+00    0.5     0.00020879       -16.1060681100 -4.52E-06
     6 OT LS       0.20E+00    0.3                      -16.1060685206
     7 OT CG       0.20E+00    0.5     0.00001163       -16.1060685352 -4.25E-07

  *** SCF run converged in     7 steps ***


  Electronic density on regular grids:        -13.9999999997        0.0000000003
  Core density on regular grids:               13.9999999987       -0.0000000013
  Total charge density on r-space grids:       -0.0000000010
  Total charge density g-space grids:          -0.0000000010

  Overlap energy of the core charge distribution:               0.00002610020799
  Self energy of the core charge distribution:                -38.70122451907286
  Core Hamiltonian energy:                                     12.80102792583044
  Hartree energy:                                              15.45264888352271
  Exchange-correlation energy:                                 -5.65854692570930

  Total energy:                                               -16.10606853522102

  outer SCF iter =    1 RMS gradient =   0.12E-04 energy =        -16.1060685352
  outer SCF loop converged in   1 iterations or    7 steps


 ENERGY| Total FORCE_EVAL ( QS ) energy [a.u.]:              -16.106068536469735

 STRESS| Analytical stress tensor [GPa]
 STRESS|                        x                   y                   z
 STRESS|      x        1.51369674659E-01   1.38341956776E-01   5.16439353882E-02
 STRESS|      y        1.38341956776E-01   1.24904218271E-01   5.52544952132E-02
 STRESS|      z        5.16439353882E-02   5.52544952132E-02   3.52313701163E-01
 STRESS| 1/3 Trace                                             2.09529198031E-01
 STRESS| Determinant                                          -8.73995267353E-05

 STRESS| Eigenvectors and eigenvalues of the analytical stress tensor [GPa]
 STRESS|                        1                   2                   3
 STRESS| Eigenvalues  -9.50187832067E-04   2.30518435476E-01   3.99019346449E-01
 STRESS|      x          -0.668768935880      0.638814601619      0.380347229727
 STRESS|      y           0.743240522358      0.561732591884      0.363386875300
 STRESS|      z          -0.018483406807     -0.525711327607      0.850462205920

 Number of electrons:                                                         14
 Number of occupied orbitals:                                                  7
 Number of molecular orbitals:                                                 7

 Number of orbital functions:                                                 14
 Number of independent orbital functions:                                     14

 Extrapolation method: ASPC


 SCF WAVEFUNCTION OPTIMIZATION

  ----------------------------------- OT ---------------------------------------
  Minimizer      : CG                  : conjugate gradient
  Preconditioner : FULL_ALL            : diagonalization, state selective
  Precond_solver : DEFAULT
  Line search    : 2PNT                : 2 energies, one gradient
  stepsize       :    0.15000000                  energy_gap     :    0.08000000
  eps_taylor     :   0.10000E-15                  max_taylor     :             4
  ----------------------------------- OT ---------------------------------------

  Step     Update method      Time    Convergence         Total energy    Change
  ------------------------------------------------------------------------------
     1 OT CG       0.15E+00    0.3     0.00824395       -16.1054345581 -1.61E+01
     2 OT LS       0.19E+00    0.3                      -16.1060386206
     3 OT CG       0.19E+00    0.5     0.00064337       -16.1060655200 -6.31E-04
     4 OT LS       0.18E+00    0.3                      -16.1060691584
     5 OT CG       0.18E+00    0.5     0.00019978       -16.1060691668 -3.65E-06
     6 OT LS       0.18E+00    0.3                      -16.1060695138
     7 OT CG       0.18E+00    0.5     0.00001135       -16.1060695139 -3.47E-07

  *** SCF run converged in     7 steps ***


  Electronic density on regular grids:        -13.9999999997        0.0000000003
  Core density on regular grids:               13.9999999987       -0.0000000013
  Total charge density on r-space grids:       -0.0000000010
  Total charge density g-space grids:          -0.0000000010

  Overlap energy of the core charge distribution:               0.00002610020799
  Self energy of the core charge distribution:                -38.70122451907286
  Core Hamiltonian energy:                                     12.80101619064047
  Hartree energy:                                              15.45265551024381
  Exchange-correlation energy:                                 -5.65854279596792

  Total energy:                                               -16.10606951394850

  outer SCF iter =    1 RMS gradient =   0.11E-04 energy =        -16.1060695139
  outer SCF loop converged in   1 iterations or    7 steps


 ENERGY| Total FORCE_EVAL ( QS ) energy [a.u.]:              -16.106069515167505

 STRESS| Analytical stress tensor [GPa]
 STRESS|                        x                   y                   z
 STRESS|      x        1.51385638930E-01   1.38333023024E-01   5.16519879584E-02
 STRESS|      y        1.38333023024E-01   1.24912230204E-01   5.52548244777E-02
 STRESS|      z        5.16519879584E-02   5.52548244777E-02   3.52299614367E-01
 STRESS| 1/3 Trace                                             2.09532494501E-01
 STRESS| Determinant                                          -8.54983775223E-05

 STRESS| Eigenvectors and eigenvalues of the analytical stress tensor [GPa]
 STRESS|                        1                   2                   3
 STRESS| Eigenvalues  -9.29555686341E-04   2.30511569770E-01   3.99015469418E-01
 STRESS|      x          -0.668757565482      0.638795943747      0.380398555285
 STRESS|      y           0.743250987914      0.561703459162      0.363410501952
 STRESS|      z          -0.018473970198     -0.525765124573      0.850429154138

 Number of electrons:                                                         14
 Number of occupied orbitals:                                                  7
 Number of molecular orbitals:                                                 7

 Number of orbital functions:                                                 14
 Number of independent orbital functions:                                     14

 Extrapolation method: ASPC


 SCF WAVEFUNCTION OPTIMIZATION

  ----------------------------------- OT ---------------------------------------
  Minimizer      : CG                  : conjugate gradient
  Preconditioner : FULL_ALL            : diagonalization, state selective
  Precond_solver : DEFAULT
  Line search    : 2PNT                : 2 energies, one gradient
  stepsize       :    0.15000000                  energy_gap     :    0.08000000
  eps_taylor     :   0.10000E-15                  max_taylor     :             4
  ----------------------------------- OT ---------------------------------------

  Step     Update method      Time    Convergence         Total energy    Change
  ------------------------------------------------------------------------------
     1 OT CG       0.15E+00    0.3     0.00825916       -16.1055052011 -1.61E+01
     2 OT LS       0.19E+00    0.3                      -16.1061146151
     3 OT CG       0.19E+00    0.5     0.00061730       -16.1061449575 -6.40E-04
     4 OT LS       0.21E+00    0.3                      -16.1061488284
     5 OT CG       0.21E+00    0.5     0.00017899       -16.1061488552 -3.90E-06
     6 OT LS       0.15E+00    0.3                      -16.1061490694
     7 OT CG       0.15E+00    0.5     0.00001246       -16.1061490984 -2.43E-07

  *** SCF run converged in     7 steps ***


  Electronic density on regular grids:        -13.9999999997        0.0000000003
  Core density on regular grids:               13.9999999987       -0.0000000013
  Total charge density on r-space grids:       -0.0000000010
  Total charge density g-space grids:          -0.0000000010

  Overlap energy of the core charge distribution:               0.00002510045792
  Self energy of the core charge distribution:                -38.70122451907286
  Core Hamiltonian energy:                                     12.80284721291927
  Hartree energy:                                              15.45281210216602
  Exchange-correlation energy:                                 -5.66060899487818

  Total energy:                                               -16.10614909840783

  outer SCF iter =    1 RMS gradient =   0.12E-04 energy =        -16.1061490984
  outer SCF loop converged in   1 iterations or    7 steps


 ENERGY| Total FORCE_EVAL ( QS ) energy [a.u.]:              -16.106149099832681

 STRESS| Analytical stress tensor [GPa]
 STRESS|                        x                   y                   z
 STRESS|      x        1.70718630176E-01   1.51132292022E-01   4.56512684395E-02
 STRESS|      y        1.51132292022E-01   1.35309868839E-01   5.11184496969E-02
 STRESS|      z        4.56512684395E-02   5.11184496969E-02   3.73083558342E-01
 STRESS| 1/3 Trace                                             2.26370685785E-01
 STRESS| Determinant                                           7.38846089102E-05

 STRESS| Eigenvectors and eigenvalues of the analytical stress tensor [GPa]
 STRESS|                        1                   2                   3
 STRESS| Eigenvalues   6.76120320470E-04   2.63115921462E-01   4.15320015574E-01
 STRESS|      x          -0.660862213914      0.645964794683      0.382087186714
 STRESS|      y           0.750185821222      0.553664840813      0.361492016074
 STRESS|      z          -0.021962874534     -0.525532803999      0.850489802445

 Number of electrons:                                                         14
 Number of occupied orbitals:                                                  7
 Number of molecular orbitals:                                                 7

 Number of orbital functions:                                                 14
 Number of independent orbital functions:                                     14

 Extrapolation method: ASPC


 SCF WAVEFUNCTION OPTIMIZATION

  ----------------------------------- OT ---------------------------------------
  Minimizer      : CG                  : conjugate gradient
  Preconditioner : FULL_ALL            : diagonalization, state selective
  Precond_solver : DEFAULT
  Line search    : 2PNT                : 2 energies, one gradient
  stepsize       :    0.15000000                  energy_gap     :    0.08000000
  eps_taylor     :   0.10000E-15                  max_taylor     :             4
  ----------------------------------- OT ---------------------------------------

  Step     Update method      Time    Convergence         Total energy    Change
  ------------------------------------------------------------------------------
     1 OT CG       0.15E+00    0.3     0.00821202       -16.1054988008 -1.61E+01
     2 OT LS       0.19E+00    0.3                      -16.1061073452
     3 OT CG       0.19E+00    0.5     0.00059136       -16.1061398664 -6.41E-04
     4 OT LS       0.24E+00    0.3                      -16.1061437917
     5 OT CG       0.24E+00    0.5     0.00005097       -16.1061439342 -4.07E-06

  *** SCF run converged in     5 steps ***


  Electronic density on regular grids:        -13.9999999997        0.0000000003
  Core density on regular grids:               13.9999999987       -0.0000000013
  Total charge density on r-space grids:       -0.0000000010
  Total charge density g-space grids:          -0.0000000010

  Overlap energy of the core charge distribution:               0.00002510045792
  Self energy of the core charge distribution:                -38.70122451907286
  Core Hamiltonian energy:                                     12.80288507001033
  Hartree energy:                                              15.45278160496552
  Exchange-correlation energy:                                 -5.66061119053651

  Total energy:                                               -16.10614393417560

  outer SCF iter =    1 RMS gradient =   0.51E-04 energy =        -16.1061439342
  outer SCF loop converged in   1 iterations or    5 steps


 ENERGY| Total FORCE_EVAL ( QS ) energy [a.u.]:              -16.106143955789712

 STRESS| Analytical stress tensor [GPa]
 STRESS|                        x                   y                   z
 STRESS|      x        1.70688877160E-01   1.51117935022E-01   4.56695828287E-02
 STRESS|      y        1.51117935022E-01   1.35262201085E-01   5.11223490361E-02
 STRESS|      z        4.56695828287E-02   5.11223490361E-02   3.73069402690E-01
 STRESS| 1/3 Trace                                             2.26340160312E-01
 STRESS| Determinant                                           7.11150716085E-05

 STRESS| Eigenvectors and eigenvalues of the analytical stress tensor [GPa]
 STRESS|                        1                   2                   3
 STRESS| Eigenvalues   6.50930935094E-04   2.63060010759E-01   4.15309539240E-01
 STRESS|      x          -0.660838521316      0.645999758082      0.382069053056
 STRESS|      y           0.750207261175      0.553674596167      0.361432575787
 STRESS|      z          -0.021943427862     -0.525479546811      0.850523210651

 Number of electrons:                                                         14
 Number of occupied orbitals:                                                  7
 Number of molecular orbitals:                                                 7

 Number of orbital functions:                                                 14
 Number of independent orbital functions:                                     14

 Extrapolation method: ASPC


 SCF WAVEFUNCTION OPTIMIZATION

  ----------------------------------- OT ---------------------------------------
  Minimizer      : CG                  : conjugate gradient
  Preconditioner : FULL_ALL            : diagonalization, state selective
  Precond_solver : DEFAULT
  Line search    : 2PNT                : 2 energies, one gradient
  stepsize       :    0.15000000                  energy_gap     :    0.08000000
  eps_taylor     :   0.10000E-15                  max_taylor     :             4
  ----------------------------------- OT ---------------------------------------

  Step     Update method      Time    Convergence         Total energy    Change
  ------------------------------------------------------------------------------
     1 OT CG       0.15E+00    0.3     0.00834258       -16.1060644166 -1.61E+01
     2 OT LS       0.19E+00    0.3                      -16.1066934799
     3 OT CG       0.19E+00    0.5     0.00070757       -16.1067291340 -6.65E-04
     4 OT LS       0.22E+00    0.3                      -16.1067345417
     5 OT CG       0.22E+00    0.5     0.00015447       -16.1067346348 -5.50E-06
     6 OT LS       0.15E+00    0.3                      -16.1067347543
     7 OT CG       0.15E+00    0.5     0.00001460       -16.1067348043 -1.70E-07

  *** SCF run converged in     7 steps ***


  Electronic density on regular grids:        -13.9999999997        0.0000000003
  Core density on regular grids:               13.9999999987       -0.0000000013
  Total charge density on r-space grids:       -0.0000000010
  Total charge density g-space grids:          -0.0000000010

  Overlap energy of the core charge distribution:               0.00002282405744
  Self energy of the core charge distribution:                -38.70122451907286
  Core Hamiltonian energy:                                     12.79340652453955
  Hartree energy:                                              15.45962715165419
  Exchange-correlation energy:                                 -5.65856678551499

  Total energy:                                               -16.10673480433667

  outer SCF iter =    1 RMS gradient =   0.15E-04 energy =        -16.1067348043
  outer SCF loop converged in   1 iterations or    7 steps


 ENERGY| Total FORCE_EVAL ( QS ) energy [a.u.]:              -16.106734806166486

 STRESS| Analytical stress tensor [GPa]
 STRESS|                        x                   y                   z
 STRESS|      x        1.69827982009E-01   1.44923193728E-01   3.36351727054E-02
 STRESS|      y        1.44923193728E-01   1.27762775820E-01   4.19626070369E-02
 STRESS|      z        3.36351727054E-02   4.19626070369E-02   3.51079470203E-01
 STRESS| 1/3 Trace                                             2.16223409344E-01
 STRESS| Determinant                                           2.09497285264E-04

 STRESS| Eigenvectors and eigenvalues of the analytical stress tensor [GPa]
 STRESS|                        1                   2                   3
 STRESS| Eigenvalues   2.07548852512E-03   2.63444161194E-01   3.83150578314E-01
 STRESS|      x          -0.650177936524      0.660544632130      0.375432337209
 STRESS|      y           0.759242480463      0.546237058591      0.353802108081
 STRESS|      z          -0.028627027752     -0.515078503518      0.856664828562

 Number of electrons:                                                         14
 Number of occupied orbitals:                                                  7
 Number of molecular orbitals:                                                 7

 Number of orbital functions:                                                 14
 Number of independent orbital functions:                                     14

 Extrapolation method: ASPC


 SCF WAVEFUNCTION OPTIMIZATION

  ----------------------------------- OT ---------------------------------------
  Minimizer      : CG                  : conjugate gradient
  Preconditioner : FULL_ALL            : diagonalization, state selective
  Precond_solver : DEFAULT
  Line search    : 2PNT                : 2 energies, one gradient
  stepsize       :    0.15000000                  energy_gap     :    0.08000000
  eps_taylor     :   0.10000E-15                  max_taylor     :             4
  ----------------------------------- OT ---------------------------------------

  Step     Update method      Time    Convergence         Total energy    Change
  ------------------------------------------------------------------------------
     1 OT CG       0.15E+00    0.3     0.00841224       -16.1060408885 -1.61E+01
     2 OT LS       0.20E+00    0.3                      -16.1066841365
     3 OT CG       0.20E+00    0.5     0.00089482       -16.1067216730 -6.81E-04
     4 OT LS       0.18E+00    0.3                      -16.1067288725
     5 OT CG       0.18E+00    0.5     0.00026926       -16.1067289011 -7.23E-06
     6 OT LS       0.17E+00    0.3                      -16.1067295045
     7 OT CG       0.17E+00    0.5     0.00001536       -16.1067295085 -6.07E-07

  *** SCF run converged in     7 steps ***


  Electronic density on regular grids:        -13.9999999997        0.0000000003
  Core density on regular grids:               13.9999999987       -0.0000000013
  Total charge density on r-space grids:       -0.0000000011
  Total charge density g-space grids:          -0.0000000011

  Overlap energy of the core charge distribution:               0.00002282405744
  Self energy of the core charge distribution:                -38.70122451907286
  Core Hamiltonian energy:                                     12.79343387383999
  Hartree energy:                                              15.45960974182992
  Exchange-correlation energy:                                 -5.65857142915782

  Total energy:                                               -16.10672950850332

  outer SCF iter =    1 RMS gradient =   0.15E-04 energy =        -16.1067295085
  outer SCF loop converged in   1 iterations or    7 steps


 ENERGY| Total FORCE_EVAL ( QS ) energy [a.u.]:              -16.106729510569689

 STRESS| Analytical stress tensor [GPa]
 STRESS|                        x                   y                   z
 STRESS|      x        1.69798778446E-01   1.44918955565E-01   3.36380160067E-02
 STRESS|      y        1.44918955565E-01   1.27707183616E-01   4.19660297424E-02
 STRESS|      z        3.36380160067E-02   4.19660297424E-02   3.51082191189E-01
 STRESS| 1/3 Trace                                             2.16196051083E-01
 STRESS| Determinant                                           2.05403575297E-04

 STRESS| Eigenvectors and eigenvalues of the analytical stress tensor [GPa]
 STRESS|                        1                   2                   3
 STRESS| Eigenvalues   2.03524008757E-03   2.63408632054E-01   3.83144281109E-01
 STRESS|      x          -0.650141235419      0.660633052351      0.375340304456
 STRESS|      y           0.759273684976      0.546259557355      0.353700392001
 STRESS|      z          -0.028632941016     -0.514941225908      0.856747155553

 Number of electrons:                                                         14
 Number of occupied orbitals:                                                  7
 Number of molecular orbitals:                                                 7

 Number of orbital functions:                                                 14
 Number of independent orbital functions:                                     14

 Extrapolation method: ASPC


 SCF WAVEFUNCTION OPTIMIZATION

  ----------------------------------- OT ---------------------------------------
  Minimizer      : CG                  : conjugate gradient
  Preconditioner : FULL_ALL            : diagonalization, state selective
  Precond_solver : DEFAULT
  Line search    : 2PNT                : 2 energies, one gradient
  stepsize       :    0.15000000                  energy_gap     :    0.08000000
  eps_taylor     :   0.10000E-15                  max_taylor     :             4
  ----------------------------------- OT ---------------------------------------

  Step     Update method      Time    Convergence         Total energy    Change
  ------------------------------------------------------------------------------
     1 OT CG       0.15E+00    0.3     0.00873608       -16.1069338643 -1.61E+01
     2 OT LS       0.20E+00    0.3                      -16.1076245591
     3 OT CG       0.20E+00    0.5     0.00114539       -16.1076640286 -7.30E-04
     4 OT LS       0.17E+00    0.3                      -16.1076749553
     5 OT CG       0.17E+00    0.5     0.00032441       -16.1076751440 -1.11E-05
     6 OT LS       0.18E+00    0.3                      -16.1076760845
     7 OT CG       0.18E+00    0.5     0.00001776       -16.1076760875 -9.43E-07

  *** SCF run converged in     7 steps ***


  Electronic density on regular grids:        -13.9999999998        0.0000000002
  Core density on regular grids:               13.9999999987       -0.0000000013
  Total charge density on r-space grids:       -0.0000000011
  Total charge density g-space grids:          -0.0000000011

  Overlap energy of the core charge distribution:               0.00001979568137
  Self energy of the core charge distribution:                -38.70122451907286
  Core Hamiltonian energy:                                     12.77305573669452
  Hartree energy:                                              15.47298756875735
  Exchange-correlation energy:                                 -5.65251466953079

  Total energy:                                               -16.10767608747042

  outer SCF iter =    1 RMS gradient =   0.18E-04 energy =        -16.1076760875
  outer SCF loop converged in   1 iterations or    7 steps


 ENERGY| Total FORCE_EVAL ( QS ) energy [a.u.]:              -16.107676090121771

 STRESS| Analytical stress tensor [GPa]
 STRESS|                        x                   y                   z
 STRESS|      x        1.49391399671E-01   1.21040595151E-01   1.87734153529E-02
 STRESS|      y        1.21040595151E-01   1.02913766656E-01   3.07822578042E-02
 STRESS|      z        1.87734153529E-02   3.07822578042E-02   2.87968494955E-01
 STRESS| 1/3 Trace                                             1.80091220427E-01
 STRESS| Determinant                                           1.70445089136E-04

 STRESS| Eigenvectors and eigenvalues of the analytical stress tensor [GPa]
 STRESS|                        1                   2                   3
 STRESS| Eigenvalues   2.40794692906E-03   2.29683942597E-01   3.08181771756E-01
 STRESS|      x          -0.631942604633      0.683566559367      0.365219527632
 STRESS|      y           0.773883028268      0.531099334664      0.345019644770
 STRESS|      z          -0.041876043358     -0.500669806992      0.864624855853

 Number of electrons:                                                         14
 Number of occupied orbitals:                                                  7
 Number of molecular orbitals:                                                 7

 Number of orbital functions:                                                 14
 Number of independent orbital functions:                                     14

 Extrapolation method: ASPC


 SCF WAVEFUNCTION OPTIMIZATION

  ----------------------------------- OT ---------------------------------------
  Minimizer      : CG                  : conjugate gradient
  Preconditioner : FULL_ALL            : diagonalization, state selective
  Precond_solver : DEFAULT
  Line search    : 2PNT                : 2 energies, one gradient
  stepsize       :    0.15000000                  energy_gap     :    0.08000000
  eps_taylor     :   0.10000E-15                  max_taylor     :             4
  ----------------------------------- OT ---------------------------------------

  Step     Update method      Time    Convergence         Total energy    Change
  ------------------------------------------------------------------------------
     1 OT CG       0.15E+00    0.3     0.00894207       -16.1068944556 -1.61E+01
     2 OT LS       0.19E+00    0.3                      -16.1076177511
     3 OT CG       0.19E+00    0.5     0.00144438       -16.1076580023 -7.64E-04
     4 OT LS       0.16E+00    0.3                      -16.1076734288
     5 OT CG       0.16E+00    0.5     0.00035388       -16.1076742497 -1.62E-05
     6 OT LS       0.20E+00    0.3                      -16.1076754232
     7 OT CG       0.20E+00    0.5     0.00002059       -16.1076754727 -1.22E-06

  *** SCF run converged in     7 steps ***


  Electronic density on regular grids:        -13.9999999998        0.0000000002
  Core density on regular grids:               13.9999999987       -0.0000000013
  Total charge density on r-space grids:       -0.0000000011
  Total charge density g-space grids:          -0.0000000011

  Overlap energy of the core charge distribution:               0.00001979568137
  Self energy of the core charge distribution:                -38.70122451907286
  Core Hamiltonian energy:                                     12.77305001159111
  Hartree energy:                                              15.47300083623968
  Exchange-correlation energy:                                 -5.65252159711165

  Total energy:                                               -16.10767547267235

  outer SCF iter =    1 RMS gradient =   0.21E-04 energy =        -16.1076754727
  outer SCF loop converged in   1 iterations or    7 steps


 ENERGY| Total FORCE_EVAL ( QS ) energy [a.u.]:              -16.107675476086936

 STRESS| Analytical stress tensor [GPa]
 STRESS|                        x                   y                   z
 STRESS|      x        1.49392069421E-01   1.21031082418E-01   1.87722127788E-02
 STRESS|      y        1.21031082418E-01   1.02914916091E-01   3.07817105637E-02
 STRESS|      z        1.87722127788E-02   3.07817105637E-02   2.87986251692E-01
 STRESS| 1/3 Trace                                             1.80097745735E-01
 STRESS| Determinant                                           1.71176602217E-04

 STRESS| Eigenvectors and eigenvalues of the analytical stress tensor [GPa]
 STRESS|                        1                   2                   3
 STRESS| Eigenvalues   2.41821013180E-03   2.29683236141E-01   3.08191790931E-01
 STRESS|      x          -0.631937434357      0.683626495217      0.365116274761
 STRESS|      y           0.773887203183      0.531147475123      0.344936162819
 STRESS|      z          -0.041876912596     -0.500536886460      0.864701769100

 Number of electrons:                                                         14
 Number of occupied orbitals:                                                  7
 Number of molecular orbitals:                                                 7

 Number of orbital functions:                                                 14
 Number of independent orbital functions:                                     14

 Extrapolation method: ASPC


 SCF WAVEFUNCTION OPTIMIZATION

  ----------------------------------- OT ---------------------------------------
  Minimizer      : CG                  : conjugate gradient
  Preconditioner : FULL_ALL            : diagonalization, state selective
  Precond_solver : DEFAULT
  Line search    : 2PNT                : 2 energies, one gradient
  stepsize       :    0.15000000                  energy_gap     :    0.08000000
  eps_taylor     :   0.10000E-15                  max_taylor     :             4
  ----------------------------------- OT ---------------------------------------

  Step     Update method      Time    Convergence         Total energy    Change
  ------------------------------------------------------------------------------
     1 OT CG       0.15E+00    0.3     0.00935324       -16.1077141098 -1.61E+01
     2 OT LS       0.19E+00    0.3                      -16.1084988509
     3 OT CG       0.19E+00    0.5     0.00169900       -16.1085391110 -8.25E-04
     4 OT LS       0.16E+00    0.3                      -16.1085606419
     5 OT CG       0.16E+00    0.5     0.00039166       -16.1085616281 -2.25E-05
     6 OT LS       0.20E+00    0.3                      -16.1085630692
     7 OT CG       0.20E+00    0.5     0.00002398       -16.1085631323 -1.50E-06

  *** SCF run converged in     7 steps ***


  Electronic density on regular grids:        -13.9999999998        0.0000000002
  Core density on regular grids:               13.9999999987       -0.0000000013
  Total charge density on r-space grids:       -0.0000000011
  Total charge density g-space grids:          -0.0000000011

  Overlap energy of the core charge distribution:               0.00001656026454
  Self energy of the core charge distribution:                -38.70122451907286
  Core Hamiltonian energy:                                     12.74350686087346
  Hartree energy:                                              15.49216089985062
  Exchange-correlation energy:                                 -5.64302293423840

  Total energy:                                               -16.10856313232264

  outer SCF iter =    1 RMS gradient =   0.24E-04 energy =        -16.1085631323
  outer SCF loop converged in   1 iterations or    7 steps


 ENERGY| Total FORCE_EVAL ( QS ) energy [a.u.]:              -16.108563136766151

 STRESS| Analytical stress tensor [GPa]
 STRESS|                        x                   y                   z
 STRESS|      x        1.12631423269E-01   8.36151245399E-02   4.63688476821E-03
 STRESS|      y        8.36151245399E-02   6.42297866424E-02   2.05279395275E-02
 STRESS|      z        4.63688476821E-03   2.05279395275E-02   1.91562466850E-01
 STRESS| 1/3 Trace                                             1.22807892254E-01
 STRESS| Determinant                                           1.35864625654E-05

 STRESS| Eigenvectors and eigenvalues of the analytical stress tensor [GPa]
 STRESS|                        1                   2                   3
 STRESS| Eigenvalues   4.05194030214E-04   1.65880702896E-01   2.02137779836E-01
 STRESS|      x          -0.594021109541      0.710884875905      0.376538994832
 STRESS|      y           0.801253551583      0.481164429731      0.355631182038
 STRESS|      z          -0.071635657991     -0.512955636260      0.855420860006

 Number of electrons:                                                         14
 Number of occupied orbitals:                                                  7
 Number of molecular orbitals:                                                 7

 Number of orbital functions:                                                 14
 Number of independent orbital functions:                                     14

 Extrapolation method: ASPC


 SCF WAVEFUNCTION OPTIMIZATION

  ----------------------------------- OT ---------------------------------------
  Minimizer      : CG                  : conjugate gradient
  Preconditioner : FULL_ALL            : diagonalization, state selective
  Precond_solver : DEFAULT
  Line search    : 2PNT                : 2 energies, one gradient
  stepsize       :    0.15000000                  energy_gap     :    0.08000000
  eps_taylor     :   0.10000E-15                  max_taylor     :             4
  ----------------------------------- OT ---------------------------------------

  Step     Update method      Time    Convergence         Total energy    Change
  ------------------------------------------------------------------------------
     1 OT CG       0.15E+00    0.3     0.00959921       -16.1076711292 -1.61E+01
     2 OT LS       0.19E+00    0.3                      -16.1084941456
     3 OT CG       0.19E+00    0.5     0.00200236       -16.1085339607 -8.63E-04
     4 OT LS       0.15E+00    0.3                      -16.1085626583
     5 OT CG       0.15E+00    0.5     0.00040438       -16.1085643442 -3.04E-05
     6 OT LS       0.21E+00    0.3                      -16.1085659009
     7 OT CG       0.21E+00    0.5     0.00002763       -16.1085660099 -1.67E-06

  *** SCF run converged in     7 steps ***


  Electronic density on regular grids:        -13.9999999998        0.0000000002
  Core density on regular grids:               13.9999999987       -0.0000000013
  Total charge density on r-space grids:       -0.0000000011
  Total charge density g-space grids:          -0.0000000011

  Overlap energy of the core charge distribution:               0.00001656026454
  Self energy of the core charge distribution:                -38.70122451907286
  Core Hamiltonian energy:                                     12.74349903451108
  Hartree energy:                                              15.49217916753991
  Exchange-correlation energy:                                 -5.64303625315227

  Total energy:                                               -16.10856600990959

  outer SCF iter =    1 RMS gradient =   0.28E-04 energy =        -16.1085660099
  outer SCF loop converged in   1 iterations or    7 steps


 ENERGY| Total FORCE_EVAL ( QS ) energy [a.u.]:              -16.108566015595496

 STRESS| Analytical stress tensor [GPa]
 STRESS|                        x                   y                   z
 STRESS|      x        1.12642976284E-01   8.36110640178E-02   4.63430289184E-03
 STRESS|      y        8.36110640178E-02   6.42810486137E-02   2.05235089995E-02
 STRESS|      z        4.63430289184E-03   2.05235089995E-02   1.91586850300E-01
 STRESS| 1/3 Trace                                             1.22836958399E-01
 STRESS| Determinant                                           1.49739082860E-05

 STRESS| Eigenvectors and eigenvalues of the analytical stress tensor [GPa]
 STRESS|                        1                   2                   3
 STRESS| Eigenvalues   4.46458600020E-04   1.65906118826E-01   2.02158297771E-01
 STRESS|      x          -0.594105711386      0.710855486271      0.376460995771
 STRESS|      y           0.801191975789      0.481267974785      0.355629799620
 STRESS|      z          -0.071622773122     -0.512899224103      0.855455764073

 Number of electrons:                                                         14
 Number of occupied orbitals:                                                  7
 Number of molecular orbitals:                                                 7

 Number of orbital functions:                                                 14
 Number of independent orbital functions:                                     14

 Extrapolation method: ASPC


 SCF WAVEFUNCTION OPTIMIZATION

  ----------------------------------- OT ---------------------------------------
  Minimizer      : CG                  : conjugate gradient
  Preconditioner : FULL_ALL            : diagonalization, state selective
  Precond_solver : DEFAULT
  Line search    : 2PNT                : 2 energies, one gradient
  stepsize       :    0.15000000                  energy_gap     :    0.08000000
  eps_taylor     :   0.10000E-15                  max_taylor     :             4
  ----------------------------------- OT ---------------------------------------

  Step     Update method      Time    Convergence         Total energy    Change
  ------------------------------------------------------------------------------
     1 OT CG       0.15E+00    0.3     0.00999521       -16.1079556693 -1.61E+01
     2 OT LS       0.19E+00    0.3                      -16.1088402945
     3 OT CG       0.19E+00    0.5     0.00220120       -16.1088789513 -9.23E-04
     4 OT LS       0.16E+00    0.3                      -16.1089146048
     5 OT CG       0.16E+00    0.5     0.00043664       -16.1089161434 -3.72E-05
     6 OT LS       0.21E+00    0.3                      -16.1089179544
     7 OT CG       0.21E+00    0.5     0.00003106       -16.1089180621 -1.92E-06

  *** SCF run converged in     7 steps ***


  Electronic density on regular grids:        -13.9999999998        0.0000000002
  Core density on regular grids:               13.9999999987       -0.0000000013
  Total charge density on r-space grids:       -0.0000000011
  Total charge density g-space grids:          -0.0000000011

  Overlap energy of the core charge distribution:               0.00001353101729
  Self energy of the core charge distribution:                -38.70122451907286
  Core Hamiltonian energy:                                     12.70765791331926
  Hartree energy:                                              15.51570285818357
  Exchange-correlation energy:                                 -5.63106784556068

  Total energy:                                               -16.10891806211341

  outer SCF iter =    1 RMS gradient =   0.31E-04 energy =        -16.1089180621
  outer SCF loop converged in   1 iterations or    7 steps


 ENERGY| Total FORCE_EVAL ( QS ) energy [a.u.]:              -16.108918069126958

 STRESS| Analytical stress tensor [GPa]
 STRESS|                        x                   y                   z
 STRESS|      x        6.44514958898E-02   3.84906232661E-02  -5.76430956561E-03
 STRESS|      y        3.84906232661E-02   1.71082946074E-02   1.33230009493E-02
 STRESS|      z       -5.76430956561E-03   1.33230009493E-02   7.37733661965E-02
 STRESS| 1/3 Trace                                             5.17777188979E-02
 STRESS| Determinant                                          -4.58714814880E-05

 STRESS| Eigenvectors and eigenvalues of the analytical stress tensor [GPa]
 STRESS|                        1                   2                   3
 STRESS| Eigenvalues  -6.99042150538E-03   7.61430237518E-02   8.61805544473E-02
 STRESS|      x          -0.477871692151     -0.212300906567      0.852388978643
 STRESS|      y           0.860602447715      0.081350556950      0.502738017133
 STRESS|      z          -0.176074054954      0.973812308381      0.143831551537

 Number of electrons:                                                         14
 Number of occupied orbitals:                                                  7
 Number of molecular orbitals:                                                 7

 Number of orbital functions:                                                 14
 Number of independent orbital functions:                                     14

 Extrapolation method: ASPC


 SCF WAVEFUNCTION OPTIMIZATION

  ----------------------------------- OT ---------------------------------------
  Minimizer      : CG                  : conjugate gradient
  Preconditioner : FULL_ALL            : diagonalization, state selective
  Precond_solver : DEFAULT
  Line search    : 2PNT                : 2 energies, one gradient
  stepsize       :    0.15000000                  energy_gap     :    0.08000000
  eps_taylor     :   0.10000E-15                  max_taylor     :             4
  ----------------------------------- OT ---------------------------------------

  Step     Update method      Time    Convergence         Total energy    Change
  ------------------------------------------------------------------------------
     1 OT CG       0.15E+00    0.3     0.01020901       -16.1079157462 -1.61E+01
     2 OT LS       0.19E+00    0.3                      -16.1088336369
     3 OT CG       0.19E+00    0.5     0.00247322       -16.1088712277 -9.55E-04
     4 OT LS       0.15E+00    0.3                      -16.1089156112
     5 OT CG       0.15E+00    0.5     0.00043991       -16.1089176395 -4.64E-05
     6 OT LS       0.21E+00    0.3                      -16.1089194941
     7 OT CG       0.21E+00    0.5     0.00003488       -16.1089196329 -1.99E-06

  *** SCF run converged in     7 steps ***


  Electronic density on regular grids:        -13.9999999998        0.0000000002
  Core density on regular grids:               13.9999999987       -0.0000000013
  Total charge density on r-space grids:       -0.0000000011
  Total charge density g-space grids:          -0.0000000011

  Overlap energy of the core charge distribution:               0.00001353101729
  Self energy of the core charge distribution:                -38.70122451907286
  Core Hamiltonian energy:                                     12.70765297931835
  Hartree energy:                                              15.51572202347270
  Exchange-correlation energy:                                 -5.63108364763400

  Total energy:                                               -16.10891963289852

  outer SCF iter =    1 RMS gradient =   0.35E-04 energy =        -16.1089196329
  outer SCF loop converged in   1 iterations or    7 steps


 ENERGY| Total FORCE_EVAL ( QS ) energy [a.u.]:              -16.108919641534399

 STRESS| Analytical stress tensor [GPa]
 STRESS|                        x                   y                   z
 STRESS|      x        6.44462221352E-02   3.85070941296E-02  -5.76714217165E-03
 STRESS|      y        3.85070941296E-02   1.71586503083E-02   1.33148533674E-02
 STRESS|      z       -5.76714217165E-03   1.33148533674E-02   7.38076052955E-02
 STRESS| 1/3 Trace                                             5.18041592464E-02
 STRESS| Determinant                                          -4.57343222786E-05

 STRESS| Eigenvectors and eigenvalues of the analytical stress tensor [GPa]
 STRESS|                        1                   2                   3
 STRESS| Eigenvalues  -6.96483648557E-03   7.61749016660E-02   8.62024125586E-02
 STRESS|      x          -0.478190809146     -0.212303166325      0.852209431781
 STRESS|      y           0.860444043474      0.081183887640      0.503036007098
 STRESS|      z          -0.175981811838      0.973825724633      0.143853605955

 Number of electrons:                                                         14
 Number of occupied orbitals:                                                  7
 Number of molecular orbitals:                                                 7

 Number of orbital functions:                                                 14
 Number of independent orbital functions:                                     14

 Extrapolation method: ASPC


 SCF WAVEFUNCTION OPTIMIZATION

  ----------------------------------- OT ---------------------------------------
  Minimizer      : CG                  : conjugate gradient
  Preconditioner : FULL_ALL            : diagonalization, state selective
  Precond_solver : DEFAULT
  Line search    : 2PNT                : 2 energies, one gradient
  stepsize       :    0.15000000                  energy_gap     :    0.08000000
  eps_taylor     :   0.10000E-15                  max_taylor     :             4
  ----------------------------------- OT ---------------------------------------

  Step     Update method      Time    Convergence         Total energy    Change
  ------------------------------------------------------------------------------
     1 OT CG       0.15E+00    0.3     0.01049499       -16.1073661634 -1.61E+01
     2 OT LS       0.19E+00    0.3                      -16.1083302641
     3 OT CG       0.19E+00    0.5     0.00259474       -16.1083665217 -1.00E-03
     4 OT LS       0.16E+00    0.3                      -16.1084163256
     5 OT CG       0.16E+00    0.5     0.00046675       -16.1084180829 -5.16E-05
     6 OT LS       0.21E+00    0.3                      -16.1084201610
     7 OT CG       0.21E+00    0.5     0.00003777       -16.1084202926 -2.21E-06

  *** SCF run converged in     7 steps ***


  Electronic density on regular grids:        -13.9999999998        0.0000000002
  Core density on regular grids:               13.9999999987       -0.0000000013
  Total charge density on r-space grids:       -0.0000000011
  Total charge density g-space grids:          -0.0000000011

  Overlap energy of the core charge distribution:               0.00001094170158
  Self energy of the core charge distribution:                -38.70122451907286
  Core Hamiltonian energy:                                     12.66888338007817
  Hartree energy:                                              15.54175174021685
  Exchange-correlation energy:                                 -5.61784183548240

  Total energy:                                               -16.10842029255867

  outer SCF iter =    1 RMS gradient =   0.38E-04 energy =        -16.1084202926
  outer SCF loop converged in   1 iterations or    7 steps


 ENERGY| Total FORCE_EVAL ( QS ) energy [a.u.]:              -16.108420302542520

 STRESS| Analytical stress tensor [GPa]
 STRESS|                        x                   y                   z
 STRESS|      x        1.05377414689E-02  -8.13382863631E-03  -1.06434255253E-02
 STRESS|      y       -8.13382863631E-03  -3.23786851910E-02   1.01125325655E-02
 STRESS|      z       -1.06434255253E-02   1.01125325655E-02  -5.20232549149E-02
 STRESS| 1/3 Trace                                            -2.46213995456E-02
 STRESS| Determinant                                           2.55332914565E-05

 STRESS| Eigenvectors and eigenvalues of the analytical stress tensor [GPa]
 STRESS|                        1                   2                   3
 STRESS| Eigenvalues  -5.69991653718E-02  -3.12155449154E-02   1.43505116503E-02
 STRESS|      x           0.104906295757      0.257765306984      0.960495557317
 STRESS|      y          -0.347988876815      0.914279885061     -0.207354848956
 STRESS|      z           0.931610654041      0.312488941066     -0.185613175686

 Number of electrons:                                                         14
 Number of occupied orbitals:                                                  7
 Number of molecular orbitals:                                                 7

 Number of orbital functions:                                                 14
 Number of independent orbital functions:                                     14

 Extrapolation method: ASPC


 SCF WAVEFUNCTION OPTIMIZATION

  ----------------------------------- OT ---------------------------------------
  Minimizer      : CG                  : conjugate gradient
  Preconditioner : FULL_ALL            : diagonalization, state selective
  Precond_solver : DEFAULT
  Line search    : 2PNT                : 2 energies, one gradient
  stepsize       :    0.15000000                  energy_gap     :    0.08000000
  eps_taylor     :   0.10000E-15                  max_taylor     :             4
  ----------------------------------- OT ---------------------------------------

  Step     Update method      Time    Convergence         Total energy    Change
  ------------------------------------------------------------------------------
     1 OT CG       0.15E+00    0.3     0.01060981       -16.1073409472 -1.61E+01
     2 OT LS       0.18E+00    0.3                      -16.1083215311
     3 OT CG       0.18E+00    0.5     0.00282298       -16.1083565359 -1.02E-03
     4 OT LS       0.16E+00    0.3                      -16.1084150669
     5 OT CG       0.16E+00    0.5     0.00046104       -16.1084171859 -6.06E-05
     6 OT LS       0.21E+00    0.3                      -16.1084192272
     7 OT CG       0.21E+00    0.5     0.00004141       -16.1084193796 -2.19E-06

  *** SCF run converged in     7 steps ***


  Electronic density on regular grids:        -13.9999999998        0.0000000002
  Core density on regular grids:               13.9999999987       -0.0000000013
  Total charge density on r-space grids:       -0.0000000011
  Total charge density g-space grids:          -0.0000000011

  Overlap energy of the core charge distribution:               0.00001094170158
  Self energy of the core charge distribution:                -38.70122451907286
  Core Hamiltonian energy:                                     12.66887607128897
  Hartree energy:                                              15.54177598937581
  Exchange-correlation energy:                                 -5.61785786284929

  Total energy:                                               -16.10841937955579

  outer SCF iter =    1 RMS gradient =   0.41E-04 energy =        -16.1084193796
  outer SCF loop converged in   1 iterations or    7 steps


 ENERGY| Total FORCE_EVAL ( QS ) energy [a.u.]:              -16.108419391378472

 STRESS| Analytical stress tensor [GPa]
 STRESS|                        x                   y                   z
 STRESS|      x        1.05270237619E-02  -8.11828159650E-03  -1.06493127259E-02
 STRESS|      y       -8.11828159650E-03  -3.23608960313E-02   1.00998240089E-02
 STRESS|      z       -1.06493127259E-02   1.00998240089E-02  -5.19770134398E-02
 STRESS| 1/3 Trace                                            -2.46036285697E-02
 STRESS| Determinant                                           2.54748145874E-05

 STRESS| Eigenvectors and eigenvalues of the analytical stress tensor [GPa]
 STRESS|                        1                   2                   3
 STRESS| Eigenvalues  -5.69510465441E-02  -3.11977539306E-02   1.43379147655E-02
 STRESS|      x           0.105167678852      0.257632945892      0.960502485429
 STRESS|      y          -0.347915762940      0.914351882231     -0.207159980109
 STRESS|      z           0.931608491386      0.312387420764     -0.185794828037

 Number of electrons:                                                         14
 Number of occupied orbitals:                                                  7
 Number of molecular orbitals:                                                 7

 Number of orbital functions:                                                 14
 Number of independent orbital functions:                                     14

 Extrapolation method: ASPC


 SCF WAVEFUNCTION OPTIMIZATION

  ----------------------------------- OT ---------------------------------------
  Minimizer      : CG                  : conjugate gradient
  Preconditioner : FULL_ALL            : diagonalization, state selective
  Precond_solver : DEFAULT
  Line search    : 2PNT                : 2 energies, one gradient
  stepsize       :    0.15000000                  energy_gap     :    0.08000000
  eps_taylor     :   0.10000E-15                  max_taylor     :             4
  ----------------------------------- OT ---------------------------------------

  Step     Update method      Time    Convergence         Total energy    Change
  ------------------------------------------------------------------------------
     1 OT CG       0.15E+00    0.3     0.01072016       -16.1059421505 -1.61E+01
     2 OT LS       0.18E+00    0.3                      -16.1069412105
     3 OT CG       0.18E+00    0.5     0.00285680       -16.1069754466 -1.03E-03
     4 OT LS       0.16E+00    0.3                      -16.1070357534
     5 OT CG       0.16E+00    0.5     0.00048135       -16.1070377020 -6.23E-05
     6 OT LS       0.21E+00    0.3                      -16.1070399121
     7 OT CG       0.21E+00    0.5     0.00004324       -16.1070400575 -2.36E-06

  *** SCF run converged in     7 steps ***


  Electronic density on regular grids:        -13.9999999998        0.0000000002
  Core density on regular grids:               13.9999999987       -0.0000000013
  Total charge density on r-space grids:       -0.0000000011
  Total charge density g-space grids:          -0.0000000011

  Overlap energy of the core charge distribution:               0.00000887427726
  Self energy of the core charge distribution:                -38.70122451907286
  Core Hamiltonian energy:                                     12.63048006603037
  Hartree energy:                                              15.56827924917996
  Exchange-correlation energy:                                 -5.60458372788584

  Total energy:                                               -16.10704005747111

  outer SCF iter =    1 RMS gradient =   0.43E-04 energy =        -16.1070400575
  outer SCF loop converged in   1 iterations or    7 steps


 ENERGY| Total FORCE_EVAL ( QS ) energy [a.u.]:              -16.107040070229360

 STRESS| Analytical stress tensor [GPa]
 STRESS|                        x                   y                   z
 STRESS|      x       -4.34507144189E-02  -5.08385517886E-02  -9.58415535876E-03
 STRESS|      y       -5.08385517886E-02  -7.86012419798E-02   1.07898888503E-02
 STRESS|      z       -9.58415535876E-03   1.07898888503E-02  -1.73325709051E-01
 STRESS| 1/3 Trace                                            -9.84592218166E-02
 STRESS| Determinant                                          -1.21192205714E-04

 STRESS| Eigenvectors and eigenvalues of the analytical stress tensor [GPa]
 STRESS|                        1                   2                   3
 STRESS| Eigenvalues  -1.74681342867E-01  -1.14644665417E-01  -6.05165716527E-03
 STRESS|      x           0.036957292153      0.585043236703      0.810159595231
 STRESS|      y          -0.092190586985      0.809252220269     -0.580182505477
 STRESS|      z           0.995055302095      0.053247114279     -0.083843250133

 Number of electrons:                                                         14
 Number of occupied orbitals:                                                  7
 Number of molecular orbitals:                                                 7

 Number of orbital functions:                                                 14
 Number of independent orbital functions:                                     14

 Extrapolation method: ASPC


 SCF WAVEFUNCTION OPTIMIZATION

  ----------------------------------- OT ---------------------------------------
  Minimizer      : CG                  : conjugate gradient
  Preconditioner : FULL_ALL            : diagonalization, state selective
  Precond_solver : DEFAULT
  Line search    : 2PNT                : 2 energies, one gradient
  stepsize       :    0.15000000                  energy_gap     :    0.08000000
  eps_taylor     :   0.10000E-15                  max_taylor     :             4
  ----------------------------------- OT ---------------------------------------

  Step     Update method      Time    Convergence         Total energy    Change
  ------------------------------------------------------------------------------
     1 OT CG       0.15E+00    0.3     0.01070040       -16.1059417879 -1.61E+01
     2 OT LS       0.18E+00    0.3                      -16.1069337688
     3 OT CG       0.18E+00    0.5     0.00303617       -16.1069667674 -1.02E-03
     4 OT LS       0.15E+00    0.3                      -16.1070344102
     5 OT CG       0.15E+00    0.5     0.00046674       -16.1070367170 -6.99E-05
     6 OT LS       0.21E+00    0.3                      -16.1070388053
     7 OT CG       0.21E+00    0.5     0.00004631       -16.1070389636 -2.25E-06

  *** SCF run converged in     7 steps ***


  Electronic density on regular grids:        -13.9999999998        0.0000000002
  Core density on regular grids:               13.9999999987       -0.0000000013
  Total charge density on r-space grids:       -0.0000000011
  Total charge density g-space grids:          -0.0000000011

  Overlap energy of the core charge distribution:               0.00000887427726
  Self energy of the core charge distribution:                -38.70122451907286
  Core Hamiltonian energy:                                     12.63046774936015
  Hartree energy:                                              15.56830987547876
  Exchange-correlation energy:                                 -5.60460094361979

  Total energy:                                               -16.10703896357647

  outer SCF iter =    1 RMS gradient =   0.46E-04 energy =        -16.1070389636
  outer SCF loop converged in   1 iterations or    7 steps


 ENERGY| Total FORCE_EVAL ( QS ) energy [a.u.]:              -16.107038978082777

 STRESS| Analytical stress tensor [GPa]
 STRESS|                        x                   y                   z
 STRESS|      x       -4.34420563330E-02  -5.08485359601E-02  -9.59594558727E-03
 STRESS|      y       -5.08485359601E-02  -7.86054708265E-02   1.07699288090E-02
 STRESS|      z       -9.59594558727E-03   1.07699288090E-02  -1.73268533731E-01
 STRESS| 1/3 Trace                                            -9.84386869634E-02
 STRESS| Determinant                                          -1.20888726410E-04

 STRESS| Eigenvectors and eigenvalues of the analytical stress tensor [GPa]
 STRESS|                        1                   2                   3
 STRESS| Eigenvalues  -1.74621898860E-01  -1.14656212121E-01  -6.03794990891E-03
 STRESS|      x           0.037152546088      0.584996248470      0.810184594765
 STRESS|      y          -0.091939414358      0.809306729624     -0.580146327639
 STRESS|      z           0.995071270014      0.052933983989     -0.083852018058

 Number of electrons:                                                         14
 Number of occupied orbitals:                                                  7
 Number of molecular orbitals:                                                 7

 Number of orbital functions:                                                 14
 Number of independent orbital functions:                                     14

 Extrapolation method: ASPC


 SCF WAVEFUNCTION OPTIMIZATION

  ----------------------------------- OT ---------------------------------------
  Minimizer      : CG                  : conjugate gradient
  Preconditioner : FULL_ALL            : diagonalization, state selective
  Precond_solver : DEFAULT
  Line search    : 2PNT                : 2 energies, one gradient
  stepsize       :    0.15000000                  energy_gap     :    0.08000000
  eps_taylor     :   0.10000E-15                  max_taylor     :             4
  ----------------------------------- OT ---------------------------------------

  Step     Update method      Time    Convergence         Total energy    Change
  ------------------------------------------------------------------------------
     1 OT CG       0.15E+00    0.3     0.01061087       -16.1039452101 -1.61E+01
     2 OT LS       0.18E+00    0.3                      -16.1049234651
     3 OT CG       0.18E+00    0.5     0.00297604       -16.1049567028 -1.01E-03
     4 OT LS       0.15E+00    0.3                      -16.1050212438
     5 OT CG       0.15E+00    0.5     0.00047938       -16.1050235947 -6.69E-05
     6 OT LS       0.21E+00    0.3                      -16.1050257798
     7 OT CG       0.21E+00    0.5     0.00004653       -16.1050259337 -2.34E-06

  *** SCF run converged in     7 steps ***


  Electronic density on regular grids:        -13.9999999998        0.0000000002
  Core density on regular grids:               13.9999999987       -0.0000000013
  Total charge density on r-space grids:       -0.0000000011
  Total charge density g-space grids:          -0.0000000011

  Overlap energy of the core charge distribution:               0.00000731451884
  Self energy of the core charge distribution:                -38.70122451907286
  Core Hamiltonian energy:                                     12.59529620930153
  Hartree energy:                                              15.59332898436598
  Exchange-correlation energy:                                 -5.59243392276916

  Total energy:                                               -16.10502593365567

  outer SCF iter =    1 RMS gradient =   0.47E-04 energy =        -16.1050259337
  outer SCF loop converged in   1 iterations or    7 steps


 ENERGY| Total FORCE_EVAL ( QS ) energy [a.u.]:              -16.105025948178195

 STRESS| Analytical stress tensor [GPa]
 STRESS|                        x                   y                   z
 STRESS|      x       -9.25455561988E-02  -8.55172094649E-02  -3.24281397548E-03
 STRESS|      y       -8.55172094649E-02  -1.17103116213E-01   1.45925218982E-02
 STRESS|      z       -3.24281397548E-03   1.45925218982E-02  -2.79914698260E-01
 STRESS| 1/3 Trace                                            -1.63187790224E-01
 STRESS| Determinant                                          -9.57438018629E-04

 STRESS| Eigenvectors and eigenvalues of the analytical stress tensor [GPa]
 STRESS|                        1                   2                   3
 STRESS| Eigenvalues  -2.81342709827E-01  -1.90341755180E-01  -1.78789056642E-02
 STRESS|      x          -0.030011420822      0.656937936221      0.753347106302
 STRESS|      y          -0.103953894255      0.747548157877     -0.656022362061
 STRESS|      z           0.994129218205      0.098001528602     -0.045856274404

 Number of electrons:                                                         14
 Number of occupied orbitals:                                                  7
 Number of molecular orbitals:                                                 7

 Number of orbital functions:                                                 14
 Number of independent orbital functions:                                     14

 Extrapolation method: ASPC


 SCF WAVEFUNCTION OPTIMIZATION

  ----------------------------------- OT ---------------------------------------
  Minimizer      : CG                  : conjugate gradient
  Preconditioner : FULL_ALL            : diagonalization, state selective
  Precond_solver : DEFAULT
  Line search    : 2PNT                : 2 energies, one gradient
  stepsize       :    0.15000000                  energy_gap     :    0.08000000
  eps_taylor     :   0.10000E-15                  max_taylor     :             4
  ----------------------------------- OT ---------------------------------------

  Step     Update method      Time    Convergence         Total energy    Change
  ------------------------------------------------------------------------------
     1 OT CG       0.15E+00    0.3     0.01044772       -16.1039713101 -1.61E+01
     2 OT LS       0.18E+00    0.3                      -16.1049181489
     3 OT CG       0.18E+00    0.5     0.00310243       -16.1049502042 -9.79E-04
     4 OT LS       0.15E+00    0.3                      -16.1050196546
     5 OT CG       0.15E+00    0.5     0.00045657       -16.1050224529 -7.22E-05
     6 OT LS       0.21E+00    0.3                      -16.1050244408
     7 OT CG       0.21E+00    0.5     0.00004856       -16.1050246007 -2.15E-06

  *** SCF run converged in     7 steps ***


  Electronic density on regular grids:        -13.9999999998        0.0000000002
  Core density on regular grids:               13.9999999987       -0.0000000013
  Total charge density on r-space grids:       -0.0000000011
  Total charge density g-space grids:          -0.0000000011

  Overlap energy of the core charge distribution:               0.00000731451884
  Self energy of the core charge distribution:                -38.70122451907286
  Core Hamiltonian energy:                                     12.59528451121982
  Hartree energy:                                              15.59335997563177
  Exchange-correlation energy:                                 -5.59245188302678

  Total energy:                                               -16.10502460072920

  outer SCF iter =    1 RMS gradient =   0.49E-04 energy =        -16.1050246007
  outer SCF loop converged in   1 iterations or    7 steps


 ENERGY| Total FORCE_EVAL ( QS ) energy [a.u.]:              -16.105024616515969

 STRESS| Analytical stress tensor [GPa]
 STRESS|                        x                   y                   z
 STRESS|      x       -9.25294103179E-02  -8.55323337898E-02  -3.25990673290E-03
 STRESS|      y       -8.55323337898E-02  -1.17124089221E-01   1.45652743422E-02
 STRESS|      z       -3.25990673290E-03   1.45652743422E-02  -2.79846243860E-01
 STRESS| 1/3 Trace                                            -1.63166581133E-01
 STRESS| Determinant                                          -9.56521576256E-04

 STRESS| Eigenvectors and eigenvalues of the analytical stress tensor [GPa]
 STRESS|                        1                   2                   3
 STRESS| Eigenvalues  -2.81268716844E-01  -1.90366894806E-01  -1.78641317487E-02
 STRESS|      x          -0.029856629388      0.656866883517      0.753415210239
 STRESS|      y          -0.103773209453      0.747641086134     -0.655945064258
 STRESS|      z           0.994152756211      0.097768623099     -0.045843141862

 Number of electrons:                                                         14
 Number of occupied orbitals:                                                  7
 Number of molecular orbitals:                                                 7

 Number of orbital functions:                                                 14
 Number of independent orbital functions:                                     14

 Extrapolation method: ASPC


 SCF WAVEFUNCTION OPTIMIZATION

  ----------------------------------- OT ---------------------------------------
  Minimizer      : CG                  : conjugate gradient
  Preconditioner : FULL_ALL            : diagonalization, state selective
  Precond_solver : DEFAULT
  Line search    : 2PNT                : 2 energies, one gradient
  stepsize       :    0.15000000                  energy_gap     :    0.08000000
  eps_taylor     :   0.10000E-15                  max_taylor     :             4
  ----------------------------------- OT ---------------------------------------

  Step     Update method      Time    Convergence         Total energy    Change
  ------------------------------------------------------------------------------
     1 OT CG       0.15E+00    0.3     0.01016664       -16.1017869230 -1.61E+01
     2 OT LS       0.19E+00    0.3                      -16.1026906849
     3 OT CG       0.19E+00    0.5     0.00294595       -16.1027240956 -9.37E-04
     4 OT LS       0.15E+00    0.3                      -16.1027854719
     5 OT CG       0.15E+00    0.5     0.00046095       -16.1027885551 -6.45E-05
     6 OT LS       0.21E+00    0.3                      -16.1027905627
     7 OT CG       0.21E+00    0.5     0.00004677       -16.1027907203 -2.17E-06

  *** SCF run converged in     7 steps ***


  Electronic density on regular grids:        -13.9999999998        0.0000000002
  Core density on regular grids:               13.9999999987       -0.0000000013
  Total charge density on r-space grids:       -0.0000000011
  Total charge density g-space grids:          -0.0000000011

  Overlap energy of the core charge distribution:               0.00000620381077
  Self energy of the core charge distribution:                -38.70122451907286
  Core Hamiltonian energy:                                     12.56555857072474
  Hartree energy:                                              15.61520656021267
  Exchange-correlation energy:                                 -5.58233753595864

  Total energy:                                               -16.10279072028331

  outer SCF iter =    1 RMS gradient =   0.47E-04 energy =        -16.1027907203
  outer SCF loop converged in   1 iterations or    7 steps


 ENERGY| Total FORCE_EVAL ( QS ) energy [a.u.]:              -16.102790734824090

 STRESS| Analytical stress tensor [GPa]
 STRESS|                        x                   y                   z
 STRESS|      x       -1.32849120651E-01  -1.09457963412E-01   7.13765068947E-03
 STRESS|      y       -1.09457963412E-01  -1.44872397211E-01   2.05267265884E-02
 STRESS|      z        7.13765068947E-03   2.05267265884E-02  -3.64317272606E-01
 STRESS| 1/3 Trace                                            -2.14012930156E-01
 STRESS| Determinant                                          -2.61552821265E-03

 STRESS| Eigenvectors and eigenvalues of the analytical stress tensor [GPa]
 STRESS|                        1                   2                   3
 STRESS| Eigenvalues  -3.67841859196E-01  -2.45198049693E-01  -2.89988815789E-02
 STRESS|      x          -0.093657764091      0.683079399883      0.724313990394
 STRESS|      y          -0.136764696021      0.711787956080     -0.688950886132
 STRESS|      z           0.986166132631      0.163586182284     -0.026756678010

 Number of electrons:                                                         14
 Number of occupied orbitals:                                                  7
 Number of molecular orbitals:                                                 7

 Number of orbital functions:                                                 14
 Number of independent orbital functions:                                     14

 Extrapolation method: ASPC


 SCF WAVEFUNCTION OPTIMIZATION

  ----------------------------------- OT ---------------------------------------
  Minimizer      : CG                  : conjugate gradient
  Preconditioner : FULL_ALL            : diagonalization, state selective
  Precond_solver : DEFAULT
  Line search    : 2PNT                : 2 energies, one gradient
  stepsize       :    0.15000000                  energy_gap     :    0.08000000
  eps_taylor     :   0.10000E-15                  max_taylor     :             4
  ----------------------------------- OT ---------------------------------------

  Step     Update method      Time    Convergence         Total energy    Change
  ------------------------------------------------------------------------------
     1 OT CG       0.15E+00    0.3     0.00987073       -16.1018357008 -1.61E+01
     2 OT LS       0.19E+00    0.3                      -16.1026880646
     3 OT CG       0.19E+00    0.5     0.00301448       -16.1027203406 -8.85E-04
     4 OT LS       0.15E+00    0.3                      -16.1027835769
     5 OT CG       0.15E+00    0.5     0.00043155       -16.1027872686 -6.69E-05
     6 OT LS       0.21E+00    0.3                      -16.1027890299
     7 OT CG       0.21E+00    0.5     0.00004736       -16.1027891873 -1.92E-06

  *** SCF run converged in     7 steps ***


  Electronic density on regular grids:        -13.9999999998        0.0000000002
  Core density on regular grids:               13.9999999987       -0.0000000013
  Total charge density on r-space grids:       -0.0000000011
  Total charge density g-space grids:          -0.0000000011

  Overlap energy of the core charge distribution:               0.00000620381077
  Self energy of the core charge distribution:                -38.70122451907286
  Core Hamiltonian energy:                                     12.56555093159838
  Hartree energy:                                              15.61523359532038
  Exchange-correlation energy:                                 -5.58235539893808

  Total energy:                                               -16.10278918728140

  outer SCF iter =    1 RMS gradient =   0.47E-04 energy =        -16.1027891873
  outer SCF loop converged in   1 iterations or    7 steps


 ENERGY| Total FORCE_EVAL ( QS ) energy [a.u.]:              -16.102789202303988

 STRESS| Analytical stress tensor [GPa]
 STRESS|                        x                   y                   z
 STRESS|      x       -1.32847383004E-01  -1.09455760030E-01   7.12051208384E-03
 STRESS|      y       -1.09455760030E-01  -1.44891715975E-01   2.04963414865E-02
 STRESS|      z        7.12051208384E-03   2.04963414865E-02  -3.64242589916E-01
 STRESS| 1/3 Trace                                            -2.13993896298E-01
 STRESS| Determinant                                          -2.61608016787E-03

 STRESS| Eigenvectors and eigenvalues of the analytical stress tensor [GPa]
 STRESS|                        1                   2                   3
 STRESS| Eigenvalues  -3.67758158854E-01  -2.45213789610E-01  -2.90097404302E-02
 STRESS|      x          -0.093563947148      0.683051994398      0.724351959163
 STRESS|      y          -0.136648758360      0.711848040081     -0.688911811969
 STRESS|      z           0.986191109589      0.163439104200     -0.026734894530

 Number of electrons:                                                         14
 Number of occupied orbitals:                                                  7
 Number of molecular orbitals:                                                 7

 Number of orbital functions:                                                 14
 Number of independent orbital functions:                                     14

 Extrapolation method: ASPC


 SCF WAVEFUNCTION OPTIMIZATION

  ----------------------------------- OT ---------------------------------------
  Minimizer      : CG                  : conjugate gradient
  Preconditioner : FULL_ALL            : diagonalization, state selective
  Precond_solver : DEFAULT
  Line search    : 2PNT                : 2 energies, one gradient
  stepsize       :    0.15000000                  energy_gap     :    0.08000000
  eps_taylor     :   0.10000E-15                  max_taylor     :             4
  ----------------------------------- OT ---------------------------------------

  Step     Update method      Time    Convergence         Total energy    Change
  ------------------------------------------------------------------------------
     1 OT CG       0.15E+00    0.3     0.00942945       -16.0998935715 -1.61E+01
     2 OT LS       0.19E+00    0.3                      -16.1006814261
     3 OT CG       0.19E+00    0.5     0.00276377       -16.1007159547 -8.22E-04
     4 OT LS       0.15E+00    0.3                      -16.1007672684
     5 OT CG       0.15E+00    0.5     0.00042788       -16.1007713892 -5.54E-05
     6 OT LS       0.21E+00    0.3                      -16.1007731030
     7 OT CG       0.21E+00    0.5     0.00004341       -16.1007732579 -1.87E-06

  *** SCF run converged in     7 steps ***


  Electronic density on regular grids:        -13.9999999998        0.0000000002
  Core density on regular grids:               13.9999999987       -0.0000000013
  Total charge density on r-space grids:       -0.0000000011
  Total charge density g-space grids:          -0.0000000011

  Overlap energy of the core charge distribution:               0.00000547549075
  Self energy of the core charge distribution:                -38.70122451907286
  Core Hamiltonian energy:                                     12.54284067047434
  Hartree energy:                                              15.63260762948160
  Exchange-correlation energy:                                 -5.57500251424942

  Total energy:                                               -16.10077325787559

  outer SCF iter =    1 RMS gradient =   0.43E-04 energy =        -16.1007732579
  outer SCF loop converged in   1 iterations or    7 steps


 ENERGY| Total FORCE_EVAL ( QS ) energy [a.u.]:              -16.100773270478967

 STRESS| Analytical stress tensor [GPa]
 STRESS|                        x                   y                   z
 STRESS|      x       -1.61569340511E-01  -1.21251661458E-01   2.01679119944E-02
 STRESS|      y       -1.21251661458E-01  -1.60173313845E-01   2.76645528933E-02
 STRESS|      z        2.01679119944E-02   2.76645528933E-02  -4.21655534498E-01
 STRESS| 1/3 Trace                                            -2.47799396285E-01
 STRESS| Determinant                                          -4.65939756291E-03

 STRESS| Eigenvectors and eigenvalues of the analytical stress tensor [GPa]
 STRESS|                        1                   2                   3
 STRESS| Eigenvalues  -4.29486260512E-01  -2.74371486617E-01  -3.95404417248E-02
 STRESS|      x          -0.149040537626      0.694809219604     -0.703581599033
 STRESS|      y          -0.167214454967      0.683572194309      0.710470535081
 STRESS|      z           0.974590295557      0.223537924122      0.014302177616

 Number of electrons:                                                         14
 Number of occupied orbitals:                                                  7
 Number of molecular orbitals:                                                 7

 Number of orbital functions:                                                 14
 Number of independent orbital functions:                                     14

 Extrapolation method: ASPC


 SCF WAVEFUNCTION OPTIMIZATION

  ----------------------------------- OT ---------------------------------------
  Minimizer      : CG                  : conjugate gradient
  Preconditioner : FULL_ALL            : diagonalization, state selective
  Precond_solver : DEFAULT
  Line search    : 2PNT                : 2 energies, one gradient
  stepsize       :    0.15000000                  energy_gap     :    0.08000000
  eps_taylor     :   0.10000E-15                  max_taylor     :             4
  ----------------------------------- OT ---------------------------------------

  Step     Update method      Time    Convergence         Total energy    Change
  ------------------------------------------------------------------------------
     1 OT CG       0.15E+00    0.3     0.00902778       -16.0999594433 -1.61E+01
     2 OT LS       0.19E+00    0.3                      -16.1006839791
     3 OT CG       0.19E+00    0.5     0.00277013       -16.1007174404 -7.58E-04
     4 OT LS       0.15E+00    0.3                      -16.1007675302
     5 OT CG       0.15E+00    0.5     0.00039448       -16.1007724526 -5.50E-05
     6 OT LS       0.21E+00    0.3                      -16.1007739070
     7 OT CG       0.21E+00    0.5     0.00004249       -16.1007740568 -1.60E-06

  *** SCF run converged in     7 steps ***


  Electronic density on regular grids:        -13.9999999998        0.0000000002
  Core density on regular grids:               13.9999999987       -0.0000000013
  Total charge density on r-space grids:       -0.0000000011
  Total charge density g-space grids:          -0.0000000011

  Overlap energy of the core charge distribution:               0.00000547549075
  Self energy of the core charge distribution:                -38.70122451907286
  Core Hamiltonian energy:                                     12.54283666525646
  Hartree energy:                                              15.63262906929167
  Exchange-correlation energy:                                 -5.57502074773047

  Total energy:                                               -16.10077405676446

  outer SCF iter =    1 RMS gradient =   0.42E-04 energy =        -16.1007740568
  outer SCF loop converged in   1 iterations or    7 steps


 ENERGY| Total FORCE_EVAL ( QS ) energy [a.u.]:              -16.100774069103068

 STRESS| Analytical stress tensor [GPa]
 STRESS|                        x                   y                   z
 STRESS|      x       -1.61576517404E-01  -1.21245043025E-01   2.01591480535E-02
 STRESS|      y       -1.21245043025E-01  -1.60158713337E-01   2.76359798657E-02
 STRESS|      z        2.01591480535E-02   2.76359798657E-02  -4.21585167264E-01
 STRESS| 1/3 Trace                                            -2.47773466001E-01
 STRESS| Determinant                                          -4.65888425629E-03

 STRESS| Eigenvectors and eigenvalues of the analytical stress tensor [GPa]
 STRESS|                        1                   2                   3
 STRESS| Eigenvalues  -4.29406987653E-01  -2.74369779893E-01  -3.95436304580E-02
 STRESS|      x          -0.149020094642      0.694841576018     -0.703553974923
 STRESS|      y          -0.167139957476      0.683561338552      0.710498508832
 STRESS|      z           0.974606200477      0.223470536480      0.014271416104

 Number of electrons:                                                         14
 Number of occupied orbitals:                                                  7
 Number of molecular orbitals:                                                 7

 Number of orbital functions:                                                 14
 Number of independent orbital functions:                                     14

 Extrapolation method: ASPC


 SCF WAVEFUNCTION OPTIMIZATION

  ----------------------------------- OT ---------------------------------------
  Minimizer      : CG                  : conjugate gradient
  Preconditioner : FULL_ALL            : diagonalization, state selective
  Precond_solver : DEFAULT
  Line search    : 2PNT                : 2 energies, one gradient
  stepsize       :    0.15000000                  energy_gap     :    0.08000000
  eps_taylor     :   0.10000E-15                  max_taylor     :             4
  ----------------------------------- OT ---------------------------------------

  Step     Update method      Time    Convergence         Total energy    Change
  ------------------------------------------------------------------------------
     1 OT CG       0.15E+00    0.3     0.00847682       -16.0985847640 -1.61E+01
     2 OT LS       0.19E+00    0.3                      -16.0992342806
     3 OT CG       0.19E+00    0.5     0.00243292       -16.0992703815 -6.86E-04
     4 OT LS       0.14E+00    0.3                      -16.0993069744
     5 OT CG       0.14E+00    0.5     0.00038410       -16.0993121316 -4.18E-05
     6 OT LS       0.21E+00    0.3                      -16.0993134948
     7 OT CG       0.21E+00    0.5     0.00003672       -16.0993136383 -1.51E-06

  *** SCF run converged in     7 steps ***


  Electronic density on regular grids:        -13.9999999998        0.0000000002
  Core density on regular grids:               13.9999999987       -0.0000000013
  Total charge density on r-space grids:       -0.0000000011
  Total charge density g-space grids:          -0.0000000011

  Overlap energy of the core charge distribution:               0.00000507615362
  Self energy of the core charge distribution:                -38.70122451907286
  Core Hamiltonian energy:                                     12.52812236378907
  Hartree energy:                                              15.64467090977632
  Exchange-correlation energy:                                 -5.57088746889682

  Total energy:                                               -16.09931363825068

  outer SCF iter =    1 RMS gradient =   0.37E-04 energy =        -16.0993136383
  outer SCF loop converged in   1 iterations or    7 steps


 ENERGY| Total FORCE_EVAL ( QS ) energy [a.u.]:              -16.099313647620939

 STRESS| Analytical stress tensor [GPa]
 STRESS|                        x                   y                   z
 STRESS|      x       -1.76901042083E-01  -1.20566706636E-01   3.45847579337E-02
 STRESS|      y       -1.20566706636E-01  -1.62284077750E-01   3.52815956291E-02
 STRESS|      z        3.45847579337E-02   3.52815956291E-02  -4.49223111503E-01
 STRESS| 1/3 Trace                                            -2.62802743778E-01
 STRESS| Determinant                                          -6.24625989902E-03

 STRESS| Eigenvectors and eigenvalues of the analytical stress tensor [GPa]
 STRESS|                        1                   2                   3
 STRESS| Eigenvalues  -4.63323667056E-01  -2.76290142580E-01  -4.87944216991E-02
 STRESS|      x          -0.196709713133      0.701861383477     -0.684613677298
 STRESS|      y          -0.191479165327      0.657310846530      0.728888318112
 STRESS|      z           0.961582559121      0.274468667462      0.005092403823

 Number of electrons:                                                         14
 Number of occupied orbitals:                                                  7
 Number of molecular orbitals:                                                 7

 Number of orbital functions:                                                 14
 Number of independent orbital functions:                                     14

 Extrapolation method: ASPC


 SCF WAVEFUNCTION OPTIMIZATION

  ----------------------------------- OT ---------------------------------------
  Minimizer      : CG                  : conjugate gradient
  Preconditioner : FULL_ALL            : diagonalization, state selective
  Precond_solver : DEFAULT
  Line search    : 2PNT                : 2 energies, one gradient
  stepsize       :    0.15000000                  energy_gap     :    0.08000000
  eps_taylor     :   0.10000E-15                  max_taylor     :             4
  ----------------------------------- OT ---------------------------------------

  Step     Update method      Time    Convergence         Total energy    Change
  ------------------------------------------------------------------------------
     1 OT CG       0.15E+00    0.3     0.00800854       -16.0986587135 -1.61E+01
     2 OT LS       0.20E+00    0.3                      -16.0992422561
     3 OT CG       0.20E+00    0.5     0.00237462       -16.0992773424 -6.19E-04
     4 OT LS       0.14E+00    0.3                      -16.0993104056
     5 OT CG       0.14E+00    0.5     0.00034988       -16.0993164311 -3.91E-05
     6 OT LS       0.21E+00    0.3                      -16.0993175564
     7 OT CG       0.21E+00    0.5     0.00003480       -16.0993176913 -1.26E-06

  *** SCF run converged in     7 steps ***


  Electronic density on regular grids:        -13.9999999998        0.0000000002
  Core density on regular grids:               13.9999999987       -0.0000000013
  Total charge density on r-space grids:       -0.0000000011
  Total charge density g-space grids:          -0.0000000011

  Overlap energy of the core charge distribution:               0.00000507615362
  Self energy of the core charge distribution:                -38.70122451907286
  Core Hamiltonian energy:                                     12.52812459911180
  Hartree energy:                                              15.64468223378601
  Exchange-correlation energy:                                 -5.57090508129359

  Total energy:                                               -16.09931769131502

  outer SCF iter =    1 RMS gradient =   0.35E-04 energy =        -16.0993176913
  outer SCF loop converged in   1 iterations or    7 steps


 ENERGY| Total FORCE_EVAL ( QS ) energy [a.u.]:              -16.099317700169763

 STRESS| Analytical stress tensor [GPa]
 STRESS|                        x                   y                   z
 STRESS|      x       -1.76911285590E-01  -1.20570818157E-01   3.45909332625E-02
 STRESS|      y       -1.20570818157E-01  -1.62231270950E-01   3.52594838093E-02
 STRESS|      z        3.45909332625E-02   3.52594838093E-02  -4.49164553341E-01
 STRESS| 1/3 Trace                                            -2.62769036627E-01
 STRESS| Determinant                                          -6.24167040707E-03

 STRESS| Eigenvectors and eigenvalues of the analytical stress tensor [GPa]
 STRESS|                        1                   2                   3
 STRESS| Eigenvalues  -4.63262487237E-01  -2.76277357128E-01  -4.87672655167E-02
 STRESS|      x          -0.196764636674      0.701932394828     -0.684525084161
 STRESS|      y          -0.191438184059      0.657230237983      0.728971766233
 STRESS|      z           0.961579481603      0.274480103783      0.005056994010

 Number of electrons:                                                         14
 Number of occupied orbitals:                                                  7
 Number of molecular orbitals:                                                 7

 Number of orbital functions:                                                 14
 Number of independent orbital functions:                                     14

 Extrapolation method: ASPC


 SCF WAVEFUNCTION OPTIMIZATION

  ----------------------------------- OT ---------------------------------------
  Minimizer      : CG                  : conjugate gradient
  Preconditioner : FULL_ALL            : diagonalization, state selective
  Precond_solver : DEFAULT
  Line search    : 2PNT                : 2 energies, one gradient
  stepsize       :    0.15000000                  energy_gap     :    0.08000000
  eps_taylor     :   0.10000E-15                  max_taylor     :             4
  ----------------------------------- OT ---------------------------------------

  Step     Update method      Time    Convergence         Total energy    Change
  ------------------------------------------------------------------------------
     1 OT CG       0.15E+00    0.3     0.00741104       -16.0979913130 -1.61E+01
     2 OT LS       0.20E+00    0.3                      -16.0985004320
     3 OT CG       0.20E+00    0.5     0.00196535       -16.0985377300 -5.46E-04
     4 OT LS       0.14E+00    0.3                      -16.0985587991
     5 OT CG       0.14E+00    0.5     0.00033494       -16.0985641959 -2.65E-05
     6 OT LS       0.21E+00    0.3                      -16.0985652142
     7 OT CG       0.21E+00    0.5     0.00002856       -16.0985653341 -1.14E-06

  *** SCF run converged in     7 steps ***


  Electronic density on regular grids:        -13.9999999998        0.0000000002
  Core density on regular grids:               13.9999999987       -0.0000000013
  Total charge density on r-space grids:       -0.0000000011
  Total charge density g-space grids:          -0.0000000011

  Overlap energy of the core charge distribution:               0.00000497677524
  Self energy of the core charge distribution:                -38.70122451907286
  Core Hamiltonian energy:                                     12.52186433960136
  Hartree energy:                                              15.65098807710783
  Exchange-correlation energy:                                 -5.57019820849880

  Total energy:                                               -16.09856533408723

  outer SCF iter =    1 RMS gradient =   0.29E-04 energy =        -16.0985653341
  outer SCF loop converged in   1 iterations or    7 steps


 ENERGY| Total FORCE_EVAL ( QS ) energy [a.u.]:              -16.098565340388220

 STRESS| Analytical stress tensor [GPa]
 STRESS|                        x                   y                   z
 STRESS|      x       -1.77922078236E-01  -1.07868065787E-01   4.93430116266E-02
 STRESS|      y       -1.07868065787E-01  -1.51304902872E-01   4.28767867561E-02
 STRESS|      z        4.93430116266E-02   4.28767867561E-02  -4.46070457491E-01
 STRESS| 1/3 Trace                                            -2.58432479533E-01
 STRESS| Determinant                                          -6.57911461017E-03

 STRESS| Eigenvectors and eigenvalues of the analytical stress tensor [GPa]
 STRESS|                        1                   2                   3
 STRESS| Eigenvalues  -4.68015186349E-01  -2.51355580499E-01  -5.59266717516E-02
 STRESS|      x          -0.239275676920      0.709590712856     -0.662742914457
 STRESS|      y          -0.209837381700      0.628648358929      0.748845454054
 STRESS|      z           0.948006025126      0.318248740837     -0.001521604364

 Number of electrons:                                                         14
 Number of occupied orbitals:                                                  7
 Number of molecular orbitals:                                                 7

 Number of orbital functions:                                                 14
 Number of independent orbital functions:                                     14

 Extrapolation method: ASPC


 SCF WAVEFUNCTION OPTIMIZATION

  ----------------------------------- OT ---------------------------------------
  Minimizer      : CG                  : conjugate gradient
  Preconditioner : FULL_ALL            : diagonalization, state selective
  Precond_solver : DEFAULT
  Line search    : 2PNT                : 2 energies, one gradient
  stepsize       :    0.15000000                  energy_gap     :    0.08000000
  eps_taylor     :   0.10000E-15                  max_taylor     :             4
  ----------------------------------- OT ---------------------------------------

  Step     Update method      Time    Convergence         Total energy    Change
  ------------------------------------------------------------------------------
     1 OT CG       0.15E+00    0.3     0.00692274       -16.0980616882 -1.61E+01
     2 OT LS       0.21E+00    0.3                      -16.0985101995
     3 OT CG       0.21E+00    0.5     0.00184285       -16.0985463481 -4.85E-04
     4 OT LS       0.14E+00    0.3                      -16.0985632564
     5 OT CG       0.14E+00    0.5     0.00030316       -16.0985691296 -2.28E-05
     6 OT LS       0.21E+00    0.3                      -16.0985699558
     7 OT CG       0.21E+00    0.5     0.00002755       -16.0985700638 -9.34E-07

  *** SCF run converged in     7 steps ***


  Electronic density on regular grids:        -13.9999999997        0.0000000003
  Core density on regular grids:               13.9999999987       -0.0000000013
  Total charge density on r-space grids:       -0.0000000011
  Total charge density g-space grids:          -0.0000000011

  Overlap energy of the core charge distribution:               0.00000497677524
  Self energy of the core charge distribution:                -38.70122451907286
  Core Hamiltonian energy:                                     12.52188047988541
  Hartree energy:                                              15.65098098016533
  Exchange-correlation energy:                                 -5.57021198156648

  Total energy:                                               -16.09857006381336

  outer SCF iter =    1 RMS gradient =   0.28E-04 energy =        -16.0985700638
  outer SCF loop converged in   1 iterations or    7 steps


 ENERGY| Total FORCE_EVAL ( QS ) energy [a.u.]:              -16.098570070126307

 STRESS| Analytical stress tensor [GPa]
 STRESS|                        x                   y                   z
 STRESS|      x       -1.77950331953E-01  -1.07878143766E-01   4.93660955145E-02
 STRESS|      y       -1.07878143766E-01  -1.51241648811E-01   4.28674455785E-02
 STRESS|      z        4.93660955145E-02   4.28674455785E-02  -4.46031575285E-01
 STRESS| 1/3 Trace                                            -2.58407852016E-01
 STRESS| Determinant                                          -6.57449335544E-03

 STRESS| Eigenvectors and eigenvalues of the analytical stress tensor [GPa]
 STRESS|                        1                   2                   3
 STRESS| Eigenvalues  -4.67986847630E-01  -2.51343178158E-01  -5.58935302601E-02
 STRESS|      x          -0.239397900179      0.709686489381     -0.662596205981
 STRESS|      y          -0.209831532580      0.628495704099      0.748975218458
 STRESS|      z           0.947976462432      0.318336671967     -0.001545948114

 Number of electrons:                                                         14
 Number of occupied orbitals:                                                  7
 Number of molecular orbitals:                                                 7

 Number of orbital functions:                                                 14
 Number of independent orbital functions:                                     14

 Extrapolation method: ASPC


 SCF WAVEFUNCTION OPTIMIZATION

  ----------------------------------- OT ---------------------------------------
  Minimizer      : CG                  : conjugate gradient
  Preconditioner : FULL_ALL            : diagonalization, state selective
  Precond_solver : DEFAULT
  Line search    : 2PNT                : 2 energies, one gradient
  stepsize       :    0.15000000                  energy_gap     :    0.08000000
  eps_taylor     :   0.10000E-15                  max_taylor     :             4
  ----------------------------------- OT ---------------------------------------

  Step     Update method      Time    Convergence         Total energy    Change
  ------------------------------------------------------------------------------
     1 OT CG       0.15E+00    0.3     0.00634522       -16.0980318278 -1.61E+01
     2 OT LS       0.21E+00    0.3                      -16.0984152029
     3 OT CG       0.21E+00    0.5     0.00139044       -16.0984520560 -4.20E-04
     4 OT LS       0.14E+00    0.3                      -16.0984613872
     5 OT CG       0.14E+00    0.5     0.00028536       -16.0984651841 -1.31E-05
     6 OT LS       0.20E+00    0.3                      -16.0984659064
     7 OT CG       0.20E+00    0.5     0.00002424       -16.0984659818 -7.98E-07

  *** SCF run converged in     7 steps ***


  Electronic density on regular grids:        -13.9999999997        0.0000000003
  Core density on regular grids:               13.9999999987       -0.0000000013
  Total charge density on r-space grids:       -0.0000000011
  Total charge density g-space grids:          -0.0000000011

  Overlap energy of the core charge distribution:               0.00000517865753
  Self energy of the core charge distribution:                -38.70122451907286
  Core Hamiltonian energy:                                     12.52403554057755
  Hartree energy:                                              15.65160674164350
  Exchange-correlation energy:                                 -5.57288892364164

  Total energy:                                               -16.09846598183591

  outer SCF iter =    1 RMS gradient =   0.24E-04 energy =        -16.0984659818
  outer SCF loop converged in   1 iterations or    7 steps


 ENERGY| Total FORCE_EVAL ( QS ) energy [a.u.]:              -16.098465986917830

 STRESS| Analytical stress tensor [GPa]
 STRESS|                        x                   y                   z
 STRESS|      x       -1.64499362479E-01  -8.42462971393E-02   6.35777066650E-02
 STRESS|      y       -8.42462971393E-02  -1.28035384606E-01   5.01202613843E-02
 STRESS|      z        6.35777066650E-02   5.01202613843E-02  -4.12786331022E-01
 STRESS| 1/3 Trace                                            -2.35107026036E-01
 STRESS| Determinant                                          -5.37041523640E-03

 STRESS| Eigenvectors and eigenvalues of the analytical stress tensor [GPa]
 STRESS|                        1                   2                   3
 STRESS| Eigenvalues  -4.43797876563E-01  -2.01455006638E-01  -6.00681949053E-02
 STRESS|      x          -0.279798316298      0.725359119017     -0.628941213991
 STRESS|      y          -0.222875737579      0.588134195182      0.777447473503
 STRESS|      z           0.933830449169      0.357704231059     -0.002894008908

 Number of electrons:                                                         14
 Number of occupied orbitals:                                                  7
 Number of molecular orbitals:                                                 7

 Number of orbital functions:                                                 14
 Number of independent orbital functions:                                     14

 Extrapolation method: ASPC


 SCF WAVEFUNCTION OPTIMIZATION

  ----------------------------------- OT ---------------------------------------
  Minimizer      : CG                  : conjugate gradient
  Preconditioner : FULL_ALL            : diagonalization, state selective
  Precond_solver : DEFAULT
  Line search    : 2PNT                : 2 energies, one gradient
  stepsize       :    0.15000000                  energy_gap     :    0.08000000
  eps_taylor     :   0.10000E-15                  max_taylor     :             4
  ----------------------------------- OT ---------------------------------------

  Step     Update method      Time    Convergence         Total energy    Change
  ------------------------------------------------------------------------------
     1 OT CG       0.15E+00    0.3     0.00588652       -16.0980888350 -1.61E+01
     2 OT LS       0.22E+00    0.3                      -16.0984223107
     3 OT CG       0.22E+00    0.5     0.00121734       -16.0984574139 -3.69E-04
     4 OT LS       0.14E+00    0.3                      -16.0984639995
     5 OT CG       0.14E+00    0.5     0.00025794       -16.0984673711 -9.96E-06
     6 OT LS       0.20E+00    0.3                      -16.0984679527
     7 OT CG       0.20E+00    0.5     0.00002673       -16.0984680098 -6.39E-07

  *** SCF run converged in     7 steps ***


  Electronic density on regular grids:        -13.9999999997        0.0000000003
  Core density on regular grids:               13.9999999987       -0.0000000013
  Total charge density on r-space grids:       -0.0000000010
  Total charge density g-space grids:          -0.0000000010

  Overlap energy of the core charge distribution:               0.00000517865753
  Self energy of the core charge distribution:                -38.70122451907286
  Core Hamiltonian energy:                                     12.52408181078474
  Hartree energy:                                              15.65156719873921
  Exchange-correlation energy:                                 -5.57289767893646

  Total energy:                                               -16.09846800982783

  outer SCF iter =    1 RMS gradient =   0.27E-04 energy =        -16.0984680098
  outer SCF loop converged in   1 iterations or    7 steps


 ENERGY| Total FORCE_EVAL ( QS ) energy [a.u.]:              -16.098468016017279

 STRESS| Analytical stress tensor [GPa]
 STRESS|                        x                   y                   z
 STRESS|      x       -1.64557718271E-01  -8.42534516813E-02   6.36140096283E-02
 STRESS|      y       -8.42534516813E-02  -1.27998862075E-01   5.01286294832E-02
 STRESS|      z        6.36140096283E-02   5.01286294832E-02  -4.12785854821E-01
 STRESS| 1/3 Trace                                            -2.35114145055E-01
 STRESS| Determinant                                          -5.37022812280E-03

 STRESS| Eigenvectors and eigenvalues of the analytical stress tensor [GPa]
 STRESS|                        1                   2                   3
 STRESS| Eigenvalues  -4.43823569410E-01  -2.01456765249E-01  -6.00621005083E-02
 STRESS|      x          -0.279952613663      0.725479451393     -0.628733727193
 STRESS|      y          -0.222895969425      0.587904562843      0.777615336656
 STRESS|      z           0.933779374862      0.357837659554     -0.002878973336

 Number of electrons:                                                         14
 Number of occupied orbitals:                                                  7
 Number of molecular orbitals:                                                 7

 Number of orbital functions:                                                 14
 Number of independent orbital functions:                                     14

 Extrapolation method: ASPC


 SCF WAVEFUNCTION OPTIMIZATION

  ----------------------------------- OT ---------------------------------------
  Minimizer      : CG                  : conjugate gradient
  Preconditioner : FULL_ALL            : diagonalization, state selective
  Precond_solver : DEFAULT
  Line search    : 2PNT                : 2 energies, one gradient
  stepsize       :    0.15000000                  energy_gap     :    0.08000000
  eps_taylor     :   0.10000E-15                  max_taylor     :             4
  ----------------------------------- OT ---------------------------------------

  Step     Update method      Time    Convergence         Total energy    Change
  ------------------------------------------------------------------------------
     1 OT CG       0.15E+00    0.3     0.00538914       -16.0984473160 -1.61E+01
     2 OT LS       0.22E+00    0.3                      -16.0987298566
     3 OT CG       0.22E+00    0.5     0.00080898       -16.0987631567 -3.16E-04
     4 OT LS       0.15E+00    0.3                      -16.0987671575
     5 OT CG       0.15E+00    0.5     0.00022703       -16.0987681094 -4.95E-06
     6 OT LS       0.17E+00    0.3                      -16.0987685398
     7 OT CG       0.17E+00    0.5     0.00002800       -16.0987685446 -4.35E-07

  *** SCF run converged in     7 steps ***


  Electronic density on regular grids:        -13.9999999997        0.0000000003
  Core density on regular grids:               13.9999999987       -0.0000000013
  Total charge density on r-space grids:       -0.0000000011
  Total charge density g-space grids:          -0.0000000011

  Overlap energy of the core charge distribution:               0.00000571724500
  Self energy of the core charge distribution:                -38.70122451907286
  Core Hamiltonian energy:                                     12.53407507844923
  Hartree energy:                                              15.64703800837308
  Exchange-correlation energy:                                 -5.57866282958312

  Total energy:                                               -16.09876854458868

  outer SCF iter =    1 RMS gradient =   0.28E-04 energy =        -16.0987685446
  outer SCF loop converged in   1 iterations or    7 steps


 ENERGY| Total FORCE_EVAL ( QS ) energy [a.u.]:              -16.098768551117718

 STRESS| Analytical stress tensor [GPa]
 STRESS|                        x                   y                   z
 STRESS|      x       -1.37237713082E-01  -5.13765786948E-02   7.64941270333E-02
 STRESS|      y       -5.13765786948E-02  -9.39683143887E-02   5.67567255558E-02
 STRESS|      z        7.64941270333E-02   5.67567255558E-02  -3.51526092460E-01
 STRESS| 1/3 Trace                                            -1.94244039977E-01
 STRESS| Determinant                                          -3.05958715844E-03

 STRESS| Eigenvectors and eigenvalues of the analytical stress tensor [GPa]
 STRESS|                        1                   2                   3
 STRESS| Eigenvalues  -3.92511325516E-01  -1.30481092126E-01  -5.97397022880E-02
 STRESS|      x          -0.321530869907      0.780510177821     -0.536117302476
 STRESS|      y          -0.229960522117      0.484867254500      0.843813903525
 STRESS|      z           0.918551064429      0.394598033234      0.023586737881

 Number of electrons:                                                         14
 Number of occupied orbitals:                                                  7
 Number of molecular orbitals:                                                 7

 Number of orbital functions:                                                 14
 Number of independent orbital functions:                                     14

 Extrapolation method: ASPC


 SCF WAVEFUNCTION OPTIMIZATION

  ----------------------------------- OT ---------------------------------------
  Minimizer      : CG                  : conjugate gradient
  Preconditioner : FULL_ALL            : diagonalization, state selective
  Precond_solver : DEFAULT
  Line search    : 2PNT                : 2 energies, one gradient
  stepsize       :    0.15000000                  energy_gap     :    0.08000000
  eps_taylor     :   0.10000E-15                  max_taylor     :             4
  ----------------------------------- OT ---------------------------------------

  Step     Update method      Time    Convergence         Total energy    Change
  ------------------------------------------------------------------------------
     1 OT CG       0.15E+00    0.3     0.00500363       -16.0984876235 -1.61E+01
     2 OT LS       0.23E+00    0.3                      -16.0987329892
     3 OT CG       0.23E+00    0.5     0.00066814       -16.0987634194 -2.76E-04
     4 OT LS       0.17E+00    0.3                      -16.0987666063
     5 OT CG       0.17E+00    0.5     0.00018353       -16.0987670538 -3.63E-06
     6 OT LS       0.16E+00    0.3                      -16.0987673159
     7 OT CG       0.16E+00    0.5     0.00003048       -16.0987673165 -2.63E-07

  *** SCF run converged in     7 steps ***


  Electronic density on regular grids:        -13.9999999997        0.0000000003
  Core density on regular grids:               13.9999999987       -0.0000000013
  Total charge density on r-space grids:       -0.0000000010
  Total charge density g-space grids:          -0.0000000010

  Overlap energy of the core charge distribution:               0.00000571724500
  Self energy of the core charge distribution:                -38.70122451907286
  Core Hamiltonian energy:                                     12.53421275327373
  Hartree energy:                                              15.64691838594311
  Exchange-correlation energy:                                 -5.57867965385593

  Total energy:                                               -16.09876731646695

  outer SCF iter =    1 RMS gradient =   0.30E-04 energy =        -16.0987673165
  outer SCF loop converged in   1 iterations or    7 steps


 ENERGY| Total FORCE_EVAL ( QS ) energy [a.u.]:              -16.098767323942660

 STRESS| Analytical stress tensor [GPa]
 STRESS|                        x                   y                   z
 STRESS|      x       -1.37316206915E-01  -5.13894550631E-02   7.65281811656E-02
 STRESS|      y       -5.13894550631E-02  -9.39870970061E-02   5.67735077715E-02
 STRESS|      z        7.65281811656E-02   5.67735077715E-02  -3.51584710636E-01
 STRESS| 1/3 Trace                                            -1.94296004853E-01
 STRESS| Determinant                                          -3.06255149732E-03

 STRESS| Eigenvectors and eigenvalues of the analytical stress tensor [GPa]
 STRESS|                        1                   2                   3
 STRESS| Eigenvalues  -3.92599005325E-01  -1.30524802219E-01  -5.97642070142E-02
 STRESS|      x          -0.321644453077      0.780613768206     -0.535898302565
 STRESS|      y          -0.229983829344      0.484617317109      0.843951120740
 STRESS|      z           0.918505462175      0.394700140416      0.023654071737

 Number of electrons:                                                         14
 Number of occupied orbitals:                                                  7
 Number of molecular orbitals:                                                 7

 Number of orbital functions:                                                 14
 Number of independent orbital functions:                                     14

 Extrapolation method: ASPC


 SCF WAVEFUNCTION OPTIMIZATION

  ----------------------------------- OT ---------------------------------------
  Minimizer      : CG                  : conjugate gradient
  Preconditioner : FULL_ALL            : diagonalization, state selective
  Precond_solver : DEFAULT
  Line search    : 2PNT                : 2 energies, one gradient
  stepsize       :    0.15000000                  energy_gap     :    0.08000000
  eps_taylor     :   0.10000E-15                  max_taylor     :             4
  ----------------------------------- OT ---------------------------------------

  Step     Update method      Time    Convergence         Total energy    Change
  ------------------------------------------------------------------------------
     1 OT CG       0.15E+00    0.3     0.00462527       -16.0988833048 -1.61E+01
     2 OT LS       0.22E+00    0.3                      -16.0990928182
     3 OT CG       0.22E+00    0.5     0.00057393       -16.0991190913 -2.36E-04
     4 OT LS       0.19E+00    0.3                      -16.0991219894
     5 OT CG       0.19E+00    0.5     0.00011492       -16.0991221135 -3.02E-06
     6 OT LS       0.17E+00    0.3                      -16.0991222248
     7 OT CG       0.17E+00    0.5     0.00001951       -16.0991222255 -1.12E-07

  *** SCF run converged in     7 steps ***


  Electronic density on regular grids:        -13.9999999997        0.0000000003
  Core density on regular grids:               13.9999999987       -0.0000000013
  Total charge density on r-space grids:       -0.0000000010
  Total charge density g-space grids:          -0.0000000010

  Overlap energy of the core charge distribution:               0.00000666361698
  Self energy of the core charge distribution:                -38.70122451907286
  Core Hamiltonian energy:                                     12.55104198342827
  Hartree energy:                                              15.63806464028815
  Exchange-correlation energy:                                 -5.58701099379770

  Total energy:                                               -16.09912222553716

  outer SCF iter =    1 RMS gradient =   0.20E-04 energy =        -16.0991222255
  outer SCF loop converged in   1 iterations or    7 steps


 ENERGY| Total FORCE_EVAL ( QS ) energy [a.u.]:              -16.099122228073121

 STRESS| Analytical stress tensor [GPa]
 STRESS|                        x                   y                   z
 STRESS|      x       -9.75694357656E-02  -1.15560682029E-02   8.72172900928E-02
 STRESS|      y       -1.15560682029E-02  -5.14440384756E-02   6.24921388328E-02
 STRESS|      z        8.72172900928E-02   6.24921388328E-02  -2.66282579573E-01
 STRESS| 1/3 Trace                                            -1.38432017938E-01
 STRESS| Determinant                                          -6.54617734739E-04

 STRESS| Eigenvectors and eigenvalues of the analytical stress tensor [GPa]
 STRESS|                        1                   2                   3
 STRESS| Eigenvalues  -3.17758964689E-01  -6.66084744293E-02  -3.09286146959E-02
 STRESS|      x          -0.368905053639      0.879606994856      0.300334140582
 STRESS|      y          -0.227478952074     -0.398741348327      0.888402309484
 STRESS|      z           0.901200525834      0.259416406062      0.347189775920

 Number of electrons:                                                         14
 Number of occupied orbitals:                                                  7
 Number of molecular orbitals:                                                 7

 Number of orbital functions:                                                 14
 Number of independent orbital functions:                                     14

 Extrapolation method: ASPC


 SCF WAVEFUNCTION OPTIMIZATION

  ----------------------------------- OT ---------------------------------------
  Minimizer      : CG                  : conjugate gradient
  Preconditioner : FULL_ALL            : diagonalization, state selective
  Precond_solver : DEFAULT
  Line search    : 2PNT                : 2 energies, one gradient
  stepsize       :    0.15000000                  energy_gap     :    0.08000000
  eps_taylor     :   0.10000E-15                  max_taylor     :             4
  ----------------------------------- OT ---------------------------------------

  Step     Update method      Time    Convergence         Total energy    Change
  ------------------------------------------------------------------------------
     1 OT CG       0.15E+00    0.3     0.00433999       -16.0989093208 -1.61E+01
     2 OT LS       0.22E+00    0.3                      -16.0990937604
     3 OT CG       0.22E+00    0.5     0.00063250       -16.0991164433 -2.07E-04
     4 OT LS       0.17E+00    0.3                      -16.0991193518
     5 OT CG       0.17E+00    0.5     0.00014411       -16.0991197260 -3.28E-06
     6 OT LS       0.16E+00    0.3                      -16.0991198915
     7 OT CG       0.16E+00    0.5     0.00003052       -16.0991198917 -1.66E-07

  *** SCF run converged in     7 steps ***


  Electronic density on regular grids:        -13.9999999997        0.0000000003
  Core density on regular grids:               13.9999999987       -0.0000000013
  Total charge density on r-space grids:       -0.0000000010
  Total charge density g-space grids:          -0.0000000010

  Overlap energy of the core charge distribution:               0.00000666361698
  Self energy of the core charge distribution:                -38.70122451907286
  Core Hamiltonian energy:                                     12.55089169370654
  Hartree energy:                                              15.63818432748753
  Exchange-correlation energy:                                 -5.58697805743336

  Total energy:                                               -16.09911989169518

  outer SCF iter =    1 RMS gradient =   0.31E-04 energy =        -16.0991198917
  outer SCF loop converged in   1 iterations or    7 steps


 ENERGY| Total FORCE_EVAL ( QS ) energy [a.u.]:              -16.099119898796474

 STRESS| Analytical stress tensor [GPa]
 STRESS|                        x                   y                   z
 STRESS|      x       -9.75846123811E-02  -1.15484704716E-02   8.72396703047E-02
 STRESS|      y       -1.15484704716E-02  -5.14438245274E-02   6.25049693525E-02
 STRESS|      z        8.72396703047E-02   6.25049693525E-02  -2.66271211385E-01
 STRESS| 1/3 Trace                                            -1.38433216098E-01
 STRESS| Determinant                                          -6.54371597827E-04

 STRESS| Eigenvectors and eigenvalues of the analytical stress tensor [GPa]
 STRESS|                        1                   2                   3
 STRESS| Eigenvalues  -3.17770654540E-01  -6.66171906223E-02  -3.09118031317E-02
 STRESS|      x          -0.368981419363      0.879482714487      0.300604170103
 STRESS|      y          -0.227496604767     -0.399048876507      0.888259696810
 STRESS|      z           0.901164805673      0.259364895615      0.347320952346

 Number of electrons:                                                         14
 Number of occupied orbitals:                                                  7
 Number of molecular orbitals:                                                 7

 Number of orbital functions:                                                 14
 Number of independent orbital functions:                                     14

 Extrapolation method: ASPC


 SCF WAVEFUNCTION OPTIMIZATION

  ----------------------------------- OT ---------------------------------------
  Minimizer      : CG                  : conjugate gradient
  Preconditioner : FULL_ALL            : diagonalization, state selective
  Precond_solver : DEFAULT
  Line search    : 2PNT                : 2 energies, one gradient
  stepsize       :    0.15000000                  energy_gap     :    0.08000000
  eps_taylor     :   0.10000E-15                  max_taylor     :             4
  ----------------------------------- OT ---------------------------------------

  Step     Update method      Time    Convergence         Total energy    Change
  ------------------------------------------------------------------------------
     1 OT CG       0.15E+00    0.3     0.00407507       -16.0990007132 -1.61E+01
     2 OT LS       0.22E+00    0.3                      -16.0991615118
     3 OT CG       0.22E+00    0.5     0.00077070       -16.0991796848 -1.79E-04
     4 OT LS       0.15E+00    0.3                      -16.0991832140
     5 OT CG       0.15E+00    0.5     0.00016940       -16.0991841072 -4.42E-06
     6 OT LS       0.17E+00    0.3                      -16.0991843417
     7 OT CG       0.17E+00    0.5     0.00003271       -16.0991843441 -2.37E-07

  *** SCF run converged in     7 steps ***


  Electronic density on regular grids:        -13.9999999997        0.0000000003
  Core density on regular grids:               13.9999999987       -0.0000000013
  Total charge density on r-space grids:       -0.0000000010
  Total charge density g-space grids:          -0.0000000010

  Overlap energy of the core charge distribution:               0.00000811885454
  Self energy of the core charge distribution:                -38.70122451907286
  Core Hamiltonian energy:                                     12.57288173936697
  Hartree energy:                                              15.62627226728615
  Exchange-correlation energy:                                 -5.59712195053498

  Total energy:                                               -16.09918434410018

  outer SCF iter =    1 RMS gradient =   0.33E-04 energy =        -16.0991843441
  outer SCF loop converged in   1 iterations or    7 steps


 ENERGY| Total FORCE_EVAL ( QS ) energy [a.u.]:              -16.099184352956858

 STRESS| Analytical stress tensor [GPa]
 STRESS|                        x                   y                   z
 STRESS|      x       -4.78306758684E-02   3.24404226018E-02   9.46737383509E-02
 STRESS|      y        3.24404226018E-02  -3.68681199522E-03   6.68825681135E-02
 STRESS|      z        9.46737383509E-02   6.68825681135E-02  -1.62839958786E-01
 STRESS| 1/3 Trace                                            -7.14524822164E-02
 STRESS| Determinant                                           8.00486262682E-04

 STRESS| Eigenvectors and eigenvalues of the analytical stress tensor [GPa]
 STRESS|                        1                   2                   3
 STRESS| Eigenvalues  -2.24868159903E-01  -5.46397298489E-02   6.51504431029E-02
 STRESS|      x          -0.432765610059      0.699806115723      0.568317980665
 STRESS|      y          -0.202186948866     -0.689693358405      0.695301020480
 STRESS|      z           0.878541043127      0.185995891806      0.439967230340

 Number of electrons:                                                         14
 Number of occupied orbitals:                                                  7
 Number of molecular orbitals:                                                 7

 Number of orbital functions:                                                 14
 Number of independent orbital functions:                                     14

 Extrapolation method: ASPC


 SCF WAVEFUNCTION OPTIMIZATION

  ----------------------------------- OT ---------------------------------------
  Minimizer      : CG                  : conjugate gradient
  Preconditioner : FULL_ALL            : diagonalization, state selective
  Precond_solver : DEFAULT
  Line search    : 2PNT                : 2 energies, one gradient
  stepsize       :    0.15000000                  energy_gap     :    0.08000000
  eps_taylor     :   0.10000E-15                  max_taylor     :             4
  ----------------------------------- OT ---------------------------------------

  Step     Update method      Time    Convergence         Total energy    Change
  ------------------------------------------------------------------------------
     1 OT CG       0.15E+00    0.3     0.00388164       -16.0990169353 -1.61E+01
     2 OT LS       0.22E+00    0.3                      -16.0991618097
     3 OT CG       0.22E+00    0.5     0.00085174       -16.0991768926 -1.60E-04
     4 OT LS       0.15E+00    0.3                      -16.0991809953
     5 OT CG       0.15E+00    0.5     0.00016752       -16.0991821367 -5.24E-06
     6 OT LS       0.17E+00    0.3                      -16.0991823654
     7 OT CG       0.17E+00    0.5     0.00003229       -16.0991823690 -2.32E-07

  *** SCF run converged in     7 steps ***


  Electronic density on regular grids:        -13.9999999997        0.0000000003
  Core density on regular grids:               13.9999999987       -0.0000000013
  Total charge density on r-space grids:       -0.0000000010
  Total charge density g-space grids:          -0.0000000010

  Overlap energy of the core charge distribution:               0.00000811885454
  Self energy of the core charge distribution:                -38.70122451907286
  Core Hamiltonian energy:                                     12.57282611091679
  Hartree energy:                                              15.62630852529279
  Exchange-correlation energy:                                 -5.59710060497585

  Total energy:                                               -16.09918236898459

  outer SCF iter =    1 RMS gradient =   0.32E-04 energy =        -16.0991823690
  outer SCF loop converged in   1 iterations or    7 steps


 ENERGY| Total FORCE_EVAL ( QS ) energy [a.u.]:              -16.099182377853236

 STRESS| Analytical stress tensor [GPa]
 STRESS|                        x                   y                   z
 STRESS|      x       -4.78485476091E-02   3.24202548145E-02   9.46884307102E-02
 STRESS|      y        3.24202548145E-02  -3.71327291410E-03   6.68962107240E-02
 STRESS|      z        9.46884307102E-02   6.68962107240E-02  -1.62891718365E-01
 STRESS| 1/3 Trace                                            -7.14845129628E-02
 STRESS| Determinant                                           8.00408403120E-04

 STRESS| Eigenvectors and eigenvalues of the analytical stress tensor [GPa]
 STRESS|                        1                   2                   3
 STRESS| Eigenvalues  -2.24932087627E-01  -5.46430663635E-02   6.51216151027E-02
 STRESS|      x          -0.432737076624      0.699818745406      0.568324155824
 STRESS|      y          -0.202250357351     -0.689698717963      0.695277262242
 STRESS|      z           0.878540503031      0.185928486299      0.439996798302

 Number of electrons:                                                         14
 Number of occupied orbitals:                                                  7
 Number of molecular orbitals:                                                 7

 Number of orbital functions:                                                 14
 Number of independent orbital functions:                                     14

 Extrapolation method: ASPC


 SCF WAVEFUNCTION OPTIMIZATION

  ----------------------------------- OT ---------------------------------------
  Minimizer      : CG                  : conjugate gradient
  Preconditioner : FULL_ALL            : diagonalization, state selective
  Precond_solver : DEFAULT
  Line search    : 2PNT                : 2 energies, one gradient
  stepsize       :    0.15000000                  energy_gap     :    0.08000000
  eps_taylor     :   0.10000E-15                  max_taylor     :             4
  ----------------------------------- OT ---------------------------------------

  Step     Update method      Time    Convergence         Total energy    Change
  ------------------------------------------------------------------------------
     1 OT CG       0.15E+00    0.3     0.00369312       -16.0985909776 -1.61E+01
     2 OT LS       0.21E+00    0.3                      -16.0987203837
     3 OT CG       0.21E+00    0.5     0.00091594       -16.0987324299 -1.41E-04
     4 OT LS       0.15E+00    0.3                      -16.0987374018
     5 OT CG       0.15E+00    0.5     0.00016595       -16.0987385246 -6.09E-06
     6 OT LS       0.17E+00    0.3                      -16.0987387493
     7 OT CG       0.17E+00    0.5     0.00003048       -16.0987387528 -2.28E-07

  *** SCF run converged in     7 steps ***


  Electronic density on regular grids:        -13.9999999997        0.0000000003
  Core density on regular grids:               13.9999999987       -0.0000000013
  Total charge density on r-space grids:       -0.0000000010
  Total charge density g-space grids:          -0.0000000010

  Overlap energy of the core charge distribution:               0.00001019089772
  Self energy of the core charge distribution:                -38.70122451907286
  Core Hamiltonian energy:                                     12.59741714732861
  Hartree energy:                                              15.61310500711122
  Exchange-correlation energy:                                 -5.60804657907808

  Total energy:                                               -16.09873875281339

  outer SCF iter =    1 RMS gradient =   0.30E-04 energy =        -16.0987387528
  outer SCF loop converged in   1 iterations or    7 steps


 ENERGY| Total FORCE_EVAL ( QS ) energy [a.u.]:              -16.098738760959726

 STRESS| Analytical stress tensor [GPa]
 STRESS|                        x                   y                   z
 STRESS|      x        8.37638669699E-03   7.73339362190E-02   9.76570820753E-02
 STRESS|      y        7.73339362190E-02   4.50106892095E-02   6.93348787365E-02
 STRESS|      z        9.76570820753E-02   6.93348787365E-02  -4.93362285976E-02
 STRESS| 1/3 Trace                                             1.35028243629E-03
 STRESS| Determinant                                           8.54188024867E-04

 STRESS| Eigenvectors and eigenvalues of the analytical stress tensor [GPa]
 STRESS|                        1                   2                   3
 STRESS| Eigenvalues  -1.23050533410E-01  -4.12369824518E-02   1.68338363171E-01
 STRESS|      x           0.563922719714      0.566669871427      0.600729908534
 STRESS|      y           0.079622946728     -0.761347406826      0.643436331328
 STRESS|      z          -0.821980141211      0.315016480420      0.474461025290

 Number of electrons:                                                         14
 Number of occupied orbitals:                                                  7
 Number of molecular orbitals:                                                 7

 Number of orbital functions:                                                 14
 Number of independent orbital functions:                                     14

 Extrapolation method: ASPC


 SCF WAVEFUNCTION OPTIMIZATION

  ----------------------------------- OT ---------------------------------------
  Minimizer      : CG                  : conjugate gradient
  Preconditioner : FULL_ALL            : diagonalization, state selective
  Precond_solver : DEFAULT
  Line search    : 2PNT                : 2 energies, one gradient
  stepsize       :    0.15000000                  energy_gap     :    0.08000000
  eps_taylor     :   0.10000E-15                  max_taylor     :             4
  ----------------------------------- OT ---------------------------------------

  Step     Update method      Time    Convergence         Total energy    Change
  ------------------------------------------------------------------------------
     1 OT CG       0.15E+00    0.3     0.00355125       -16.0986016093 -1.61E+01
     2 OT LS       0.21E+00    0.3                      -16.0987205471
     3 OT CG       0.21E+00    0.5     0.00093118       -16.0987308447 -1.29E-04
     4 OT LS       0.15E+00    0.3                      -16.0987361339
     5 OT CG       0.15E+00    0.5     0.00016097       -16.0987371661 -6.32E-06
     6 OT LS       0.17E+00    0.3                      -16.0987373749
     7 OT CG       0.17E+00    0.5     0.00002902       -16.0987373772 -2.11E-07

  *** SCF run converged in     7 steps ***


  Electronic density on regular grids:        -13.9999999997        0.0000000003
  Core density on regular grids:               13.9999999987       -0.0000000013
  Total charge density on r-space grids:       -0.0000000010
  Total charge density g-space grids:          -0.0000000010

  Overlap energy of the core charge distribution:               0.00001019089772
  Self energy of the core charge distribution:                -38.70122451907286
  Core Hamiltonian energy:                                     12.59739990075953
  Hartree energy:                                              15.61311068916407
  Exchange-correlation energy:                                 -5.60803363896360

  Total energy:                                               -16.09873737721513

  outer SCF iter =    1 RMS gradient =   0.29E-04 energy =        -16.0987373772
  outer SCF loop converged in   1 iterations or    7 steps


 ENERGY| Total FORCE_EVAL ( QS ) energy [a.u.]:              -16.098737384683318

 STRESS| Analytical stress tensor [GPa]
 STRESS|                        x                   y                   z
 STRESS|      x        8.36517256347E-03   7.73092239308E-02   9.76590479606E-02
 STRESS|      y        7.73092239308E-02   4.49778210789E-02   6.93423624028E-02
 STRESS|      z        9.76590479606E-02   6.93423624028E-02  -4.93944546726E-02
 STRESS| 1/3 Trace                                             1.31617965657E-03
 STRESS| Determinant                                           8.54504883658E-04

 STRESS| Eigenvectors and eigenvalues of the analytical stress tensor [GPa]
 STRESS|                        1                   2                   3
 STRESS| Eigenvalues  -1.23098678952E-01  -4.12469691061E-02   1.68294187028E-01
 STRESS|      x           0.563727697539      0.566841802586      0.600750741879
 STRESS|      y           0.079870214769     -0.761337982205      0.643416836619
 STRESS|      z          -0.822089917113      0.314729801089      0.474461084271

 Number of electrons:                                                         14
 Number of occupied orbitals:                                                  7
 Number of molecular orbitals:                                                 7

 Number of orbital functions:                                                 14
 Number of independent orbital functions:                                     14

 Extrapolation method: ASPC


 SCF WAVEFUNCTION OPTIMIZATION

  ----------------------------------- OT ---------------------------------------
  Minimizer      : CG                  : conjugate gradient
  Preconditioner : FULL_ALL            : diagonalization, state selective
  Precond_solver : DEFAULT
  Line search    : 2PNT                : 2 energies, one gradient
  stepsize       :    0.15000000                  energy_gap     :    0.08000000
  eps_taylor     :   0.10000E-15                  max_taylor     :             4
  ----------------------------------- OT ---------------------------------------

  Step     Update method      Time    Convergence         Total energy    Change
  ------------------------------------------------------------------------------
     1 OT CG       0.15E+00    0.3     0.00338438       -16.0976615559 -1.61E+01
     2 OT LS       0.21E+00    0.3                      -16.0977691914
     3 OT CG       0.21E+00    0.5     0.00090122       -16.0977782950 -1.17E-04
     4 OT LS       0.15E+00    0.3                      -16.0977834597
     5 OT CG       0.15E+00    0.5     0.00015525       -16.0977843135 -6.02E-06
     6 OT LS       0.16E+00    0.3                      -16.0977845058
     7 OT CG       0.16E+00    0.5     0.00002651       -16.0977845070 -1.94E-07

  *** SCF run converged in     7 steps ***


  Electronic density on regular grids:        -13.9999999997        0.0000000003
  Core density on regular grids:               13.9999999987       -0.0000000013
  Total charge density on r-space grids:       -0.0000000011
  Total charge density g-space grids:          -0.0000000011

  Overlap energy of the core charge distribution:               0.00001294148740
  Self energy of the core charge distribution:                -38.70122451907286
  Core Hamiltonian energy:                                     12.62179373542057
  Hartree energy:                                              15.60032290727872
  Exchange-correlation energy:                                 -5.61868957213151

  Total energy:                                               -16.09778450701767

  outer SCF iter =    1 RMS gradient =   0.27E-04 energy =        -16.0977845070
  outer SCF loop converged in   1 iterations or    7 steps


 ENERGY| Total FORCE_EVAL ( QS ) energy [a.u.]:              -16.097784513355336

 STRESS| Analytical stress tensor [GPa]
 STRESS|                        x                   y                   z
 STRESS|      x        6.63264412647E-02   1.19692936080E-01   9.49587598034E-02
 STRESS|      y        1.19692936080E-01   8.97215245430E-02   6.90922979865E-02
 STRESS|      z        9.49587598034E-02   6.90922979865E-02   6.44447974162E-02
 STRESS| 1/3 Trace                                             7.34975877413E-02
 STRESS| Determinant                                          -9.48248715628E-05

 STRESS| Eigenvectors and eigenvalues of the analytical stress tensor [GPa]
 STRESS|                        1                   2                   3
 STRESS| Eigenvalues  -5.13428553698E-02   6.97303152470E-03   2.64862587069E-01
 STRESS|      x           0.791765260082     -0.034637899366      0.609842593506
 STRESS|      y          -0.499866325304     -0.610544091632      0.614304133960
 STRESS|      z          -0.351057587519      0.791224448624      0.500721920975

 Number of electrons:                                                         14
 Number of occupied orbitals:                                                  7
 Number of molecular orbitals:                                                 7

 Number of orbital functions:                                                 14
 Number of independent orbital functions:                                     14

 Extrapolation method: ASPC


 SCF WAVEFUNCTION OPTIMIZATION

  ----------------------------------- OT ---------------------------------------
  Minimizer      : CG                  : conjugate gradient
  Preconditioner : FULL_ALL            : diagonalization, state selective
  Precond_solver : DEFAULT
  Line search    : 2PNT                : 2 energies, one gradient
  stepsize       :    0.15000000                  energy_gap     :    0.08000000
  eps_taylor     :   0.10000E-15                  max_taylor     :             4
  ----------------------------------- OT ---------------------------------------

  Step     Update method      Time    Convergence         Total energy    Change
  ------------------------------------------------------------------------------
     1 OT CG       0.15E+00    0.3     0.00325640       -16.0976694339 -1.61E+01
     2 OT LS       0.21E+00    0.3                      -16.0977693205
     3 OT CG       0.21E+00    0.5     0.00086128       -16.0977778788 -1.08E-04
     4 OT LS       0.15E+00    0.3                      -16.0977826454
     5 OT CG       0.15E+00    0.5     0.00014796       -16.0977834068 -5.53E-06
     6 OT LS       0.16E+00    0.3                      -16.0977835782
     7 OT CG       0.16E+00    0.5     0.00002497       -16.0977835786 -1.72E-07

  *** SCF run converged in     7 steps ***


  Electronic density on regular grids:        -13.9999999997        0.0000000003
  Core density on regular grids:               13.9999999987       -0.0000000013
  Total charge density on r-space grids:       -0.0000000011
  Total charge density g-space grids:          -0.0000000011

  Overlap energy of the core charge distribution:               0.00001294148740
  Self energy of the core charge distribution:                -38.70122451907286
  Core Hamiltonian energy:                                     12.62178544552177
  Hartree energy:                                              15.60032288751919
  Exchange-correlation energy:                                 -5.61868033403176

  Total energy:                                               -16.09778357857626

  outer SCF iter =    1 RMS gradient =   0.25E-04 energy =        -16.0977835786
  outer SCF loop converged in   1 iterations or    7 steps


 ENERGY| Total FORCE_EVAL ( QS ) energy [a.u.]:              -16.097783584200741

 STRESS| Analytical stress tensor [GPa]
 STRESS|                        x                   y                   z
 STRESS|      x        6.63182617388E-02   1.19671840637E-01   9.49544357755E-02
 STRESS|      y        1.19671840637E-01   8.96922082066E-02   6.90950475314E-02
 STRESS|      z        9.49544357755E-02   6.90950475314E-02   6.43943118354E-02
 STRESS| 1/3 Trace                                             7.34682605936E-02
 STRESS| Determinant                                          -9.41832988519E-05

 STRESS| Eigenvectors and eigenvalues of the analytical stress tensor [GPa]
 STRESS|                        1                   2                   3
 STRESS| Eigenvalues  -5.13414658192E-02   6.92717851355E-03   2.64819069086E-01
 STRESS|      x           0.791756816139     -0.034471728144      0.609862971540
 STRESS|      y          -0.499757503543     -0.610641067660      0.614296283677
 STRESS|      z          -0.351231521577      0.791156865891      0.500706732334

 Number of electrons:                                                         14
 Number of occupied orbitals:                                                  7
 Number of molecular orbitals:                                                 7

 Number of orbital functions:                                                 14
 Number of independent orbital functions:                                     14

 Extrapolation method: ASPC


 SCF WAVEFUNCTION OPTIMIZATION

  ----------------------------------- OT ---------------------------------------
  Minimizer      : CG                  : conjugate gradient
  Preconditioner : FULL_ALL            : diagonalization, state selective
  Precond_solver : DEFAULT
  Line search    : 2PNT                : 2 energies, one gradient
  stepsize       :    0.15000000                  energy_gap     :    0.08000000
  eps_taylor     :   0.10000E-15                  max_taylor     :             4
  ----------------------------------- OT ---------------------------------------

  Step     Update method      Time    Convergence         Total energy    Change
  ------------------------------------------------------------------------------
     1 OT CG       0.15E+00    0.3     0.00309352       -16.0964448606 -1.61E+01
     2 OT LS       0.21E+00    0.3                      -16.0965358493
     3 OT CG       0.21E+00    0.5     0.00076491       -16.0965444682 -9.96E-05
     4 OT LS       0.15E+00    0.3                      -16.0965482845
     5 OT CG       0.15E+00    0.5     0.00013664       -16.0965489043 -4.44E-06
     6 OT LS       0.16E+00    0.3                      -16.0965490471
     7 OT CG       0.16E+00    0.5     0.00002279       -16.0965490472 -1.43E-07

  *** SCF run converged in     7 steps ***


  Electronic density on regular grids:        -13.9999999997        0.0000000003
  Core density on regular grids:               13.9999999987       -0.0000000013
  Total charge density on r-space grids:       -0.0000000010
  Total charge density g-space grids:          -0.0000000010

  Overlap energy of the core charge distribution:               0.00001630116387
  Self energy of the core charge distribution:                -38.70122451907286
  Core Hamiltonian energy:                                     12.64297059971411
  Hartree energy:                                              15.58962473824503
  Exchange-correlation energy:                                 -5.62793616720763

  Total energy:                                               -16.09654904715748

  outer SCF iter =    1 RMS gradient =   0.23E-04 energy =        -16.0965490472
  outer SCF loop converged in   1 iterations or    7 steps


 ENERGY| Total FORCE_EVAL ( QS ) energy [a.u.]:              -16.096549051852293

 STRESS| Analytical stress tensor [GPa]
 STRESS|                        x                   y                   z
 STRESS|      x        1.20389132763E-01   1.56201650342E-01   8.57330099822E-02
 STRESS|      y        1.56201650342E-01   1.25524449668E-01   6.54016621426E-02
 STRESS|      z        8.57330099822E-02   6.54016621426E-02   1.67811826303E-01
 STRESS| 1/3 Trace                                             1.37908469578E-01
 STRESS| Determinant                                          -1.24440039792E-03

 STRESS| Eigenvectors and eigenvalues of the analytical stress tensor [GPa]
 STRESS|                        1                   2                   3
 STRESS| Eigenvalues  -3.46662726527E-02   1.04332578320E-01   3.44059103067E-01
 STRESS|      x           0.731359749165     -0.296638973254      0.614099533340
 STRESS|      y          -0.675843530584     -0.435881832670      0.594342115381
 STRESS|      z          -0.091369795166      0.849713097166      0.519267958800

 Number of electrons:                                                         14
 Number of occupied orbitals:                                                  7
 Number of molecular orbitals:                                                 7

 Number of orbital functions:                                                 14
 Number of independent orbital functions:                                     14

 Extrapolation method: ASPC


 SCF WAVEFUNCTION OPTIMIZATION

  ----------------------------------- OT ---------------------------------------
  Minimizer      : CG                  : conjugate gradient
  Preconditioner : FULL_ALL            : diagonalization, state selective
  Precond_solver : DEFAULT
  Line search    : 2PNT                : 2 energies, one gradient
  stepsize       :    0.15000000                  energy_gap     :    0.08000000
  eps_taylor     :   0.10000E-15                  max_taylor     :             4
  ----------------------------------- OT ---------------------------------------

  Step     Update method      Time    Convergence         Total energy    Change
  ------------------------------------------------------------------------------
     1 OT CG       0.15E+00    0.3     0.00297946       -16.0964506300 -1.61E+01
     2 OT LS       0.22E+00    0.3                      -16.0965358780
     3 OT CG       0.22E+00    0.5     0.00068126       -16.0965446861 -9.41E-05
     4 OT LS       0.16E+00    0.3                      -16.0965478081
     5 OT CG       0.16E+00    0.5     0.00011894       -16.0965482870 -3.60E-06
     6 OT LS       0.15E+00    0.3                      -16.0965483914
     7 OT CG       0.15E+00    0.5     0.00002144       -16.0965483917 -1.05E-07

  *** SCF run converged in     7 steps ***


  Electronic density on regular grids:        -13.9999999997        0.0000000003
  Core density on regular grids:               13.9999999987       -0.0000000013
  Total charge density on r-space grids:       -0.0000000011
  Total charge density g-space grids:          -0.0000000011

  Overlap energy of the core charge distribution:               0.00001630116387
  Self energy of the core charge distribution:                -38.70122451907286
  Core Hamiltonian energy:                                     12.64294971276428
  Hartree energy:                                              15.58963658543637
  Exchange-correlation energy:                                 -5.62792647195247

  Total energy:                                               -16.09654839166080

  outer SCF iter =    1 RMS gradient =   0.21E-04 energy =        -16.0965483917
  outer SCF loop converged in   1 iterations or    7 steps


 ENERGY| Total FORCE_EVAL ( QS ) energy [a.u.]:              -16.096548395749316

 STRESS| Analytical stress tensor [GPa]
 STRESS|                        x                   y                   z
 STRESS|      x        1.20381978320E-01   1.56186323256E-01   8.57284291217E-02
 STRESS|      y        1.56186323256E-01   1.25503962714E-01   6.54023910995E-02
 STRESS|      z        8.57284291217E-02   6.54023910995E-02   1.67773577255E-01
 STRESS| 1/3 Trace                                             1.37886506096E-01
 STRESS| Determinant                                          -1.24378397962E-03

 STRESS| Eigenvectors and eigenvalues of the analytical stress tensor [GPa]
 STRESS|                        1                   2                   3
 STRESS| Eigenvalues  -3.46639224877E-02   1.04298245811E-01   3.44025194966E-01
 STRESS|      x           0.731345510206     -0.296642419777      0.614114825981
 STRESS|      y          -0.675860588016     -0.435854693177      0.594342621728
 STRESS|      z          -0.091357595567      0.849725815322      0.519249293218

 Number of electrons:                                                         14
 Number of occupied orbitals:                                                  7
 Number of molecular orbitals:                                                 7

 Number of orbital functions:                                                 14
 Number of independent orbital functions:                                     14

 Extrapolation method: ASPC


 SCF WAVEFUNCTION OPTIMIZATION

  ----------------------------------- OT ---------------------------------------
  Minimizer      : CG                  : conjugate gradient
  Preconditioner : FULL_ALL            : diagonalization, state selective
  Precond_solver : DEFAULT
  Line search    : 2PNT                : 2 energies, one gradient
  stepsize       :    0.15000000                  energy_gap     :    0.08000000
  eps_taylor     :   0.10000E-15                  max_taylor     :             4
  ----------------------------------- OT ---------------------------------------

  Step     Update method      Time    Convergence         Total energy    Change
  ------------------------------------------------------------------------------
     1 OT CG       0.15E+00    0.3     0.00285545       -16.0953155076 -1.61E+01
     2 OT LS       0.22E+00    0.3                      -16.0953947944
     3 OT CG       0.22E+00    0.5     0.00055434       -16.0954040576 -8.86E-05
     4 OT LS       0.17E+00    0.3                      -16.0954063710
     5 OT CG       0.17E+00    0.5     0.00007826       -16.0954066120 -2.55E-06

  *** SCF run converged in     5 steps ***


  Electronic density on regular grids:        -13.9999999997        0.0000000003
  Core density on regular grids:               13.9999999987       -0.0000000013
  Total charge density on r-space grids:       -0.0000000010
  Total charge density g-space grids:          -0.0000000010

  Overlap energy of the core charge distribution:               0.00001998226240
  Self energy of the core charge distribution:                -38.70122451907286
  Core Hamiltonian energy:                                     12.65778863677409
  Hartree energy:                                              15.58273464382143
  Exchange-correlation energy:                                 -5.63472535575654

  Total energy:                                               -16.09540661197148

  outer SCF iter =    1 RMS gradient =   0.78E-04 energy =        -16.0954066120
  outer SCF loop converged in   1 iterations or    5 steps


 ENERGY| Total FORCE_EVAL ( QS ) energy [a.u.]:              -16.095406657678595

 STRESS| Analytical stress tensor [GPa]
 STRESS|                        x                   y                   z
 STRESS|      x        1.64683977434E-01   1.84042608512E-01   6.99204366501E-02
 STRESS|      y        1.84042608512E-01   1.48449005866E-01   5.77551348883E-02
 STRESS|      z        6.99204366501E-02   5.77551348883E-02   2.50672143422E-01
 STRESS| 1/3 Trace                                             1.87935042241E-01
 STRESS| Determinant                                          -2.15111304974E-03

 STRESS| Eigenvectors and eigenvalues of the analytical stress tensor [GPa]
 STRESS|                        1                   2                   3
 STRESS| Eigenvalues  -2.78255452961E-02   1.94822351409E-01   3.96808320610E-01
 STRESS|      x          -0.695679665504     -0.362991259321      0.619892852565
 STRESS|      y           0.717889304512     -0.382280223175      0.581804758864
 STRESS|      z           0.025782735924      0.849764188834      0.526532120485

 Number of electrons:                                                         14
 Number of occupied orbitals:                                                  7
 Number of molecular orbitals:                                                 7

 Number of orbital functions:                                                 14
 Number of independent orbital functions:                                     14

 Extrapolation method: ASPC


 SCF WAVEFUNCTION OPTIMIZATION

  ----------------------------------- OT ---------------------------------------
  Minimizer      : CG                  : conjugate gradient
  Preconditioner : FULL_ALL            : diagonalization, state selective
  Precond_solver : DEFAULT
  Line search    : 2PNT                : 2 energies, one gradient
  stepsize       :    0.15000000                  energy_gap     :    0.08000000
  eps_taylor     :   0.10000E-15                  max_taylor     :             4
  ----------------------------------- OT ---------------------------------------

  Step     Update method      Time    Convergence         Total energy    Change
  ------------------------------------------------------------------------------
     1 OT CG       0.15E+00    0.3     0.00279090       -16.0953183531 -1.61E+01
     2 OT LS       0.22E+00    0.3                      -16.0953945534
     3 OT CG       0.22E+00    0.5     0.00050698       -16.0954039076 -8.56E-05
     4 OT LS       0.17E+00    0.3                      -16.0954059023
     5 OT CG       0.17E+00    0.5     0.00004930       -16.0954060898 -2.18E-06

  *** SCF run converged in     5 steps ***


  Electronic density on regular grids:        -13.9999999997        0.0000000003
  Core density on regular grids:               13.9999999987       -0.0000000013
  Total charge density on r-space grids:       -0.0000000011
  Total charge density g-space grids:          -0.0000000011

  Overlap energy of the core charge distribution:               0.00001998226240
  Self energy of the core charge distribution:                -38.70122451907286
  Core Hamiltonian energy:                                     12.65818367610346
  Hartree energy:                                              15.58240960343704
  Exchange-correlation energy:                                 -5.63479483257566

  Total energy:                                               -16.09540608984562

  outer SCF iter =    1 RMS gradient =   0.49E-04 energy =        -16.0954060898
  outer SCF loop converged in   1 iterations or    5 steps


 ENERGY| Total FORCE_EVAL ( QS ) energy [a.u.]:              -16.095406113800326

 STRESS| Analytical stress tensor [GPa]
 STRESS|                        x                   y                   z
 STRESS|      x        1.64616157214E-01   1.84000208361E-01   6.98771117289E-02
 STRESS|      y        1.84000208361E-01   1.48365793935E-01   5.77296160620E-02
 STRESS|      z        6.98771117289E-02   5.77296160620E-02   2.50547479679E-01
 STRESS| 1/3 Trace                                             1.87843143609E-01
 STRESS| Determinant                                          -2.15188552887E-03

 STRESS| Eigenvectors and eigenvalues of the analytical stress tensor [GPa]
 STRESS|                        1                   2                   3
 STRESS| Eigenvalues  -2.78583759143E-02   1.94742772890E-01   3.96645033853E-01
 STRESS|      x          -0.695652239896     -0.362956451630      0.619944009849
 STRESS|      y           0.717917556089     -0.382164709169      0.581845785175
 STRESS|      z           0.025736040642      0.849831012194      0.526426544663

 Number of electrons:                                                         14
 Number of occupied orbitals:                                                  7
 Number of molecular orbitals:                                                 7

 Number of orbital functions:                                                 14
 Number of independent orbital functions:                                     14

 Extrapolation method: ASPC


 SCF WAVEFUNCTION OPTIMIZATION

  ----------------------------------- OT ---------------------------------------
  Minimizer      : CG                  : conjugate gradient
  Preconditioner : FULL_ALL            : diagonalization, state selective
  Precond_solver : DEFAULT
  Line search    : 2PNT                : 2 energies, one gradient
  stepsize       :    0.15000000                  energy_gap     :    0.08000000
  eps_taylor     :   0.10000E-15                  max_taylor     :             4
  ----------------------------------- OT ---------------------------------------

  Step     Update method      Time    Convergence         Total energy    Change
  ------------------------------------------------------------------------------
     1 OT CG       0.15E+00    0.3     0.00276366       -16.0946463807 -1.61E+01
     2 OT LS       0.22E+00    0.3                      -16.0947207764
     3 OT CG       0.22E+00    0.5     0.00055898       -16.0947295857 -8.32E-05
     4 OT LS       0.16E+00    0.3                      -16.0947315859
     5 OT CG       0.16E+00    0.5     0.00010241       -16.0947319959 -2.41E-06
     6 OT LS       0.15E+00    0.3                      -16.0947320743
     7 OT CG       0.15E+00    0.5     0.00001926       -16.0947320744 -7.84E-08

  *** SCF run converged in     7 steps ***


  Electronic density on regular grids:        -13.9999999997        0.0000000003
  Core density on regular grids:               13.9999999987       -0.0000000013
  Total charge density on r-space grids:       -0.0000000011
  Total charge density g-space grids:          -0.0000000011

  Overlap energy of the core charge distribution:               0.00002345917299
  Self energy of the core charge distribution:                -38.70122451907286
  Core Hamiltonian energy:                                     12.66524859275013
  Hartree energy:                                              15.57975603257841
  Exchange-correlation energy:                                 -5.63853563978219

  Total energy:                                               -16.09473207435351

  outer SCF iter =    1 RMS gradient =   0.19E-04 energy =        -16.0947320744
  outer SCF loop converged in   1 iterations or    7 steps


 ENERGY| Total FORCE_EVAL ( QS ) energy [a.u.]:              -16.094732077671409

 STRESS| Analytical stress tensor [GPa]
 STRESS|                        x                   y                   z
 STRESS|      x        1.93758493663E-01   2.01076799041E-01   4.83716040144E-02
 STRESS|      y        2.01076799041E-01   1.56018654276E-01   4.60202449708E-02
 STRESS|      z        4.83716040144E-02   4.60202449708E-02   3.04860728141E-01
 STRESS| 1/3 Trace                                             2.18212625360E-01
 STRESS| Determinant                                          -2.99035573067E-03

 STRESS| Eigenvectors and eigenvalues of the analytical stress tensor [GPa]
 STRESS|                        1                   2                   3
 STRESS| Eigenvalues  -2.70783505321E-02   2.65024076423E-01   4.16692150189E-01
 STRESS|      x          -0.672699688422     -0.381865831415      0.633761481943
 STRESS|      y           0.739901622595     -0.341900441313      0.579352808841
 STRESS|      z          -0.004551711667      0.858651602821      0.512539468620

 Number of electrons:                                                         14
 Number of occupied orbitals:                                                  7
 Number of molecular orbitals:                                                 7

 Number of orbital functions:                                                 14
 Number of independent orbital functions:                                     14

 Extrapolation method: ASPC


 SCF WAVEFUNCTION OPTIMIZATION

  ----------------------------------- OT ---------------------------------------
  Minimizer      : CG                  : conjugate gradient
  Preconditioner : FULL_ALL            : diagonalization, state selective
  Precond_solver : DEFAULT
  Line search    : 2PNT                : 2 energies, one gradient
  stepsize       :    0.15000000                  energy_gap     :    0.08000000
  eps_taylor     :   0.10000E-15                  max_taylor     :             4
  ----------------------------------- OT ---------------------------------------

  Step     Update method      Time    Convergence         Total energy    Change
  ------------------------------------------------------------------------------
     1 OT CG       0.15E+00    0.3     0.00280812       -16.0946447055 -1.61E+01
     2 OT LS       0.21E+00    0.3                      -16.0947200965
     3 OT CG       0.21E+00    0.5     0.00072359       -16.0947275987 -8.29E-05
     4 OT LS       0.15E+00    0.3                      -16.0947305722
     5 OT CG       0.15E+00    0.5     0.00011849       -16.0947313695 -3.77E-06
     6 OT LS       0.16E+00    0.3                      -16.0947314815
     7 OT CG       0.16E+00    0.5     0.00001901       -16.0947314828 -1.13E-07

  *** SCF run converged in     7 steps ***


  Electronic density on regular grids:        -13.9999999997        0.0000000003
  Core density on regular grids:               13.9999999987       -0.0000000013
  Total charge density on r-space grids:       -0.0000000011
  Total charge density g-space grids:          -0.0000000011

  Overlap energy of the core charge distribution:               0.00002345917299
  Self energy of the core charge distribution:                -38.70122451907286
  Core Hamiltonian energy:                                     12.66534669697234
  Hartree energy:                                              15.57967065713963
  Exchange-correlation energy:                                 -5.63854777701617

  Total energy:                                               -16.09473148280407

  outer SCF iter =    1 RMS gradient =   0.19E-04 energy =        -16.0947314828
  outer SCF loop converged in   1 iterations or    7 steps


 ENERGY| Total FORCE_EVAL ( QS ) energy [a.u.]:              -16.094731486180450

 STRESS| Analytical stress tensor [GPa]
 STRESS|                        x                   y                   z
 STRESS|      x        1.93727970786E-01   2.01062166809E-01   4.83705582392E-02
 STRESS|      y        2.01062166809E-01   1.55992375683E-01   4.60186927800E-02
 STRESS|      z        4.83705582392E-02   4.60186927800E-02   3.04802424395E-01
 STRESS| 1/3 Trace                                             2.18174256955E-01
 STRESS| Determinant                                          -2.99091573421E-03

 STRESS| Eigenvectors and eigenvalues of the analytical stress tensor [GPa]
 STRESS|                        1                   2                   3
 STRESS| Eigenvalues  -2.70919805349E-02   2.64971343353E-01   4.16643408046E-01
 STRESS|      x          -0.672701170585     -0.381833051410      0.633779658828
 STRESS|      y           0.739900281997     -0.341873177746      0.579370609402
 STRESS|      z          -0.004550581731      0.858677035438      0.512496869276

 Number of electrons:                                                         14
 Number of occupied orbitals:                                                  7
 Number of molecular orbitals:                                                 7

 Number of orbital functions:                                                 14
 Number of independent orbital functions:                                     14

 Extrapolation method: ASPC


 SCF WAVEFUNCTION OPTIMIZATION

  ----------------------------------- OT ---------------------------------------
  Minimizer      : CG                  : conjugate gradient
  Preconditioner : FULL_ALL            : diagonalization, state selective
  Precond_solver : DEFAULT
  Line search    : 2PNT                : 2 energies, one gradient
  stepsize       :    0.15000000                  energy_gap     :    0.08000000
  eps_taylor     :   0.10000E-15                  max_taylor     :             4
  ----------------------------------- OT ---------------------------------------

  Step     Update method      Time    Convergence         Total energy    Change
  ------------------------------------------------------------------------------
     1 OT CG       0.15E+00    0.3     0.00291281       -16.0946664794 -1.61E+01
     2 OT LS       0.20E+00    0.3                      -16.0947447602
     3 OT CG       0.20E+00    0.5     0.00090369       -16.0947502042 -8.37E-05
     4 OT LS       0.15E+00    0.3                      -16.0947553866
     5 OT CG       0.15E+00    0.5     0.00011845       -16.0947561418 -5.94E-06
     6 OT LS       0.18E+00    0.3                      -16.0947562600
     7 OT CG       0.18E+00    0.5     0.00001864       -16.0947562630 -1.21E-07

  *** SCF run converged in     7 steps ***


  Electronic density on regular grids:        -13.9999999997        0.0000000003
  Core density on regular grids:               13.9999999987       -0.0000000013
  Total charge density on r-space grids:       -0.0000000011
  Total charge density g-space grids:          -0.0000000011

  Overlap energy of the core charge distribution:               0.00002608230084
  Self energy of the core charge distribution:                -38.70122451907286
  Core Hamiltonian energy:                                     12.66342630517180
  Hartree energy:                                              15.58184086466373
  Exchange-correlation energy:                                 -5.63882499608807

  Total energy:                                               -16.09475626302457

  outer SCF iter =    1 RMS gradient =   0.19E-04 energy =        -16.0947562630
  outer SCF loop converged in   1 iterations or    7 steps


 ENERGY| Total FORCE_EVAL ( QS ) energy [a.u.]:              -16.094756266298958

 STRESS| Analytical stress tensor [GPa]
 STRESS|                        x                   y                   z
 STRESS|      x        2.03945128856E-01   2.06194487170E-01   2.31344821046E-02
 STRESS|      y        2.06194487170E-01   1.48086844469E-01   3.07873433513E-02
 STRESS|      z        2.31344821046E-02   3.07873433513E-02   3.26082810507E-01
 STRESS| 1/3 Trace                                             2.26038261277E-01
 STRESS| Determinant                                          -3.99441604917E-03

 STRESS| Eigenvectors and eigenvalues of the analytical stress tensor [GPa]
 STRESS|                        1                   2                   3
 STRESS| Eigenvalues  -3.22401104990E-02   3.07688878295E-01   4.02666016035E-01
 STRESS|      x          -0.656246143336     -0.346826202756      0.670113859309
 STRESS|      y           0.754213334104     -0.275105298835      0.596220866134
 STRESS|      z          -0.022433145486      0.896676452035      0.442117738107

 Number of electrons:                                                         14
 Number of occupied orbitals:                                                  7
 Number of molecular orbitals:                                                 7

 Number of orbital functions:                                                 14
 Number of independent orbital functions:                                     14

 Extrapolation method: ASPC


 SCF WAVEFUNCTION OPTIMIZATION

  ----------------------------------- OT ---------------------------------------
  Minimizer      : CG                  : conjugate gradient
  Preconditioner : FULL_ALL            : diagonalization, state selective
  Precond_solver : DEFAULT
  Line search    : 2PNT                : 2 energies, one gradient
  stepsize       :    0.15000000                  energy_gap     :    0.08000000
  eps_taylor     :   0.10000E-15                  max_taylor     :             4
  ----------------------------------- OT ---------------------------------------

  Step     Update method      Time    Convergence         Total energy    Change
  ------------------------------------------------------------------------------
     1 OT CG       0.15E+00    0.3     0.00303869       -16.0946613233 -1.61E+01
     2 OT LS       0.19E+00    0.3                      -16.0947436530
     3 OT CG       0.19E+00    0.5     0.00101879       -16.0947475855 -8.63E-05
     4 OT LS       0.15E+00    0.3                      -16.0947549986
     5 OT CG       0.15E+00    0.5     0.00011363       -16.0947554357 -7.85E-06
     6 OT LS       0.18E+00    0.3                      -16.0947555480
     7 OT CG       0.18E+00    0.5     0.00001794       -16.0947555506 -1.15E-07

  *** SCF run converged in     7 steps ***


  Electronic density on regular grids:        -13.9999999998        0.0000000002
  Core density on regular grids:               13.9999999987       -0.0000000013
  Total charge density on r-space grids:       -0.0000000011
  Total charge density g-space grids:          -0.0000000011

  Overlap energy of the core charge distribution:               0.00002608230084
  Self energy of the core charge distribution:                -38.70122451907286
  Core Hamiltonian energy:                                     12.66348770804047
  Hartree energy:                                              15.58178504777463
  Exchange-correlation energy:                                 -5.63882986962665

  Total energy:                                               -16.09475555058357

  outer SCF iter =    1 RMS gradient =   0.18E-04 energy =        -16.0947555506
  outer SCF loop converged in   1 iterations or    7 steps


 ENERGY| Total FORCE_EVAL ( QS ) energy [a.u.]:              -16.094755553604458

 STRESS| Analytical stress tensor [GPa]
 STRESS|                        x                   y                   z
 STRESS|      x        2.03921143353E-01   2.06181277654E-01   2.31363780115E-02
 STRESS|      y        2.06181277654E-01   1.48070522174E-01   3.07873147093E-02
 STRESS|      z        2.31363780115E-02   3.07873147093E-02   3.26028464846E-01
 STRESS| 1/3 Trace                                             2.26006710124E-01
 STRESS| Determinant                                          -3.99419022132E-03

 STRESS| Eigenvectors and eigenvalues of the analytical stress tensor [GPa]
 STRESS|                        1                   2                   3
 STRESS| Eigenvalues  -3.22466192882E-02   3.07637375947E-01   4.02629373714E-01
 STRESS|      x          -0.656249738475     -0.346772792027      0.670137979420
 STRESS|      y           0.754210236750     -0.275061829114      0.596244839765
 STRESS|      z          -0.022432109439      0.896710444276      0.442048842994

 Number of electrons:                                                         14
 Number of occupied orbitals:                                                  7
 Number of molecular orbitals:                                                 7

 Number of orbital functions:                                                 14
 Number of independent orbital functions:                                     14

 Extrapolation method: ASPC


 SCF WAVEFUNCTION OPTIMIZATION

  ----------------------------------- OT ---------------------------------------
  Minimizer      : CG                  : conjugate gradient
  Preconditioner : FULL_ALL            : diagonalization, state selective
  Precond_solver : DEFAULT
  Line search    : 2PNT                : 2 energies, one gradient
  stepsize       :    0.15000000                  energy_gap     :    0.08000000
  eps_taylor     :   0.10000E-15                  max_taylor     :             4
  ----------------------------------- OT ---------------------------------------

  Step     Update method      Time    Convergence         Total energy    Change
  ------------------------------------------------------------------------------
     1 OT CG       0.15E+00    0.3     0.00318878       -16.0953911464 -1.61E+01
     2 OT LS       0.18E+00    0.3                      -16.0954781481
     3 OT CG       0.18E+00    0.5     0.00110448       -16.0954805400 -8.94E-05
     4 OT LS       0.16E+00    0.3                      -16.0954900504
     5 OT CG       0.16E+00    0.5     0.00010812       -16.0954901723 -9.63E-06
     6 OT LS       0.19E+00    0.3                      -16.0954902788
     7 OT CG       0.19E+00    0.5     0.00001666       -16.0954902813 -1.09E-07

  *** SCF run converged in     7 steps ***


  Electronic density on regular grids:        -13.9999999998        0.0000000002
  Core density on regular grids:               13.9999999987       -0.0000000013
  Total charge density on r-space grids:       -0.0000000011
  Total charge density g-space grids:          -0.0000000011

  Overlap energy of the core charge distribution:               0.00002730700868
  Self energy of the core charge distribution:                -38.70122451907286
  Core Hamiltonian energy:                                     12.65285600520249
  Hartree energy:                                              15.58854761666843
  Exchange-correlation energy:                                 -5.63569669112933

  Total energy:                                               -16.09549028132260

  outer SCF iter =    1 RMS gradient =   0.17E-04 energy =        -16.0954902813
  outer SCF loop converged in   1 iterations or    7 steps


 ENERGY| Total FORCE_EVAL ( QS ) energy [a.u.]:              -16.095490283878966

 STRESS| Analytical stress tensor [GPa]
 STRESS|                        x                   y                   z
 STRESS|      x        1.93732592628E-01   1.99133650637E-01  -3.19132937381E-03
 STRESS|      y        1.99133650637E-01   1.26213788311E-01   1.31621234830E-02
 STRESS|      z       -3.19132937381E-03   1.31621234830E-02   3.13994191139E-01
 STRESS| 1/3 Trace                                             2.11313524026E-01
 STRESS| Determinant                                          -4.82506946038E-03

 STRESS| Eigenvectors and eigenvalues of the analytical stress tensor [GPa]
 STRESS|                        1                   2                   3
 STRESS| Eigenvalues  -4.24136912335E-02   3.13647581017E-01   3.62706682295E-01
 STRESS|      x          -0.644549939329     -0.116776635118      0.755591551833
 STRESS|      y           0.763806795589     -0.054428455928      0.643145957150
 STRESS|      z          -0.033978739287      0.991665649640      0.124276645435

 Number of electrons:                                                         14
 Number of occupied orbitals:                                                  7
 Number of molecular orbitals:                                                 7

 Number of orbital functions:                                                 14
 Number of independent orbital functions:                                     14

 Extrapolation method: ASPC


 SCF WAVEFUNCTION OPTIMIZATION

  ----------------------------------- OT ---------------------------------------
  Minimizer      : CG                  : conjugate gradient
  Preconditioner : FULL_ALL            : diagonalization, state selective
  Precond_solver : DEFAULT
  Line search    : 2PNT                : 2 energies, one gradient
  stepsize       :    0.15000000                  energy_gap     :    0.08000000
  eps_taylor     :   0.10000E-15                  max_taylor     :             4
  ----------------------------------- OT ---------------------------------------

  Step     Update method      Time    Convergence         Total energy    Change
  ------------------------------------------------------------------------------
     1 OT CG       0.15E+00    0.3     0.00332804       -16.0953851439 -1.61E+01
     2 OT LS       0.17E+00    0.3                      -16.0954769318
     3 OT CG       0.17E+00    0.5     0.00115452       -16.0954784623 -9.33E-05
     4 OT LS       0.17E+00    0.3                      -16.0954894080
     5 OT CG       0.17E+00    0.6     0.00010407       -16.0954894155 -1.10E-05
     6 OT LS       0.19E+00    0.3                      -16.0954895169
     7 OT CG       0.19E+00    0.6     0.00001519       -16.0954895189 -1.03E-07

  *** SCF run converged in     7 steps ***


  Electronic density on regular grids:        -13.9999999998        0.0000000002
  Core density on regular grids:               13.9999999987       -0.0000000013
  Total charge density on r-space grids:       -0.0000000011
  Total charge density g-space grids:          -0.0000000011

  Overlap energy of the core charge distribution:               0.00002730700868
  Self energy of the core charge distribution:                -38.70122451907286
  Core Hamiltonian energy:                                     12.65289789414881
  Hartree energy:                                              15.58850816771224
  Exchange-correlation energy:                                 -5.63569836869178

  Total energy:                                               -16.09548951889492

  outer SCF iter =    1 RMS gradient =   0.15E-04 energy =        -16.0954895189
  outer SCF loop converged in   1 iterations or    7 steps


 ENERGY| Total FORCE_EVAL ( QS ) energy [a.u.]:              -16.095489521014695

 STRESS| Analytical stress tensor [GPa]
 STRESS|                        x                   y                   z
 STRESS|      x        1.93719011274E-01   1.99123970023E-01  -3.19130864142E-03
 STRESS|      y        1.99123970023E-01   1.26203795833E-01   1.31638133227E-02
 STRESS|      z       -3.19130864142E-03   1.31638133227E-02   3.13944225942E-01
 STRESS| 1/3 Trace                                             2.11289011017E-01
 STRESS| Determinant                                          -4.82425272468E-03

 STRESS| Eigenvectors and eigenvalues of the analytical stress tensor [GPa]
 STRESS|                        1                   2                   3
 STRESS| Eigenvalues  -4.24157759128E-02   3.13597920023E-01   3.62684888940E-01
 STRESS|      x          -0.644549863200     -0.116744844902      0.755596529265
 STRESS|      y           0.763806497755     -0.054390814498      0.643149495285
 STRESS|      z          -0.033986877417      0.991671457937      0.124228063160

 Number of electrons:                                                         14
 Number of occupied orbitals:                                                  7
 Number of molecular orbitals:                                                 7

 Number of orbital functions:                                                 14
 Number of independent orbital functions:                                     14

 Extrapolation method: ASPC


 SCF WAVEFUNCTION OPTIMIZATION

  ----------------------------------- OT ---------------------------------------
  Minimizer      : CG                  : conjugate gradient
  Preconditioner : FULL_ALL            : diagonalization, state selective
  Precond_solver : DEFAULT
  Line search    : 2PNT                : 2 energies, one gradient
  stepsize       :    0.15000000                  energy_gap     :    0.08000000
  eps_taylor     :   0.10000E-15                  max_taylor     :             4
  ----------------------------------- OT ---------------------------------------

  Step     Update method      Time    Convergence         Total energy    Change
  ------------------------------------------------------------------------------
     1 OT CG       0.15E+00    1.6     0.00343935       -16.0966346008 -1.61E+01
     2 OT LS       0.16E+00    2.2                      -16.0967293583
     3 OT CG       0.16E+00    2.8     0.00118134       -16.0967301196 -9.55E-05
     4 OT LS       0.17E+00    0.4                      -16.0967418910
     5 OT CG       0.17E+00    1.4     0.00010226       -16.0967419154 -1.18E-05
     6 OT LS       0.20E+00    0.3                      -16.0967420163
     7 OT CG       0.20E+00    1.5     0.00001305       -16.0967420183 -1.03E-07

  *** SCF run converged in     7 steps ***


  Electronic density on regular grids:        -13.9999999998        0.0000000002
  Core density on regular grids:               13.9999999987       -0.0000000013
  Total charge density on r-space grids:       -0.0000000011
  Total charge density g-space grids:          -0.0000000011

  Overlap energy of the core charge distribution:               0.00002690744662
  Self energy of the core charge distribution:                -38.70122451907286
  Core Hamiltonian energy:                                     12.63492260322854
  Hartree energy:                                              15.59911213601697
  Exchange-correlation energy:                                 -5.62957914595813

  Total energy:                                               -16.09674201833886

  outer SCF iter =    1 RMS gradient =   0.13E-04 energy =        -16.0967420183
  outer SCF loop converged in   1 iterations or    7 steps


 ENERGY| Total FORCE_EVAL ( QS ) energy [a.u.]:              -16.096742019936482

 STRESS| Analytical stress tensor [GPa]
 STRESS|                        x                   y                   z
 STRESS|      x        1.64190340936E-01   1.80536259408E-01  -2.78567247976E-02
 STRESS|      y        1.80536259408E-01   9.33109817752E-02  -5.30906133347E-03
 STRESS|      z       -2.78567247976E-02  -5.30906133347E-03   2.72202218918E-01
 STRESS| 1/3 Trace                                             1.76567847210E-01
 STRESS| Determinant                                          -4.72527116755E-03

 STRESS| Eigenvectors and eigenvalues of the analytical stress tensor [GPa]
 STRESS|                        1                   2                   3
 STRESS| Eigenvalues  -5.57979213377E-02   2.60851560756E-01   3.24649902212E-01
 STRESS|      x          -0.636981293968      0.309080274521      0.706204088800
 STRESS|      y           0.769753882084      0.304504699162      0.561031059038
 STRESS|      z          -0.041638829864      0.900969628839     -0.431879538479

 Number of electrons:                                                         14
 Number of occupied orbitals:                                                  7
 Number of molecular orbitals:                                                 7

 Number of orbital functions:                                                 14
 Number of independent orbital functions:                                     14

 Extrapolation method: ASPC


 SCF WAVEFUNCTION OPTIMIZATION

  ----------------------------------- OT ---------------------------------------
  Minimizer      : CG                  : conjugate gradient
  Preconditioner : FULL_ALL            : diagonalization, state selective
  Precond_solver : DEFAULT
  Line search    : 2PNT                : 2 energies, one gradient
  stepsize       :    0.15000000                  energy_gap     :    0.08000000
  eps_taylor     :   0.10000E-15                  max_taylor     :             4
  ----------------------------------- OT ---------------------------------------

  Step     Update method      Time    Convergence         Total energy    Change
  ------------------------------------------------------------------------------
     1 OT CG       0.15E+00    1.8     0.00352977       -16.0966309104 -1.61E+01
     2 OT LS       0.16E+00    1.5                      -16.0967284672
     3 OT CG       0.16E+00    0.6     0.00119386       -16.0967288924 -9.80E-05
     4 OT LS       0.18E+00    0.3                      -16.0967411565
     5 OT CG       0.18E+00    0.5     0.00010263       -16.0967412641 -1.24E-05
     6 OT LS       0.20E+00    0.3                      -16.0967413663
     7 OT CG       0.20E+00    0.5     0.00001227       -16.0967413678 -1.04E-07

  *** SCF run converged in     7 steps ***


  Electronic density on regular grids:        -13.9999999998        0.0000000002
  Core density on regular grids:               13.9999999987       -0.0000000013
  Total charge density on r-space grids:       -0.0000000011
  Total charge density g-space grids:          -0.0000000011

  Overlap energy of the core charge distribution:               0.00002690744662
  Self energy of the core charge distribution:                -38.70122451907286
  Core Hamiltonian energy:                                     12.63494443523433
  Hartree energy:                                              15.59909254555020
  Exchange-correlation energy:                                 -5.62958073696567

  Total energy:                                               -16.09674136780739

  outer SCF iter =    1 RMS gradient =   0.12E-04 energy =        -16.0967413678
  outer SCF loop converged in   1 iterations or    7 steps


 ENERGY| Total FORCE_EVAL ( QS ) energy [a.u.]:              -16.096741369273083

 STRESS| Analytical stress tensor [GPa]
 STRESS|                        x                   y                   z
 STRESS|      x        1.64192064316E-01   1.80531991909E-01  -2.78638328492E-02
 STRESS|      y        1.80531991909E-01   9.33045168568E-02  -5.30639872405E-03
 STRESS|      z       -2.78638328492E-02  -5.30639872405E-03   2.72167392322E-01
 STRESS| 1/3 Trace                                             1.76554657832E-01
 STRESS| Determinant                                          -4.72453715601E-03

 STRESS| Eigenvectors and eigenvalues of the analytical stress tensor [GPa]
 STRESS|                        1                   2                   3
 STRESS| Eigenvalues  -5.57974761765E-02   2.60819553417E-01   3.24641896254E-01
 STRESS|      x          -0.636972156755      0.308974692871      0.706258529636
 STRESS|      y           0.769760163217      0.304441971721      0.561056482877
 STRESS|      z          -0.041662484827      0.901027039006     -0.431757469349

 Number of electrons:                                                         14
 Number of occupied orbitals:                                                  7
 Number of molecular orbitals:                                                 7

 Number of orbital functions:                                                 14
 Number of independent orbital functions:                                     14

 Extrapolation method: ASPC


 SCF WAVEFUNCTION OPTIMIZATION

  ----------------------------------- OT ---------------------------------------
  Minimizer      : CG                  : conjugate gradient
  Preconditioner : FULL_ALL            : diagonalization, state selective
  Precond_solver : DEFAULT
  Line search    : 2PNT                : 2 energies, one gradient
  stepsize       :    0.15000000                  energy_gap     :    0.08000000
  eps_taylor     :   0.10000E-15                  max_taylor     :             4
  ----------------------------------- OT ---------------------------------------

  Step     Update method      Time    Convergence         Total energy    Change
  ------------------------------------------------------------------------------
     1 OT CG       0.15E+00    0.3     0.00354056       -16.0980957110 -1.61E+01
     2 OT LS       0.16E+00    0.3                      -16.0981917035
     3 OT CG       0.16E+00    0.5     0.00118383       -16.0981918674 -9.62E-05
     4 OT LS       0.18E+00    0.3                      -16.0982039658
     5 OT CG       0.18E+00    0.5     0.00010761       -16.0982041618 -1.23E-05
     6 OT LS       0.20E+00    0.3                      -16.0982042732
     7 OT CG       0.20E+00    0.5     0.00001317       -16.0982042742 -1.12E-07

  *** SCF run converged in     7 steps ***


  Electronic density on regular grids:        -13.9999999998        0.0000000002
  Core density on regular grids:               13.9999999987       -0.0000000013
  Total charge density on r-space grids:       -0.0000000011
  Total charge density g-space grids:          -0.0000000011

  Overlap energy of the core charge distribution:               0.00002503984304
  Self energy of the core charge distribution:                -38.70122451907286
  Core Hamiltonian energy:                                     12.61179686387317
  Hartree energy:                                              15.61238871898232
  Exchange-correlation energy:                                 -5.62119037784182

  Total energy:                                               -16.09820427421615

  outer SCF iter =    1 RMS gradient =   0.13E-04 energy =        -16.0982042742
  outer SCF loop converged in   1 iterations or    7 steps


 ENERGY| Total FORCE_EVAL ( QS ) energy [a.u.]:              -16.098204275910074

 STRESS| Analytical stress tensor [GPa]
 STRESS|                        x                   y                   z
 STRESS|      x        1.18671510246E-01   1.51863685676E-01  -4.85364749600E-02
 STRESS|      y        1.51863685676E-01   5.29568548490E-02  -2.29388703960E-02
 STRESS|      z       -4.85364749600E-02  -2.29388703960E-02   2.07271261398E-01
 STRESS| 1/3 Trace                                             1.26299875498E-01
 STRESS| Determinant                                          -3.32665748069E-03

 STRESS| Eigenvectors and eigenvalues of the analytical stress tensor [GPa]
 STRESS|                        1                   2                   3
 STRESS| Eigenvalues  -7.01564350181E-02   1.69800279731E-01   2.79255781780E-01
 STRESS|      x          -0.633316024506      0.432124609801      0.642011787048
 STRESS|      y           0.772469091559      0.403284745378      0.490563876301
 STRESS|      z          -0.046928836440      0.806616225816     -0.589209596460

 Number of electrons:                                                         14
 Number of occupied orbitals:                                                  7
 Number of molecular orbitals:                                                 7

 Number of orbital functions:                                                 14
 Number of independent orbital functions:                                     14

 Extrapolation method: ASPC


 SCF WAVEFUNCTION OPTIMIZATION

  ----------------------------------- OT ---------------------------------------
  Minimizer      : CG                  : conjugate gradient
  Preconditioner : FULL_ALL            : diagonalization, state selective
  Precond_solver : DEFAULT
  Line search    : 2PNT                : 2 energies, one gradient
  stepsize       :    0.15000000                  energy_gap     :    0.08000000
  eps_taylor     :   0.10000E-15                  max_taylor     :             4
  ----------------------------------- OT ---------------------------------------

  Step     Update method      Time    Convergence         Total energy    Change
  ------------------------------------------------------------------------------
     1 OT CG       0.15E+00    0.3     0.00354498       -16.0980962686 -1.61E+01
     2 OT LS       0.15E+00    0.3                      -16.0981914273
     3 OT CG       0.15E+00    0.5     0.00117163       -16.0981915172 -9.52E-05
     4 OT LS       0.18E+00    0.3                      -16.0982034530
     5 OT CG       0.18E+00    0.5     0.00011337       -16.0982037147 -1.22E-05
     6 OT LS       0.19E+00    0.3                      -16.0982038357
     7 OT CG       0.19E+00    0.5     0.00001448       -16.0982038361 -1.21E-07

  *** SCF run converged in     7 steps ***


  Electronic density on regular grids:        -13.9999999998        0.0000000002
  Core density on regular grids:               13.9999999987       -0.0000000013
  Total charge density on r-space grids:       -0.0000000011
  Total charge density g-space grids:          -0.0000000011

  Overlap energy of the core charge distribution:               0.00002503984304
  Self energy of the core charge distribution:                -38.70122451907286
  Core Hamiltonian energy:                                     12.61180830400903
  Hartree energy:                                              15.61238255858524
  Exchange-correlation energy:                                 -5.62119521946162

  Total energy:                                               -16.09820383609717

  outer SCF iter =    1 RMS gradient =   0.14E-04 energy =        -16.0982038361
  outer SCF loop converged in   1 iterations or    7 steps


 ENERGY| Total FORCE_EVAL ( QS ) energy [a.u.]:              -16.098203838127688

 STRESS| Analytical stress tensor [GPa]
 STRESS|                        x                   y                   z
 STRESS|      x        1.18672511663E-01   1.51863478970E-01  -4.85462473683E-02
 STRESS|      y        1.51863478970E-01   5.29542570625E-02  -2.29406891590E-02
 STRESS|      z       -4.85462473683E-02  -2.29406891590E-02   2.07260113424E-01
 STRESS| 1/3 Trace                                             1.26295627383E-01
 STRESS| Determinant                                          -3.32647043658E-03

 STRESS| Eigenvectors and eigenvalues of the analytical stress tensor [GPa]
 STRESS|                        1                   2                   3
 STRESS| Eigenvalues  -7.01578549074E-02   1.69784723197E-01   2.79260013859E-01
 STRESS|      x          -0.633314417831      0.432103255603      0.642027744466
 STRESS|      y           0.772469278962      0.403286305187      0.490562298907
 STRESS|      z          -0.046947430459      0.806626885583     -0.589193521882

 Number of electrons:                                                         14
 Number of occupied orbitals:                                                  7
 Number of molecular orbitals:                                                 7

 Number of orbital functions:                                                 14
 Number of independent orbital functions:                                     14

 Extrapolation method: ASPC


 SCF WAVEFUNCTION OPTIMIZATION

  ----------------------------------- OT ---------------------------------------
  Minimizer      : CG                  : conjugate gradient
  Preconditioner : FULL_ALL            : diagonalization, state selective
  Precond_solver : DEFAULT
  Line search    : 2PNT                : 2 energies, one gradient
  stepsize       :    0.15000000                  energy_gap     :    0.08000000
  eps_taylor     :   0.10000E-15                  max_taylor     :             4
  ----------------------------------- OT ---------------------------------------

  Step     Update method      Time    Convergence         Total energy    Change
  ------------------------------------------------------------------------------
     1 OT CG       0.15E+00    0.3     0.00344109       -16.0994654647 -1.61E+01
     2 OT LS       0.15E+00    0.3                      -16.0995545187
     3 OT CG       0.15E+00    0.5     0.00114012       -16.0995545649 -8.91E-05
     4 OT LS       0.18E+00    0.3                      -16.0995657940
     5 OT CG       0.18E+00    0.5     0.00012435       -16.0995660477 -1.15E-05
     6 OT LS       0.19E+00    0.3                      -16.0995661883
     7 OT CG       0.19E+00    0.5     0.00001628       -16.0995661885 -1.41E-07

  *** SCF run converged in     7 steps ***


  Electronic density on regular grids:        -13.9999999998        0.0000000002
  Core density on regular grids:               13.9999999987       -0.0000000013
  Total charge density on r-space grids:       -0.0000000011
  Total charge density g-space grids:          -0.0000000011

  Overlap energy of the core charge distribution:               0.00002214001026
  Self energy of the core charge distribution:                -38.70122451907286
  Core Hamiltonian energy:                                     12.58608481049344
  Hartree energy:                                              15.62698441846947
  Exchange-correlation energy:                                 -5.61143303835292

  Total energy:                                               -16.09956618845260

  outer SCF iter =    1 RMS gradient =   0.16E-04 energy =        -16.0995661885
  outer SCF loop converged in   1 iterations or    7 steps


 ENERGY| Total FORCE_EVAL ( QS ) energy [a.u.]:              -16.099566190999241

 STRESS| Analytical stress tensor [GPa]
 STRESS|                        x                   y                   z
 STRESS|      x        6.20953398952E-02   1.15295867886E-01  -6.36821255747E-02
 STRESS|      y        1.15295867886E-01   8.88265895699E-03  -3.82142279171E-02
 STRESS|      z       -6.36821255747E-02  -3.82142279171E-02   1.27439608895E-01
 STRESS| 1/3 Trace                                             6.61392025825E-02
 STRESS| Determinant                                          -1.18932290440E-03

 STRESS| Eigenvectors and eigenvalues of the analytical stress tensor [GPa]
 STRESS|                        1                   2                   3
 STRESS| Eigenvalues  -8.33417741064E-02   6.62026669880E-02   2.15556714866E-01
 STRESS|      x          -0.634211561799      0.471740660704      0.612565460926
 STRESS|      y           0.771425531846      0.439127298133      0.460510439459
 STRESS|      z          -0.051752716815      0.764609681519     -0.642412399654

 Number of electrons:                                                         14
 Number of occupied orbitals:                                                  7
 Number of molecular orbitals:                                                 7

 Number of orbital functions:                                                 14
 Number of independent orbital functions:                                     14

 Extrapolation method: ASPC


 SCF WAVEFUNCTION OPTIMIZATION

  ----------------------------------- OT ---------------------------------------
  Minimizer      : CG                  : conjugate gradient
  Preconditioner : FULL_ALL            : diagonalization, state selective
  Precond_solver : DEFAULT
  Line search    : 2PNT                : 2 energies, one gradient
  stepsize       :    0.15000000                  energy_gap     :    0.08000000
  eps_taylor     :   0.10000E-15                  max_taylor     :             4
  ----------------------------------- OT ---------------------------------------

  Step     Update method      Time    Convergence         Total energy    Change
  ------------------------------------------------------------------------------
     1 OT CG       0.15E+00    0.3     0.00336036       -16.0994694494 -1.61E+01
     2 OT LS       0.15E+00    0.3                      -16.0995547440
     3 OT CG       0.15E+00    0.5     0.00111545       -16.0995548112 -8.54E-05
     4 OT LS       0.18E+00    0.3                      -16.0995655492
     5 OT CG       0.18E+00    0.7     0.00013296       -16.0995657676 -1.10E-05
     6 OT LS       0.18E+00    0.3                      -16.0995659246
     7 OT CG       0.18E+00    1.8     0.00001668       -16.0995659246 -1.57E-07

  *** SCF run converged in     7 steps ***


  Electronic density on regular grids:        -13.9999999998        0.0000000002
  Core density on regular grids:               13.9999999987       -0.0000000013
  Total charge density on r-space grids:       -0.0000000011
  Total charge density g-space grids:          -0.0000000011

  Overlap energy of the core charge distribution:               0.00002214001026
  Self energy of the core charge distribution:                -38.70122451907286
  Core Hamiltonian energy:                                     12.58609401386287
  Hartree energy:                                              15.62698191972613
  Exchange-correlation energy:                                 -5.61143947909285

  Total energy:                                               -16.09956592456645

  outer SCF iter =    1 RMS gradient =   0.17E-04 energy =        -16.0995659246
  outer SCF loop converged in   1 iterations or    7 steps


 ENERGY| Total FORCE_EVAL ( QS ) energy [a.u.]:              -16.099565927245628

 STRESS| Analytical stress tensor [GPa]
 STRESS|                        x                   y                   z
 STRESS|      x        6.20847946464E-02   1.15296868126E-01  -6.36890875324E-02
 STRESS|      y        1.15296868126E-01   8.88237739942E-03  -3.82208992532E-02
 STRESS|      z       -6.36890875324E-02  -3.82208992532E-02   1.27447691388E-01
 STRESS| 1/3 Trace                                             6.61382878114E-02
 STRESS| Determinant                                          -1.18932824904E-03

 STRESS| Eigenvectors and eigenvalues of the analytical stress tensor [GPa]
 STRESS|                        1                   2                   3
 STRESS| Eigenvalues  -8.33470647646E-02   6.61959029461E-02   2.15566025253E-01
 STRESS|      x          -0.634230577476      0.471763336145      0.612528308949
 STRESS|      y           0.771409773920      0.439165946924      0.460499980199
 STRESS|      z          -0.051754567864      0.764573492695     -0.642455320605

 Number of electrons:                                                         14
 Number of occupied orbitals:                                                  7
 Number of molecular orbitals:                                                 7

 Number of orbital functions:                                                 14
 Number of independent orbital functions:                                     14

 Extrapolation method: ASPC


 SCF WAVEFUNCTION OPTIMIZATION

  ----------------------------------- OT ---------------------------------------
  Minimizer      : CG                  : conjugate gradient
  Preconditioner : FULL_ALL            : diagonalization, state selective
  Precond_solver : DEFAULT
  Line search    : 2PNT                : 2 energies, one gradient
  stepsize       :    0.15000000                  energy_gap     :    0.08000000
  eps_taylor     :   0.10000E-15                  max_taylor     :             4
  ----------------------------------- OT ---------------------------------------

  Step     Update method      Time    Convergence         Total energy    Change
  ------------------------------------------------------------------------------
     1 OT CG       0.15E+00    1.3     0.00318059       -16.1005146416 -1.61E+01
     2 OT LS       0.16E+00    2.2                      -16.1005925145
     3 OT CG       0.16E+00    1.4     0.00108229       -16.1005926872 -7.80E-05
     4 OT LS       0.17E+00    1.1                      -16.1006026140
     5 OT CG       0.17E+00    0.7     0.00014606       -16.1006027118 -1.00E-05
     6 OT LS       0.18E+00    0.3                      -16.1006028953
     7 OT CG       0.18E+00    1.6     0.00001726       -16.1006028954 -1.84E-07

  *** SCF run converged in     7 steps ***


  Electronic density on regular grids:        -13.9999999998        0.0000000002
  Core density on regular grids:               13.9999999987       -0.0000000013
  Total charge density on r-space grids:       -0.0000000011
  Total charge density g-space grids:          -0.0000000011

  Overlap energy of the core charge distribution:               0.00001874755735
  Self energy of the core charge distribution:                -38.70122451907286
  Core Hamiltonian energy:                                     12.56047176929876
  Hartree energy:                                              15.64140846690406
  Exchange-correlation energy:                                 -5.60127736003981

  Total energy:                                               -16.10060289535249

  outer SCF iter =    1 RMS gradient =   0.17E-04 energy =        -16.1006028954
  outer SCF loop converged in   1 iterations or    7 steps


 ENERGY| Total FORCE_EVAL ( QS ) energy [a.u.]:              -16.100602898195277

 STRESS| Analytical stress tensor [GPa]
 STRESS|                        x                   y                   z
 STRESS|      x        9.46659096442E-05   7.35719430955E-02  -7.26332222146E-02
 STRESS|      y        7.35719430955E-02  -3.53556610153E-02  -5.00300989792E-02
 STRESS|      z       -7.26332222146E-02  -5.00300989792E-02   4.13782811651E-02
 STRESS| 1/3 Trace                                             2.03909535312E-03
 STRESS| Determinant                                           4.96871129783E-04

 STRESS| Eigenvectors and eigenvalues of the analytical stress tensor [GPa]
 STRESS|                        1                   2                   3
 STRESS| Eigenvalues  -9.36864600910E-02  -3.83803458888E-02   1.38184092039E-01
 STRESS|      x          -0.647436188829      0.481266523106      0.590939011347
 STRESS|      y           0.759172424132      0.475390247641      0.444591208735
 STRESS|      z          -0.066959777713      0.736469039529     -0.673149123140

 Number of electrons:                                                         14
 Number of occupied orbitals:                                                  7
 Number of molecular orbitals:                                                 7

 Number of orbital functions:                                                 14
 Number of independent orbital functions:                                     14

 Extrapolation method: ASPC


 SCF WAVEFUNCTION OPTIMIZATION

  ----------------------------------- OT ---------------------------------------
  Minimizer      : CG                  : conjugate gradient
  Preconditioner : FULL_ALL            : diagonalization, state selective
  Precond_solver : DEFAULT
  Line search    : 2PNT                : 2 energies, one gradient
  stepsize       :    0.15000000                  energy_gap     :    0.08000000
  eps_taylor     :   0.10000E-15                  max_taylor     :             4
  ----------------------------------- OT ---------------------------------------

  Step     Update method      Time    Convergence         Total energy    Change
  ------------------------------------------------------------------------------
     1 OT CG       0.15E+00    0.3     0.00306515       -16.1005183113 -1.61E+01
     2 OT LS       0.16E+00    0.3                      -16.1005927124
     3 OT CG       0.16E+00    0.5     0.00105839       -16.1005931638 -7.49E-05
     4 OT LS       0.17E+00    0.3                      -16.1006024785
     5 OT CG       0.17E+00    0.5     0.00015472       -16.1006024961 -9.33E-06
     6 OT LS       0.17E+00    0.3                      -16.1006026988
     7 OT CG       0.17E+00    0.5     0.00001706       -16.1006026988 -2.03E-07

  *** SCF run converged in     7 steps ***


  Electronic density on regular grids:        -13.9999999998        0.0000000002
  Core density on regular grids:               13.9999999987       -0.0000000013
  Total charge density on r-space grids:       -0.0000000011
  Total charge density g-space grids:          -0.0000000011

  Overlap energy of the core charge distribution:               0.00001874755735
  Self energy of the core charge distribution:                -38.70122451907286
  Core Hamiltonian energy:                                     12.56047543052158
  Hartree energy:                                              15.64141004827880
  Exchange-correlation energy:                                 -5.60128240609288

  Total energy:                                               -16.10060269880802

  outer SCF iter =    1 RMS gradient =   0.17E-04 energy =        -16.1006026988
  outer SCF loop converged in   1 iterations or    7 steps


 ENERGY| Total FORCE_EVAL ( QS ) energy [a.u.]:              -16.100602701580719

 STRESS| Analytical stress tensor [GPa]
 STRESS|                        x                   y                   z
 STRESS|      x        7.96814466730E-05   7.35727945004E-02  -7.26387832650E-02
 STRESS|      y        7.35727945004E-02  -3.53552718345E-02  -5.00382902660E-02
 STRESS|      z       -7.26387832650E-02  -5.00382902660E-02   4.13993910141E-02
 STRESS| 1/3 Trace                                             2.04126687543E-03
 STRESS| Determinant                                           4.96972171712E-04

 STRESS| Eigenvectors and eigenvalues of the analytical stress tensor [GPa]
 STRESS|                        1                   2                   3
 STRESS| Eigenvalues  -9.36929090273E-02  -3.83815682733E-02   1.38198277927E-01
 STRESS|      x          -0.647479852549      0.481289119292      0.590872764810
 STRESS|      y           0.759134798929      0.475459746525      0.444581136003
 STRESS|      z          -0.066964151585      0.736409405892     -0.673213925373

 Number of electrons:                                                         14
 Number of occupied orbitals:                                                  7
 Number of molecular orbitals:                                                 7

 Number of orbital functions:                                                 14
 Number of independent orbital functions:                                     14

 Extrapolation method: ASPC


 SCF WAVEFUNCTION OPTIMIZATION

  ----------------------------------- OT ---------------------------------------
  Minimizer      : CG                  : conjugate gradient
  Preconditioner : FULL_ALL            : diagonalization, state selective
  Precond_solver : DEFAULT
  Line search    : 2PNT                : 2 energies, one gradient
  stepsize       :    0.15000000                  energy_gap     :    0.08000000
  eps_taylor     :   0.10000E-15                  max_taylor     :             4
  ----------------------------------- OT ---------------------------------------

  Step     Update method      Time    Convergence         Total energy    Change
  ------------------------------------------------------------------------------
     1 OT CG       0.15E+00    0.3     0.00291978       -16.1011380083 -1.61E+01
     2 OT LS       0.17E+00    0.3                      -16.1012093902
     3 OT CG       0.17E+00    0.5     0.00102380       -16.1012107964 -7.28E-05
     4 OT LS       0.16E+00    0.3                      -16.1012189327
     5 OT CG       0.16E+00    0.5     0.00016664       -16.1012190001 -8.20E-06
     6 OT LS       0.17E+00    0.3                      -16.1012192275
     7 OT CG       0.17E+00    0.5     0.00001799       -16.1012192280 -2.28E-07

  *** SCF run converged in     7 steps ***


  Electronic density on regular grids:        -13.9999999998        0.0000000002
  Core density on regular grids:               13.9999999987       -0.0000000013
  Total charge density on r-space grids:       -0.0000000011
  Total charge density g-space grids:          -0.0000000011

  Overlap energy of the core charge distribution:               0.00001535141116
  Self energy of the core charge distribution:                -38.70122451907286
  Core Hamiltonian energy:                                     12.53743115179963
  Hartree energy:                                              15.65422087538090
  Exchange-correlation energy:                                 -5.59166208753764

  Total energy:                                               -16.10121922801881

  outer SCF iter =    1 RMS gradient =   0.18E-04 energy =        -16.1012192280
  outer SCF loop converged in   1 iterations or    7 steps


 ENERGY| Total FORCE_EVAL ( QS ) energy [a.u.]:              -16.101219231056760

 STRESS| Analytical stress tensor [GPa]
 STRESS|                        x                   y                   z
 STRESS|      x       -6.17215613768E-02   2.97659592725E-02  -7.55313444015E-02
 STRESS|      y        2.97659592725E-02  -7.65634984594E-02  -5.77899549444E-02
 STRESS|      z       -7.55313444015E-02  -5.77899549444E-02  -4.27509929578E-02
 STRESS| 1/3 Trace                                            -6.03453509314E-02
 STRESS| Determinant                                           7.38630770777E-04

 STRESS| Eigenvectors and eigenvalues of the analytical stress tensor [GPa]
 STRESS|                        1                   2                   3
 STRESS| Eigenvalues  -1.35744122796E-01  -9.98093368822E-02   5.45174068844E-02
 STRESS|      x           0.562557298014     -0.602527927758      0.566117816999
 STRESS|      y           0.415194165067      0.798026618974      0.436769184701
 STRESS|      z           0.714942719206      0.010658878043     -0.699101778408

 Number of electrons:                                                         14
 Number of occupied orbitals:                                                  7
 Number of molecular orbitals:                                                 7

 Number of orbital functions:                                                 14
 Number of independent orbital functions:                                     14

 Extrapolation method: ASPC


 SCF WAVEFUNCTION OPTIMIZATION

  ----------------------------------- OT ---------------------------------------
  Minimizer      : CG                  : conjugate gradient
  Preconditioner : FULL_ALL            : diagonalization, state selective
  Precond_solver : DEFAULT
  Line search    : 2PNT                : 2 energies, one gradient
  stepsize       :    0.15000000                  energy_gap     :    0.08000000
  eps_taylor     :   0.10000E-15                  max_taylor     :             4
  ----------------------------------- OT ---------------------------------------

  Step     Update method      Time    Convergence         Total energy    Change
  ------------------------------------------------------------------------------
     1 OT CG       0.15E+00    0.3     0.00288110       -16.1011358343 -1.61E+01
     2 OT LS       0.19E+00    0.3                      -16.1012088285
     3 OT CG       0.19E+00    0.5     0.00097134       -16.1012117649 -7.59E-05
     4 OT LS       0.15E+00    0.3                      -16.1012184649
     5 OT CG       0.15E+00    0.5     0.00017278       -16.1012188185 -7.05E-06
     6 OT LS       0.16E+00    0.3                      -16.1012190569
     7 OT CG       0.16E+00    0.5     0.00001879       -16.1012190580 -2.39E-07

  *** SCF run converged in     7 steps ***


  Electronic density on regular grids:        -13.9999999998        0.0000000002
  Core density on regular grids:               13.9999999987       -0.0000000013
  Total charge density on r-space grids:       -0.0000000011
  Total charge density g-space grids:          -0.0000000011

  Overlap energy of the core charge distribution:               0.00001535141116
  Self energy of the core charge distribution:                -38.70122451907286
  Core Hamiltonian energy:                                     12.53742415429416
  Hartree energy:                                              15.65423128274158
  Exchange-correlation energy:                                 -5.59166532737447

  Total energy:                                               -16.10121905800042

  outer SCF iter =    1 RMS gradient =   0.19E-04 energy =        -16.1012190580
  outer SCF loop converged in   1 iterations or    7 steps


 ENERGY| Total FORCE_EVAL ( QS ) energy [a.u.]:              -16.101219061303087

 STRESS| Analytical stress tensor [GPa]
 STRESS|                        x                   y                   z
 STRESS|      x       -6.17294159463E-02   2.97681779065E-02  -7.55370640281E-02
 STRESS|      y        2.97681779065E-02  -7.65582741535E-02  -5.77976302469E-02
 STRESS|      z       -7.55370640281E-02  -5.77976302469E-02  -4.27171847835E-02
 STRESS| 1/3 Trace                                            -6.03349582945E-02
 STRESS| Determinant                                           7.38945217156E-04

 STRESS| Eigenvectors and eigenvalues of the analytical stress tensor [GPa]
 STRESS|                        1                   2                   3
 STRESS| Eigenvalues  -1.35736550109E-01  -9.98110481781E-02   5.45427234040E-02
 STRESS|      x           0.562661861884     -0.602502958924      0.566040469993
 STRESS|      y           0.415165544207      0.798044247498      0.436764181154
 STRESS|      z           0.714877052426      0.010750047604     -0.699167530990

 Number of electrons:                                                         14
 Number of occupied orbitals:                                                  7
 Number of molecular orbitals:                                                 7

 Number of orbital functions:                                                 14
 Number of independent orbital functions:                                     14

 Extrapolation method: ASPC


 SCF WAVEFUNCTION OPTIMIZATION

  ----------------------------------- OT ---------------------------------------
  Minimizer      : CG                  : conjugate gradient
  Preconditioner : FULL_ALL            : diagonalization, state selective
  Precond_solver : DEFAULT
  Line search    : 2PNT                : 2 energies, one gradient
  stepsize       :    0.15000000                  energy_gap     :    0.08000000
  eps_taylor     :   0.10000E-15                  max_taylor     :             4
  ----------------------------------- OT ---------------------------------------

  Step     Update method      Time    Convergence         Total energy    Change
  ------------------------------------------------------------------------------
     1 OT CG       0.15E+00    0.3     0.00294089       -16.1013533212 -1.61E+01
     2 OT LS       0.21E+00    0.3                      -16.1014341585
     3 OT CG       0.21E+00    0.5     0.00082952       -16.1014405802 -8.73E-05
     4 OT LS       0.15E+00    0.3                      -16.1014448332
     5 OT CG       0.15E+00    0.5     0.00017111       -16.1014455828 -5.00E-06
     6 OT LS       0.15E+00    0.3                      -16.1014458008
     7 OT CG       0.15E+00    0.5     0.00002211       -16.1014458009 -2.18E-07

  *** SCF run converged in     7 steps ***


  Electronic density on regular grids:        -13.9999999998        0.0000000002
  Core density on regular grids:               13.9999999987       -0.0000000013
  Total charge density on r-space grids:       -0.0000000011
  Total charge density g-space grids:          -0.0000000011

  Overlap energy of the core charge distribution:               0.00001229922002
  Self energy of the core charge distribution:                -38.70122451907286
  Core Hamiltonian energy:                                     12.51904177348475
  Hartree energy:                                              15.66414644171068
  Exchange-correlation energy:                                 -5.58342179623841

  Total energy:                                               -16.10144580089582

  outer SCF iter =    1 RMS gradient =   0.22E-04 energy =        -16.1014458009
  outer SCF loop converged in   1 iterations or    7 steps


 ENERGY| Total FORCE_EVAL ( QS ) energy [a.u.]:              -16.101445805328272

 STRESS| Analytical stress tensor [GPa]
 STRESS|                        x                   y                   z
 STRESS|      x       -1.18305787050E-01  -1.29743740754E-02  -7.31001899342E-02
 STRESS|      y       -1.29743740754E-02  -1.12003548267E-01  -6.13851394617E-02
 STRESS|      z       -7.31001899342E-02  -6.13851394617E-02  -1.17875317706E-01
 STRESS| 1/3 Trace                                            -1.16061551008E-01
 STRESS| Determinant                                          -6.14224533172E-04

 STRESS| Eigenvectors and eigenvalues of the analytical stress tensor [GPa]
 STRESS|                        1                   2                   3
 STRESS| Eigenvalues  -2.18782955042E-01  -1.01832226939E-01  -2.75694710418E-02
 STRESS|      x           0.559753387586     -0.644262692341     -0.521154227022
 STRESS|      y           0.463069391831      0.764745824451     -0.448029644481
 STRESS|      z           0.687199304013      0.009455540280      0.726407399001

 Number of electrons:                                                         14
 Number of occupied orbitals:                                                  7
 Number of molecular orbitals:                                                 7

 Number of orbital functions:                                                 14
 Number of independent orbital functions:                                     14

 Extrapolation method: ASPC


 SCF WAVEFUNCTION OPTIMIZATION

  ----------------------------------- OT ---------------------------------------
  Minimizer      : CG                  : conjugate gradient
  Preconditioner : FULL_ALL            : diagonalization, state selective
  Precond_solver : DEFAULT
  Line search    : 2PNT                : 2 energies, one gradient
  stepsize       :    0.15000000                  energy_gap     :    0.08000000
  eps_taylor     :   0.10000E-15                  max_taylor     :             4
  ----------------------------------- OT ---------------------------------------

  Step     Update method      Time    Convergence         Total energy    Change
  ------------------------------------------------------------------------------
     1 OT CG       0.15E+00    0.3     0.00310212       -16.1013397629 -1.61E+01
     2 OT LS       0.22E+00    0.3                      -16.1014322397
     3 OT CG       0.22E+00    0.5     0.00068905       -16.1014419241 -1.02E-04
     4 OT LS       0.16E+00    0.3                      -16.1014451508
     5 OT CG       0.16E+00    0.5     0.00014321       -16.1014456318 -3.71E-06
     6 OT LS       0.14E+00    0.3                      -16.1014457697
     7 OT CG       0.14E+00    0.5     0.00002464       -16.1014457724 -1.41E-07

  *** SCF run converged in     7 steps ***


  Electronic density on regular grids:        -13.9999999998        0.0000000002
  Core density on regular grids:               13.9999999987       -0.0000000013
  Total charge density on r-space grids:       -0.0000000011
  Total charge density g-space grids:          -0.0000000011

  Overlap energy of the core charge distribution:               0.00001229922002
  Self energy of the core charge distribution:                -38.70122451907286
  Core Hamiltonian energy:                                     12.51905719680206
  Hartree energy:                                              15.66413969844674
  Exchange-correlation energy:                                 -5.58343044777090

  Total energy:                                               -16.10144577237495

  outer SCF iter =    1 RMS gradient =   0.25E-04 energy =        -16.1014457724
  outer SCF loop converged in   1 iterations or    7 steps


 ENERGY| Total FORCE_EVAL ( QS ) energy [a.u.]:              -16.101445777625720

 STRESS| Analytical stress tensor [GPa]
 STRESS|                        x                   y                   z
 STRESS|      x       -1.18300967357E-01  -1.29671415622E-02  -7.31056667894E-02
 STRESS|      y       -1.29671415622E-02  -1.11993283995E-01  -6.13898414339E-02
 STRESS|      z       -7.31056667894E-02  -6.13898414339E-02  -1.17835943786E-01
 STRESS| 1/3 Trace                                            -1.16043398379E-01
 STRESS| Determinant                                          -6.13392606861E-04

 STRESS| Eigenvectors and eigenvalues of the analytical stress tensor [GPa]
 STRESS|                        1                   2                   3
 STRESS| Eigenvalues  -2.18764107320E-01  -1.01831348123E-01  -2.75347396948E-02
 STRESS|      x           0.559803030762     -0.644265360229     -0.521097603485
 STRESS|      y           0.463078293177      0.764743064983     -0.448025154370
 STRESS|      z           0.687152865917      0.009496850474      0.726450788900

 Number of electrons:                                                         14
 Number of occupied orbitals:                                                  7
 Number of molecular orbitals:                                                 7

 Number of orbital functions:                                                 14
 Number of independent orbital functions:                                     14

 Extrapolation method: ASPC


 SCF WAVEFUNCTION OPTIMIZATION

  ----------------------------------- OT ---------------------------------------
  Minimizer      : CG                  : conjugate gradient
  Preconditioner : FULL_ALL            : diagonalization, state selective
  Precond_solver : DEFAULT
  Line search    : 2PNT                : 2 energies, one gradient
  stepsize       :    0.15000000                  energy_gap     :    0.08000000
  eps_taylor     :   0.10000E-15                  max_taylor     :             4
  ----------------------------------- OT ---------------------------------------

  Step     Update method      Time    Convergence         Total energy    Change
  ------------------------------------------------------------------------------
     1 OT CG       0.15E+00    0.3     0.00345929       -16.1012660650 -1.61E+01
     2 OT LS       0.22E+00    0.3                      -16.1013825447
     3 OT CG       0.22E+00    0.5     0.00065784       -16.1013961982 -1.30E-04
     4 OT LS       0.17E+00    0.3                      -16.1013994399
     5 OT CG       0.17E+00    0.5     0.00009497       -16.1013997867 -3.59E-06

  *** SCF run converged in     5 steps ***


  Electronic density on regular grids:        -13.9999999998        0.0000000002
  Core density on regular grids:               13.9999999987       -0.0000000013
  Total charge density on r-space grids:       -0.0000000011
  Total charge density g-space grids:          -0.0000000011

  Overlap energy of the core charge distribution:               0.00000977417576
  Self energy of the core charge distribution:                -38.70122451907286
  Core Hamiltonian energy:                                     12.50666445398945
  Hartree energy:                                              15.67034453843077
  Exchange-correlation energy:                                 -5.57719403421969

  Total energy:                                               -16.10139978669657

  outer SCF iter =    1 RMS gradient =   0.95E-04 energy =        -16.1013997867
  outer SCF loop converged in   1 iterations or    5 steps


 ENERGY| Total FORCE_EVAL ( QS ) energy [a.u.]:              -16.101399855115247

 STRESS| Analytical stress tensor [GPa]
 STRESS|                        x                   y                   z
 STRESS|      x       -1.65428583700E-01  -5.16540262125E-02  -6.63994634395E-02
 STRESS|      y       -5.16540262125E-02  -1.39459054749E-01  -6.10679828041E-02
 STRESS|      z       -6.63994634395E-02  -6.10679828041E-02  -1.78295765841E-01
 STRESS| 1/3 Trace                                            -1.61061134763E-01
 STRESS| Determinant                                          -2.82476702166E-03

 STRESS| Eigenvectors and eigenvalues of the analytical stress tensor [GPa]
 STRESS|                        1                   2                   3
 STRESS| Eigenvalues  -2.83076587454E-01  -1.05699306129E-01  -9.44075107062E-02
 STRESS|      x           0.581575240745     -0.798938085138     -0.153193261826
 STRESS|      y           0.486427836179      0.190589902128      0.852680156564
 STRESS|      z           0.652041562742      0.570415134199     -0.499468092208

 Number of electrons:                                                         14
 Number of occupied orbitals:                                                  7
 Number of molecular orbitals:                                                 7

 Number of orbital functions:                                                 14
 Number of independent orbital functions:                                     14

 Extrapolation method: ASPC


 SCF WAVEFUNCTION OPTIMIZATION

  ----------------------------------- OT ---------------------------------------
  Minimizer      : CG                  : conjugate gradient
  Preconditioner : FULL_ALL            : diagonalization, state selective
  Precond_solver : DEFAULT
  Line search    : 2PNT                : 2 energies, one gradient
  stepsize       :    0.15000000                  energy_gap     :    0.08000000
  eps_taylor     :   0.10000E-15                  max_taylor     :             4
  ----------------------------------- OT ---------------------------------------

  Step     Update method      Time    Convergence         Total energy    Change
  ------------------------------------------------------------------------------
     1 OT CG       0.15E+00    0.3     0.00383742       -16.1012368368 -1.61E+01
     2 OT LS       0.22E+00    0.3                      -16.1013791017
     3 OT CG       0.22E+00    0.5     0.00085308       -16.1013947307 -1.58E-04
     4 OT LS       0.15E+00    0.3                      -16.1013987857
     5 OT CG       0.15E+00    0.5     0.00018102       -16.1014000025 -5.27E-06
     6 OT LS       0.15E+00    0.3                      -16.1014002470
     7 OT CG       0.15E+00    0.5     0.00003364       -16.1014002472 -2.45E-07

  *** SCF run converged in     7 steps ***


  Electronic density on regular grids:        -13.9999999998        0.0000000002
  Core density on regular grids:               13.9999999987       -0.0000000013
  Total charge density on r-space grids:       -0.0000000011
  Total charge density g-space grids:          -0.0000000011

  Overlap energy of the core charge distribution:               0.00000977417576
  Self energy of the core charge distribution:                -38.70122451907286
  Core Hamiltonian energy:                                     12.50684222490572
  Hartree energy:                                              15.67020567497652
  Exchange-correlation energy:                                 -5.57723340219722

  Total energy:                                               -16.10140024721208

  outer SCF iter =    1 RMS gradient =   0.34E-04 energy =        -16.1014002472
  outer SCF loop converged in   1 iterations or    7 steps


 ENERGY| Total FORCE_EVAL ( QS ) energy [a.u.]:              -16.101400257190143

 STRESS| Analytical stress tensor [GPa]
 STRESS|                        x                   y                   z
 STRESS|      x       -1.65429902130E-01  -5.16546863609E-02  -6.64079142016E-02
 STRESS|      y       -5.16546863609E-02  -1.39439580160E-01  -6.10870652564E-02
 STRESS|      z       -6.64079142016E-02  -6.10870652564E-02  -1.78238957949E-01
 STRESS| 1/3 Trace                                            -1.61036146746E-01
 STRESS| Determinant                                          -2.82278280651E-03

 STRESS| Eigenvectors and eigenvalues of the analytical stress tensor [GPa]
 STRESS|                        1                   2                   3
 STRESS| Eigenvalues  -2.83067163373E-01  -1.05677246344E-01  -9.43640305225E-02
 STRESS|      x           0.581644018914     -0.799187539497     -0.151622926942
 STRESS|      y           0.486468757362      0.192357242388      0.852259842661
 STRESS|      z           0.651949678558      0.569471656901     -0.500663208768

 Number of electrons:                                                         14
 Number of occupied orbitals:                                                  7
 Number of molecular orbitals:                                                 7

 Number of orbital functions:                                                 14
 Number of independent orbital functions:                                     14

 Extrapolation method: ASPC


 SCF WAVEFUNCTION OPTIMIZATION

  ----------------------------------- OT ---------------------------------------
  Minimizer      : CG                  : conjugate gradient
  Preconditioner : FULL_ALL            : diagonalization, state selective
  Precond_solver : DEFAULT
  Line search    : 2PNT                : 2 energies, one gradient
  stepsize       :    0.15000000                  energy_gap     :    0.08000000
  eps_taylor     :   0.10000E-15                  max_taylor     :             4
  ----------------------------------- OT ---------------------------------------

  Step     Update method      Time    Convergence         Total energy    Change
  ------------------------------------------------------------------------------
     1 OT CG       0.15E+00    0.3     0.00443272       -16.1010148728 -1.61E+01
     2 OT LS       0.21E+00    0.3                      -16.1012009200
     3 OT CG       0.21E+00    0.5     0.00124678       -16.1012177932 -2.03E-04
     4 OT LS       0.14E+00    0.3                      -16.1012254889
     5 OT CG       0.14E+00    0.5     0.00021099       -16.1012283524 -1.06E-05
     6 OT LS       0.17E+00    0.3                      -16.1012287098
     7 OT CG       0.17E+00    0.5     0.00003853       -16.1012287221 -3.70E-07

  *** SCF run converged in     7 steps ***


  Electronic density on regular grids:        -13.9999999998        0.0000000002
  Core density on regular grids:               13.9999999987       -0.0000000013
  Total charge density on r-space grids:       -0.0000000011
  Total charge density g-space grids:          -0.0000000011

  Overlap energy of the core charge distribution:               0.00000782266920
  Self energy of the core charge distribution:                -38.70122451907286
  Core Hamiltonian energy:                                     12.50223655333935
  Hartree energy:                                              15.67136776760445
  Exchange-correlation energy:                                 -5.57361634666869

  Total energy:                                               -16.10122872212855

  outer SCF iter =    1 RMS gradient =   0.39E-04 energy =        -16.1012287221
  outer SCF loop converged in   1 iterations or    7 steps


 ENERGY| Total FORCE_EVAL ( QS ) energy [a.u.]:              -16.101228735456797

 STRESS| Analytical stress tensor [GPa]
 STRESS|                        x                   y                   z
 STRESS|      x       -2.00023266548E-01  -8.37787236224E-02  -5.66672512410E-02
 STRESS|      y       -8.37787236224E-02  -1.57395019714E-01  -5.74160579085E-02
 STRESS|      z       -5.66672512410E-02  -5.74160579085E-02  -2.19911280413E-01
 STRESS| 1/3 Trace                                            -1.92443188892E-01
 STRESS| Determinant                                          -4.76020955123E-03

 STRESS| Eigenvectors and eigenvalues of the analytical stress tensor [GPa]
 STRESS|                        1                   2                   3
 STRESS| Eigenvalues  -3.25823862921E-01  -1.60451790525E-01  -9.10539132293E-02
 STRESS|      x           0.612014447143     -0.550532478510     -0.567760782896
 STRESS|      y           0.510365114462     -0.273470010555      0.815316872920
 STRESS|      z           0.604123966111      0.788751002175     -0.113604974090

 Number of electrons:                                                         14
 Number of occupied orbitals:                                                  7
 Number of molecular orbitals:                                                 7

 Number of orbital functions:                                                 14
 Number of independent orbital functions:                                     14

 Extrapolation method: ASPC


 SCF WAVEFUNCTION OPTIMIZATION

  ----------------------------------- OT ---------------------------------------
  Minimizer      : CG                  : conjugate gradient
  Preconditioner : FULL_ALL            : diagonalization, state selective
  Precond_solver : DEFAULT
  Line search    : 2PNT                : 2 energies, one gradient
  stepsize       :    0.15000000                  energy_gap     :    0.08000000
  eps_taylor     :   0.10000E-15                  max_taylor     :             4
  ----------------------------------- OT ---------------------------------------

  Step     Update method      Time    Convergence         Total energy    Change
  ------------------------------------------------------------------------------
     1 OT CG       0.15E+00    0.3     0.00491119       -16.1009708263 -1.61E+01
     2 OT LS       0.21E+00    0.3                      -16.1011967026
     3 OT CG       0.21E+00    0.5     0.00145989       -16.1012150106 -2.44E-04
     4 OT LS       0.14E+00    0.3                      -16.1012260460
     5 OT CG       0.14E+00    0.5     0.00022698       -16.1012295006 -1.45E-05
     6 OT LS       0.18E+00    0.3                      -16.1012299271
     7 OT CG       0.18E+00    0.5     0.00004180       -16.1012299482 -4.48E-07

  *** SCF run converged in     7 steps ***


  Electronic density on regular grids:        -13.9999999998        0.0000000002
  Core density on regular grids:               13.9999999987       -0.0000000013
  Total charge density on r-space grids:       -0.0000000011
  Total charge density g-space grids:          -0.0000000011

  Overlap energy of the core charge distribution:               0.00000782266920
  Self energy of the core charge distribution:                -38.70122451907286
  Core Hamiltonian energy:                                     12.50208996121797
  Hartree energy:                                              15.67149998572235
  Exchange-correlation energy:                                 -5.57360319874406

  Total energy:                                               -16.10122994820740

  outer SCF iter =    1 RMS gradient =   0.42E-04 energy =        -16.1012299482
  outer SCF loop converged in   1 iterations or    7 steps


 ENERGY| Total FORCE_EVAL ( QS ) energy [a.u.]:              -16.101229963630523

 STRESS| Analytical stress tensor [GPa]
 STRESS|                        x                   y                   z
 STRESS|      x       -1.99952335368E-01  -8.37257716310E-02  -5.66668355736E-02
 STRESS|      y       -8.37257716310E-02  -1.57342305136E-01  -5.74144081195E-02
 STRESS|      z       -5.66668355736E-02  -5.74144081195E-02  -2.19805090897E-01
 STRESS| 1/3 Trace                                            -1.92366577134E-01
 STRESS| Determinant                                          -4.75487475100E-03

 STRESS| Eigenvectors and eigenvalues of the analytical stress tensor [GPa]
 STRESS|                        1                   2                   3
 STRESS| Eigenvalues  -3.25710404779E-01  -1.60345417526E-01  -9.10439090954E-02
 STRESS|      x           0.612005247960     -0.550659234075     -0.567647764373
 STRESS|      y           0.510352951344     -0.273321090992      0.815374420909
 STRESS|      z           0.604143560359      0.788714136521     -0.113756623230

 Number of electrons:                                                         14
 Number of occupied orbitals:                                                  7
 Number of molecular orbitals:                                                 7

 Number of orbital functions:                                                 14
 Number of independent orbital functions:                                     14

 Extrapolation method: ASPC


 SCF WAVEFUNCTION OPTIMIZATION

  ----------------------------------- OT ---------------------------------------
  Minimizer      : CG                  : conjugate gradient
  Preconditioner : FULL_ALL            : diagonalization, state selective
  Precond_solver : DEFAULT
  Line search    : 2PNT                : 2 energies, one gradient
  stepsize       :    0.15000000                  energy_gap     :    0.08000000
  eps_taylor     :   0.10000E-15                  max_taylor     :             4
  ----------------------------------- OT ---------------------------------------

  Step     Update method      Time    Convergence         Total energy    Change
  ------------------------------------------------------------------------------
     1 OT CG       0.15E+00    0.3     0.00558058       -16.1007267385 -1.61E+01
     2 OT LS       0.20E+00    0.3                      -16.1010130151
     3 OT CG       0.20E+00    0.5     0.00180575       -16.1010323022 -3.06E-04
     4 OT LS       0.14E+00    0.3                      -16.1010509075
     5 OT CG       0.14E+00    0.5     0.00023667       -16.1010548699 -2.26E-05
     6 OT LS       0.19E+00    0.3                      -16.1010553493
     7 OT CG       0.19E+00    0.5     0.00004452       -16.1010553780 -5.08E-07

  *** SCF run converged in     7 steps ***


  Electronic density on regular grids:        -13.9999999998        0.0000000002
  Core density on regular grids:               13.9999999987       -0.0000000013
  Total charge density on r-space grids:       -0.0000000011
  Total charge density g-space grids:          -0.0000000011

  Overlap energy of the core charge distribution:               0.00000640589345
  Self energy of the core charge distribution:                -38.70122451907286
  Core Hamiltonian energy:                                     12.50536852652026
  Hartree energy:                                              15.66759295662595
  Exchange-correlation energy:                                 -5.57279874799899

  Total energy:                                               -16.10105537803219

  outer SCF iter =    1 RMS gradient =   0.45E-04 energy =        -16.1010553780
  outer SCF loop converged in   1 iterations or    7 steps


 ENERGY| Total FORCE_EVAL ( QS ) energy [a.u.]:              -16.101055395003790

 STRESS| Analytical stress tensor [GPa]
 STRESS|                        x                   y                   z
 STRESS|      x       -2.19737917360E-01  -1.07217378253E-01  -4.51639409578E-02
 STRESS|      y       -1.07217378253E-01  -1.64865030160E-01  -5.10514882808E-02
 STRESS|      z       -4.51639409578E-02  -5.10514882808E-02  -2.40004685058E-01
 STRESS| 1/3 Trace                                            -2.08202544193E-01
 STRESS| Determinant                                          -5.52112131750E-03

 STRESS| Eigenvectors and eigenvalues of the analytical stress tensor [GPa]
 STRESS|                        1                   2                   3
 STRESS| Eigenvalues  -3.45675291717E-01  -1.98447739960E-01  -8.04846009010E-02
 STRESS|      x           0.650083711098     -0.480023676187     -0.589040269307
 STRESS|      y           0.537219303660     -0.257886335276      0.803050470303
 STRESS|      z           0.537388675300      0.838493833238     -0.090230279183

 Number of electrons:                                                         14
 Number of occupied orbitals:                                                  7
 Number of molecular orbitals:                                                 7

 Number of orbital functions:                                                 14
 Number of independent orbital functions:                                     14

 Extrapolation method: ASPC


 SCF WAVEFUNCTION OPTIMIZATION

  ----------------------------------- OT ---------------------------------------
  Minimizer      : CG                  : conjugate gradient
  Preconditioner : FULL_ALL            : diagonalization, state selective
  Precond_solver : DEFAULT
  Line search    : 2PNT                : 2 energies, one gradient
  stepsize       :    0.15000000                  energy_gap     :    0.08000000
  eps_taylor     :   0.10000E-15                  max_taylor     :             4
  ----------------------------------- OT ---------------------------------------

  Step     Update method      Time    Convergence         Total energy    Change
  ------------------------------------------------------------------------------
     1 OT CG       0.15E+00    0.3     0.00609261       -16.1006703327 -1.61E+01
     2 OT LS       0.20E+00    0.3                      -16.1010091283
     3 OT CG       0.20E+00    0.5     0.00197494       -16.1010300316 -3.60E-04
     4 OT LS       0.14E+00    0.3                      -16.1010531728
     5 OT CG       0.14E+00    0.5     0.00025477       -16.1010572490 -2.72E-05
     6 OT LS       0.19E+00    0.3                      -16.1010578185
     7 OT CG       0.19E+00    0.5     0.00004581       -16.1010578583 -6.09E-07

  *** SCF run converged in     7 steps ***


  Electronic density on regular grids:        -13.9999999998        0.0000000002
  Core density on regular grids:               13.9999999987       -0.0000000013
  Total charge density on r-space grids:       -0.0000000011
  Total charge density g-space grids:          -0.0000000011

  Overlap energy of the core charge distribution:               0.00000640589345
  Self energy of the core charge distribution:                -38.70122451907286
  Core Hamiltonian energy:                                     12.50523186897727
  Hartree energy:                                              15.66772004202745
  Exchange-correlation energy:                                 -5.57279165609923

  Total energy:                                               -16.10105785827393

  outer SCF iter =    1 RMS gradient =   0.46E-04 energy =        -16.1010578583
  outer SCF loop converged in   1 iterations or    7 steps


 ENERGY| Total FORCE_EVAL ( QS ) energy [a.u.]:              -16.101057875494142

 STRESS| Analytical stress tensor [GPa]
 STRESS|                        x                   y                   z
 STRESS|      x       -2.19649253069E-01  -1.07149086296E-01  -4.51594839514E-02
 STRESS|      y       -1.07149086296E-01  -1.64799267492E-01  -5.10419146189E-02
 STRESS|      z       -4.51594839514E-02  -5.10419146189E-02  -2.39895237187E-01
 STRESS| 1/3 Trace                                            -2.08114585916E-01
 STRESS| Determinant                                          -5.51514445263E-03

 STRESS| Eigenvectors and eigenvalues of the analytical stress tensor [GPa]
 STRESS|                        1                   2                   3
 STRESS| Eigenvalues  -3.45530893977E-01  -1.98336806209E-01  -8.04760575630E-02
 STRESS|      x           0.650055178662     -0.480118388226     -0.588994565325
 STRESS|      y           0.537182231282     -0.257875735880      0.803078673132
 STRESS|      z           0.537460245126      0.838442865156     -0.090277609507

 Number of electrons:                                                         14
 Number of occupied orbitals:                                                  7
 Number of molecular orbitals:                                                 7

 Number of orbital functions:                                                 14
 Number of independent orbital functions:                                     14

 Extrapolation method: ASPC


 SCF WAVEFUNCTION OPTIMIZATION

  ----------------------------------- OT ---------------------------------------
  Minimizer      : CG                  : conjugate gradient
  Preconditioner : FULL_ALL            : diagonalization, state selective
  Precond_solver : DEFAULT
  Line search    : 2PNT                : 2 energies, one gradient
  stepsize       :    0.15000000                  energy_gap     :    0.08000000
  eps_taylor     :   0.10000E-15                  max_taylor     :             4
  ----------------------------------- OT ---------------------------------------

  Step     Update method      Time    Convergence         Total energy    Change
  ------------------------------------------------------------------------------
     1 OT CG       0.15E+00    0.3     0.00677192       -16.1004706800 -1.61E+01
     2 OT LS       0.19E+00    0.3                      -16.1008829171
     3 OT CG       0.19E+00    0.5     0.00227849       -16.1009046812 -4.34E-04
     4 OT LS       0.15E+00    0.3                      -16.1009379532
     5 OT CG       0.15E+00    0.5     0.00026146       -16.1009418510 -3.72E-05
     6 OT LS       0.20E+00    0.3                      -16.1009424679
     7 OT CG       0.20E+00    0.5     0.00004545       -16.1009425137 -6.63E-07

  *** SCF run converged in     7 steps ***


  Electronic density on regular grids:        -13.9999999998        0.0000000002
  Core density on regular grids:               13.9999999987       -0.0000000013
  Total charge density on r-space grids:       -0.0000000011
  Total charge density g-space grids:          -0.0000000011

  Overlap energy of the core charge distribution:               0.00000545052161
  Self energy of the core charge distribution:                -38.70122451907286
  Core Hamiltonian energy:                                     12.51635817015179
  Hartree energy:                                              15.65875736057202
  Exchange-correlation energy:                                 -5.57483897586241

  Total energy:                                               -16.10094251368985

  outer SCF iter =    1 RMS gradient =   0.45E-04 energy =        -16.1009425137
  outer SCF loop converged in   1 iterations or    7 steps


 ENERGY| Total FORCE_EVAL ( QS ) energy [a.u.]:              -16.100942529877305

 STRESS| Analytical stress tensor [GPa]
 STRESS|                        x                   y                   z
 STRESS|      x       -2.23463132448E-01  -1.20644939318E-01  -3.32008182171E-02
 STRESS|      y       -1.20644939318E-01  -1.61837777305E-01  -4.27536944166E-02
 STRESS|      z       -3.32008182171E-02  -4.27536944166E-02  -2.37613515215E-01
 STRESS| 1/3 Trace                                            -2.07638141656E-01
 STRESS| Determinant                                          -4.89037161157E-03

 STRESS| Eigenvectors and eigenvalues of the analytical stress tensor [GPa]
 STRESS|                        1                   2                   3
 STRESS| Eigenvalues  -3.43344761375E-01  -2.12561699597E-01  -6.70079639951E-02
 STRESS|      x           0.693135732619     -0.403455520084     -0.597316080045
 STRESS|      y           0.565883113905     -0.208708700565      0.797632107995
 STRESS|      z           0.446474139860      0.890878398898     -0.083645207957

 Number of electrons:                                                         14
 Number of occupied orbitals:                                                  7
 Number of molecular orbitals:                                                 7

 Number of orbital functions:                                                 14
 Number of independent orbital functions:                                     14

 Extrapolation method: ASPC


 SCF WAVEFUNCTION OPTIMIZATION

  ----------------------------------- OT ---------------------------------------
  Minimizer      : CG                  : conjugate gradient
  Preconditioner : FULL_ALL            : diagonalization, state selective
  Precond_solver : DEFAULT
  Line search    : 2PNT                : 2 energies, one gradient
  stepsize       :    0.15000000                  energy_gap     :    0.08000000
  eps_taylor     :   0.10000E-15                  max_taylor     :             4
  ----------------------------------- OT ---------------------------------------

  Step     Update method      Time    Convergence         Total energy    Change
  ------------------------------------------------------------------------------
     1 OT CG       0.15E+00    0.3     0.00725965       -16.1004079865 -1.61E+01
     2 OT LS       0.19E+00    0.3                      -16.1008805706
     3 OT CG       0.19E+00    0.5     0.00239034       -16.1009043784 -4.96E-04
     4 OT LS       0.15E+00    0.3                      -16.1009415141
     5 OT CG       0.15E+00    0.5     0.00028464       -16.1009454280 -4.10E-05
     6 OT LS       0.20E+00    0.3                      -16.1009461717
     7 OT CG       0.20E+00    0.5     0.00004383       -16.1009462326 -8.05E-07

  *** SCF run converged in     7 steps ***


  Electronic density on regular grids:        -13.9999999998        0.0000000002
  Core density on regular grids:               13.9999999987       -0.0000000013
  Total charge density on r-space grids:       -0.0000000011
  Total charge density g-space grids:          -0.0000000011

  Overlap energy of the core charge distribution:               0.00000545052161
  Self energy of the core charge distribution:                -38.70122451907286
  Core Hamiltonian energy:                                     12.51624338246738
  Hartree energy:                                              15.65886741917866
  Exchange-correlation energy:                                 -5.57483796571873

  Total energy:                                               -16.10094623262393

  outer SCF iter =    1 RMS gradient =   0.44E-04 energy =        -16.1009462326
  outer SCF loop converged in   1 iterations or    7 steps


 ENERGY| Total FORCE_EVAL ( QS ) energy [a.u.]:              -16.100946246951864

 STRESS| Analytical stress tensor [GPa]
 STRESS|                        x                   y                   z
 STRESS|      x       -2.23367912124E-01  -1.20577691196E-01  -3.31913254463E-02
 STRESS|      y       -1.20577691196E-01  -1.61759779060E-01  -4.27338444933E-02
 STRESS|      z       -3.31913254463E-02  -4.27338444933E-02  -2.37518394792E-01
 STRESS| 1/3 Trace                                            -2.07548695325E-01
 STRESS| Determinant                                          -4.88466407872E-03

 STRESS| Eigenvectors and eigenvalues of the analytical stress tensor [GPa]
 STRESS|                        1                   2                   3
 STRESS| Eigenvalues  -3.43186417486E-01  -2.12470188169E-01  -6.69894803211E-02
 STRESS|      x           0.693123497513     -0.403515394411     -0.597289832216
 STRESS|      y           0.565837813669     -0.208751723284      0.797652986360
 STRESS|      z           0.446550541169      0.890841200495     -0.083633544001

 Number of electrons:                                                         14
 Number of occupied orbitals:                                                  7
 Number of molecular orbitals:                                                 7

 Number of orbital functions:                                                 14
 Number of independent orbital functions:                                     14

 Extrapolation method: ASPC


 SCF WAVEFUNCTION OPTIMIZATION

  ----------------------------------- OT ---------------------------------------
  Minimizer      : CG                  : conjugate gradient
  Preconditioner : FULL_ALL            : diagonalization, state selective
  Precond_solver : DEFAULT
  Line search    : 2PNT                : 2 energies, one gradient
  stepsize       :    0.15000000                  energy_gap     :    0.08000000
  eps_taylor     :   0.10000E-15                  max_taylor     :             4
  ----------------------------------- OT ---------------------------------------

  Step     Update method      Time    Convergence         Total energy    Change
  ------------------------------------------------------------------------------
     1 OT CG       0.15E+00    0.3     0.00786577       -16.1002620935 -1.61E+01
     2 OT LS       0.19E+00    0.3                      -16.1008113257
     3 OT CG       0.19E+00    0.5     0.00263260       -16.1008363770 -5.74E-04
     4 OT LS       0.15E+00    0.3                      -16.1008837097
     5 OT CG       0.15E+00    0.5     0.00028894       -16.1008873019 -5.09E-05
     6 OT LS       0.21E+00    0.3                      -16.1008880845
     7 OT CG       0.21E+00    0.5     0.00004064       -16.1008881503 -8.48E-07

  *** SCF run converged in     7 steps ***


  Electronic density on regular grids:        -13.9999999997        0.0000000003
  Core density on regular grids:               13.9999999987       -0.0000000013
  Total charge density on r-space grids:       -0.0000000011
  Total charge density g-space grids:          -0.0000000011

  Overlap energy of the core charge distribution:               0.00000488472663
  Self energy of the core charge distribution:                -38.70122451907286
  Core Hamiltonian energy:                                     12.53455981265214
  Hartree energy:                                              15.64530394507376
  Exchange-correlation energy:                                 -5.57953227372045

  Total energy:                                               -16.10088815034078

  outer SCF iter =    1 RMS gradient =   0.41E-04 energy =        -16.1008881503
  outer SCF loop converged in   1 iterations or    7 steps


 ENERGY| Total FORCE_EVAL ( QS ) energy [a.u.]:              -16.100888162225033

 STRESS| Analytical stress tensor [GPa]
 STRESS|                        x                   y                   z
 STRESS|      x       -2.11161021360E-01  -1.23502465685E-01  -2.20974657861E-02
 STRESS|      y       -1.23502465685E-01  -1.49208411963E-01  -3.33309931776E-02
 STRESS|      z       -2.20974657861E-02  -3.33309931776E-02  -2.13499620777E-01
 STRESS| 1/3 Trace                                            -1.91289684700E-01
 STRESS| Determinant                                          -3.34473115302E-03

 STRESS| Eigenvectors and eigenvalues of the analytical stress tensor [GPa]
 STRESS|                        1                   2                   3
 STRESS| Eigenvalues  -3.20970801891E-01  -2.01072918637E-01  -5.18253335725E-02
 STRESS|      x           0.733216652372     -0.313210303386     -0.603566604889
 STRESS|      y           0.592094878424     -0.142414987995      0.793184484302
 STRESS|      z           0.334390483759      0.938944767836     -0.081029175759

 Number of electrons:                                                         14
 Number of occupied orbitals:                                                  7
 Number of molecular orbitals:                                                 7

 Number of orbital functions:                                                 14
 Number of independent orbital functions:                                     14

 Extrapolation method: ASPC


 SCF WAVEFUNCTION OPTIMIZATION

  ----------------------------------- OT ---------------------------------------
  Minimizer      : CG                  : conjugate gradient
  Preconditioner : FULL_ALL            : diagonalization, state selective
  Precond_solver : DEFAULT
  Line search    : 2PNT                : 2 energies, one gradient
  stepsize       :    0.15000000                  energy_gap     :    0.08000000
  eps_taylor     :   0.10000E-15                  max_taylor     :             4
  ----------------------------------- OT ---------------------------------------

  Step     Update method      Time    Convergence         Total energy    Change
  ------------------------------------------------------------------------------
     1 OT CG       0.15E+00    0.3     0.00827704       -16.1002012179 -1.61E+01
     2 OT LS       0.19E+00    0.3                      -16.1008102208
     3 OT CG       0.19E+00    0.5     0.00267696       -16.1008378444 -6.37E-04
     4 OT LS       0.15E+00    0.3                      -16.1008867621
     5 OT CG       0.15E+00    0.5     0.00031574       -16.1008904259 -5.26E-05
     6 OT LS       0.21E+00    0.3                      -16.1008913681
     7 OT CG       0.21E+00    0.5     0.00003650       -16.1008914516 -1.03E-06

  *** SCF run converged in     7 steps ***


  Electronic density on regular grids:        -13.9999999998        0.0000000002
  Core density on regular grids:               13.9999999987       -0.0000000013
  Total charge density on r-space grids:       -0.0000000011
  Total charge density g-space grids:          -0.0000000011

  Overlap energy of the core charge distribution:               0.00000488472663
  Self energy of the core charge distribution:                -38.70122451907286
  Core Hamiltonian energy:                                     12.53447404104152
  Hartree energy:                                              15.64538821417336
  Exchange-correlation energy:                                 -5.57953407245897

  Total energy:                                               -16.10089145159032

  outer SCF iter =    1 RMS gradient =   0.37E-04 energy =        -16.1008914516
  outer SCF loop converged in   1 iterations or    7 steps


 ENERGY| Total FORCE_EVAL ( QS ) energy [a.u.]:              -16.100891460945963

 STRESS| Analytical stress tensor [GPa]
 STRESS|                        x                   y                   z
 STRESS|      x       -2.11084895423E-01  -1.23448620821E-01  -2.20845762587E-02
 STRESS|      y       -1.23448620821E-01  -1.49133634586E-01  -3.33065628603E-02
 STRESS|      z       -2.20845762587E-02  -3.33065628603E-02  -2.13432682320E-01
 STRESS| 1/3 Trace                                            -1.91217070776E-01
 STRESS| Determinant                                          -3.34091900471E-03

 STRESS| Eigenvectors and eigenvalues of the analytical stress tensor [GPa]
 STRESS|                        1                   2                   3
 STRESS| Eigenvalues  -3.20833430514E-01  -2.01014231292E-01  -5.18035505225E-02
 STRESS|      x           0.733251312517     -0.313186168755     -0.603537021559
 STRESS|      y           0.592056554801     -0.142426412031      0.793211039430
 STRESS|      z           0.334382338962      0.938951085444     -0.080989570525

 Number of electrons:                                                         14
 Number of occupied orbitals:                                                  7
 Number of molecular orbitals:                                                 7

 Number of orbital functions:                                                 14
 Number of independent orbital functions:                                     14

 Extrapolation method: ASPC


 SCF WAVEFUNCTION OPTIMIZATION

  ----------------------------------- OT ---------------------------------------
  Minimizer      : CG                  : conjugate gradient
  Preconditioner : FULL_ALL            : diagonalization, state selective
  Precond_solver : DEFAULT
  Line search    : 2PNT                : 2 energies, one gradient
  stepsize       :    0.15000000                  energy_gap     :    0.08000000
  eps_taylor     :   0.10000E-15                  max_taylor     :             4
  ----------------------------------- OT ---------------------------------------

  Step     Update method      Time    Convergence         Total energy    Change
  ------------------------------------------------------------------------------
     1 OT CG       0.15E+00    0.3     0.00874991       -16.1000867258 -1.61E+01
     2 OT LS       0.19E+00    0.3                      -16.1007635099
     3 OT CG       0.19E+00    0.5     0.00285228       -16.1007928388 -7.06E-04
     4 OT LS       0.15E+00    0.3                      -16.1008501377
     5 OT CG       0.15E+00    0.5     0.00031647       -16.1008535738 -6.07E-05
     6 OT LS       0.21E+00    0.3                      -16.1008545343
     7 OT CG       0.21E+00    0.5     0.00003175       -16.1008546209 -1.05E-06

  *** SCF run converged in     7 steps ***


  Electronic density on regular grids:        -13.9999999998        0.0000000002
  Core density on regular grids:               13.9999999987       -0.0000000013
  Total charge density on r-space grids:       -0.0000000011
  Total charge density g-space grids:          -0.0000000011

  Overlap energy of the core charge distribution:               0.00000465789335
  Self energy of the core charge distribution:                -38.70122451907286
  Core Hamiltonian energy:                                     12.55870307830942
  Hartree energy:                                              15.62809501422955
  Exchange-correlation energy:                                 -5.58643285222230

  Total energy:                                               -16.10085462086285

  outer SCF iter =    1 RMS gradient =   0.32E-04 energy =        -16.1008546209
  outer SCF loop converged in   1 iterations or    7 steps


 ENERGY| Total FORCE_EVAL ( QS ) energy [a.u.]:              -16.100854628015497

 STRESS| Analytical stress tensor [GPa]
 STRESS|                        x                   y                   z
 STRESS|      x       -1.84081586752E-01  -1.16131738649E-01  -1.31331158080E-02
 STRESS|      y       -1.16131738649E-01  -1.28897308353E-01  -2.36012521725E-02
 STRESS|      z       -1.31331158080E-02  -2.36012521725E-02  -1.70348682444E-01
 STRESS| 1/3 Trace                                            -1.61109192516E-01
 STRESS| Determinant                                          -1.69177063981E-03

 STRESS| Eigenvectors and eigenvalues of the analytical stress tensor [GPa]
 STRESS|                        1                   2                   3
 STRESS| Eigenvalues  -2.81472480073E-01  -1.65549062873E-01  -3.63060346020E-02
 STRESS|      x           0.759583536517     -0.221178628381     -0.611647664428
 STRESS|      y           0.612150251468     -0.074667433480      0.787208259614
 STRESS|      z           0.219783804408      0.972370705403     -0.078678399797

 Number of electrons:                                                         14
 Number of occupied orbitals:                                                  7
 Number of molecular orbitals:                                                 7

 Number of orbital functions:                                                 14
 Number of independent orbital functions:                                     14

 Extrapolation method: ASPC


 SCF WAVEFUNCTION OPTIMIZATION

  ----------------------------------- OT ---------------------------------------
  Minimizer      : CG                  : conjugate gradient
  Preconditioner : FULL_ALL            : diagonalization, state selective
  Precond_solver : DEFAULT
  Line search    : 2PNT                : 2 energies, one gradient
  stepsize       :    0.15000000                  energy_gap     :    0.08000000
  eps_taylor     :   0.10000E-15                  max_taylor     :             4
  ----------------------------------- OT ---------------------------------------

  Step     Update method      Time    Convergence         Total energy    Change
  ------------------------------------------------------------------------------
     1 OT CG       0.15E+00    0.3     0.00904887       -16.1000347356 -1.61E+01
     2 OT LS       0.19E+00    0.3                      -16.1007612982
     3 OT CG       0.19E+00    0.5     0.00282601       -16.1007935405 -7.59E-04
     4 OT LS       0.15E+00    0.3                      -16.1008494121
     5 OT CG       0.15E+00    0.5     0.00034391       -16.1008529360 -5.94E-05
     6 OT LS       0.21E+00    0.3                      -16.1008540718
     7 OT CG       0.21E+00    0.5     0.00002666       -16.1008541747 -1.24E-06

  *** SCF run converged in     7 steps ***


  Electronic density on regular grids:        -13.9999999997        0.0000000003
  Core density on regular grids:               13.9999999987       -0.0000000013
  Total charge density on r-space grids:       -0.0000000011
  Total charge density g-space grids:          -0.0000000011

  Overlap energy of the core charge distribution:               0.00000465789335
  Self energy of the core charge distribution:                -38.70122451907286
  Core Hamiltonian energy:                                     12.55864935213716
  Hartree energy:                                              15.62814824628412
  Exchange-correlation energy:                                 -5.58643191196532

  Total energy:                                               -16.10085417472354

  outer SCF iter =    1 RMS gradient =   0.27E-04 energy =        -16.1008541747
  outer SCF loop converged in   1 iterations or    7 steps


 ENERGY| Total FORCE_EVAL ( QS ) energy [a.u.]:              -16.100854179924333

 STRESS| Analytical stress tensor [GPa]
 STRESS|                        x                   y                   z
 STRESS|      x       -1.84047859889E-01  -1.16088280223E-01  -1.31318437920E-02
 STRESS|      y       -1.16088280223E-01  -1.28861763224E-01  -2.35816703917E-02
 STRESS|      z       -1.31318437920E-02  -2.35816703917E-02  -1.70318863187E-01
 STRESS| 1/3 Trace                                            -1.61076162100E-01
 STRESS| Determinant                                          -1.69143510426E-03

 STRESS| Eigenvectors and eigenvalues of the analytical stress tensor [GPa]
 STRESS|                        1                   2                   3
 STRESS| Eigenvalues  -2.81392153023E-01  -1.65520976252E-01  -3.63153570255E-02
 STRESS|      x           0.759621240309     -0.221116816273     -0.611623188600
 STRESS|      y           0.612110854502     -0.074706592078      0.787235178902
 STRESS|      z           0.219763220473      0.972381755619     -0.078599289220

 Number of electrons:                                                         14
 Number of occupied orbitals:                                                  7
 Number of molecular orbitals:                                                 7

 Number of orbital functions:                                                 14
 Number of independent orbital functions:                                     14

 Extrapolation method: ASPC


 SCF WAVEFUNCTION OPTIMIZATION

  ----------------------------------- OT ---------------------------------------
  Minimizer      : CG                  : conjugate gradient
  Preconditioner : FULL_ALL            : diagonalization, state selective
  Precond_solver : DEFAULT
  Line search    : 2PNT                : 2 energies, one gradient
  stepsize       :    0.15000000                  energy_gap     :    0.08000000
  eps_taylor     :   0.10000E-15                  max_taylor     :             4
  ----------------------------------- OT ---------------------------------------

  Step     Update method      Time    Convergence         Total energy    Change
  ------------------------------------------------------------------------------
     1 OT CG       0.15E+00    0.3     0.00934499       -16.0999474180 -1.61E+01
     2 OT LS       0.19E+00    0.3                      -16.1007209535
     3 OT CG       0.19E+00    0.5     0.00293050       -16.1007552788 -8.08E-04
     4 OT LS       0.15E+00    0.3                      -16.1008163783
     5 OT CG       0.15E+00    0.5     0.00034045       -16.1008198651 -6.46E-05
     6 OT LS       0.22E+00    0.3                      -16.1008209880
     7 OT CG       0.22E+00    0.5     0.00002324       -16.1008210918 -1.23E-06

  *** SCF run converged in     7 steps ***


  Electronic density on regular grids:        -13.9999999997        0.0000000003
  Core density on regular grids:               13.9999999987       -0.0000000013
  Total charge density on r-space grids:       -0.0000000010
  Total charge density g-space grids:          -0.0000000010

  Overlap energy of the core charge distribution:               0.00000474841743
  Self energy of the core charge distribution:                -38.70122451907286
  Core Hamiltonian energy:                                     12.58693624039985
  Hartree energy:                                              15.60834497306695
  Exchange-correlation energy:                                 -5.59488253459400

  Total energy:                                               -16.10082109178263

  outer SCF iter =    1 RMS gradient =   0.23E-04 energy =        -16.1008210918
  outer SCF loop converged in   1 iterations or    7 steps


 ENERGY| Total FORCE_EVAL ( QS ) energy [a.u.]:              -16.100821096014919

 STRESS| Analytical stress tensor [GPa]
 STRESS|                        x                   y                   z
 STRESS|      x       -1.44894384818E-01  -9.98477046822E-02  -7.39321498961E-03
 STRESS|      y       -9.98477046822E-02  -1.03735067662E-01  -1.43206952094E-02
 STRESS|      z       -7.39321498961E-03  -1.43206952094E-02  -1.12835663430E-01
 STRESS| 1/3 Trace                                            -1.20488371970E-01
 STRESS| Determinant                                          -5.56826142470E-04

 STRESS| Eigenvectors and eigenvalues of the analytical stress tensor [GPa]
 STRESS|                        1                   2                   3
 STRESS| Eigenvalues  -2.28158205301E-01  -1.11398920109E-01  -2.19079905006E-02
 STRESS|      x           0.766370459168     -0.143808788446     -0.626095321561
 STRESS|      y           0.629655105476     -0.025008960219      0.776472150213
 STRESS|      z           0.127321512175      0.989289434025     -0.071383809531

 Number of electrons:                                                         14
 Number of occupied orbitals:                                                  7
 Number of molecular orbitals:                                                 7

 Number of orbital functions:                                                 14
 Number of independent orbital functions:                                     14

 Extrapolation method: ASPC


 SCF WAVEFUNCTION OPTIMIZATION

  ----------------------------------- OT ---------------------------------------
  Minimizer      : CG                  : conjugate gradient
  Preconditioner : FULL_ALL            : diagonalization, state selective
  Precond_solver : DEFAULT
  Line search    : 2PNT                : 2 energies, one gradient
  stepsize       :    0.15000000                  energy_gap     :    0.08000000
  eps_taylor     :   0.10000E-15                  max_taylor     :             4
  ----------------------------------- OT ---------------------------------------

  Step     Update method      Time    Convergence         Total energy    Change
  ------------------------------------------------------------------------------
     1 OT CG       0.15E+00    0.3     0.00950750       -16.0999141135 -1.61E+01
     2 OT LS       0.19E+00    0.3                      -16.1007189777
     3 OT CG       0.19E+00    0.5     0.00283444       -16.1007562865 -8.42E-04
     4 OT LS       0.15E+00    0.3                      -16.1008129609
     5 OT CG       0.15E+00    0.5     0.00036546       -16.1008164706 -6.02E-05
     6 OT LS       0.21E+00    0.3                      -16.1008177600
     7 OT CG       0.21E+00    0.5     0.00002025       -16.1008178750 -1.40E-06

  *** SCF run converged in     7 steps ***


  Electronic density on regular grids:        -13.9999999997        0.0000000003
  Core density on regular grids:               13.9999999987       -0.0000000013
  Total charge density on r-space grids:       -0.0000000010
  Total charge density g-space grids:          -0.0000000010

  Overlap energy of the core charge distribution:               0.00000474841743
  Self energy of the core charge distribution:                -38.70122451907286
  Core Hamiltonian energy:                                     12.58691345031795
  Hartree energy:                                              15.60836604174729
  Exchange-correlation energy:                                 -5.59487759638333

  Total energy:                                               -16.10081787497352

  outer SCF iter =    1 RMS gradient =   0.20E-04 energy =        -16.1008178750
  outer SCF loop converged in   1 iterations or    7 steps


 ENERGY| Total FORCE_EVAL ( QS ) energy [a.u.]:              -16.100817878307375

 STRESS| Analytical stress tensor [GPa]
 STRESS|                        x                   y                   z
 STRESS|      x       -1.44883169780E-01  -9.98258697863E-02  -7.41367429835E-03
 STRESS|      y       -9.98258697863E-02  -1.03751954871E-01  -1.43101066105E-02
 STRESS|      z       -7.41367429835E-03  -1.43101066105E-02  -1.12837251399E-01
 STRESS| 1/3 Trace                                            -1.20490792017E-01
 STRESS| Determinant                                          -5.57523003920E-04

 STRESS| Eigenvectors and eigenvalues of the analytical stress tensor [GPa]
 STRESS|                        1                   2                   3
 STRESS| Eigenvalues  -2.28139562902E-01  -1.11394801521E-01  -2.19380116275E-02
 STRESS|      x           0.766337541670     -0.143748711685     -0.626149407183
 STRESS|      y           0.629674773265     -0.025247760171      0.776448472546
 STRESS|      z           0.127422337682      0.989292099683     -0.071166630975

 Number of electrons:                                                         14
 Number of occupied orbitals:                                                  7
 Number of molecular orbitals:                                                 7

 Number of orbital functions:                                                 14
 Number of independent orbital functions:                                     14

 Extrapolation method: ASPC


 SCF WAVEFUNCTION OPTIMIZATION

  ----------------------------------- OT ---------------------------------------
  Minimizer      : CG                  : conjugate gradient
  Preconditioner : FULL_ALL            : diagonalization, state selective
  Precond_solver : DEFAULT
  Line search    : 2PNT                : 2 energies, one gradient
  stepsize       :    0.15000000                  energy_gap     :    0.08000000
  eps_taylor     :   0.10000E-15                  max_taylor     :             4
  ----------------------------------- OT ---------------------------------------

  Step     Update method      Time    Convergence         Total energy    Change
  ------------------------------------------------------------------------------
     1 OT CG       0.15E+00    0.3     0.00960317       -16.0999080306 -1.61E+01
     2 OT LS       0.19E+00    0.3                      -16.1007305063
     3 OT CG       0.19E+00    0.5     0.00286672       -16.1007700435 -8.62E-04
     4 OT LS       0.15E+00    0.3                      -16.1008281623
     5 OT CG       0.15E+00    0.5     0.00035799       -16.1008318605 -6.18E-05
     6 OT LS       0.22E+00    0.3                      -16.1008331022
     7 OT CG       0.22E+00    0.5     0.00002153       -16.1008332166 -1.36E-06

  *** SCF run converged in     7 steps ***


  Electronic density on regular grids:        -13.9999999997        0.0000000003
  Core density on regular grids:               13.9999999987       -0.0000000013
  Total charge density on r-space grids:       -0.0000000011
  Total charge density g-space grids:          -0.0000000011

  Overlap energy of the core charge distribution:               0.00000516525089
  Self energy of the core charge distribution:                -38.70122451907286
  Core Hamiltonian energy:                                     12.61696870542697
  Hartree energy:                                              15.58749565218594
  Exchange-correlation energy:                                 -5.60407822042180

  Total energy:                                               -16.10083321663085

  outer SCF iter =    1 RMS gradient =   0.22E-04 energy =        -16.1008332166
  outer SCF loop converged in   1 iterations or    7 steps


 ENERGY| Total FORCE_EVAL ( QS ) energy [a.u.]:              -16.100833220321142

 STRESS| Analytical stress tensor [GPa]
 STRESS|                        x                   y                   z
 STRESS|      x       -9.76760529167E-02  -7.69373725472E-02  -5.45355287318E-03
 STRESS|      y       -7.69373725472E-02  -7.70081253783E-02  -6.08568150424E-03
 STRESS|      z       -5.45355287318E-03  -6.08568150424E-03  -4.73691954471E-02
 STRESS| 1/3 Trace                                            -7.40177912473E-02
 STRESS| Determinant                                          -7.51077673987E-05

 STRESS| Eigenvectors and eigenvalues of the analytical stress tensor [GPa]
 STRESS|                        1                   2                   3
 STRESS| Eigenvalues  -1.65527248330E-01  -4.68386394630E-02  -9.68748594891E-03
 STRESS|      x           0.750647921863     -0.069058603753     -0.657083409204
 STRESS|      y           0.657142730833     -0.025060064163      0.753349470363
 STRESS|      z           0.068491814957      0.997297800274     -0.026570074372

 Number of electrons:                                                         14
 Number of occupied orbitals:                                                  7
 Number of molecular orbitals:                                                 7

 Number of orbital functions:                                                 14
 Number of independent orbital functions:                                     14

 Extrapolation method: ASPC


 SCF WAVEFUNCTION OPTIMIZATION

  ----------------------------------- OT ---------------------------------------
  Minimizer      : CG                  : conjugate gradient
  Preconditioner : FULL_ALL            : diagonalization, state selective
  Precond_solver : DEFAULT
  Line search    : 2PNT                : 2 energies, one gradient
  stepsize       :    0.15000000                  energy_gap     :    0.08000000
  eps_taylor     :   0.10000E-15                  max_taylor     :             4
  ----------------------------------- OT ---------------------------------------

  Step     Update method      Time    Convergence         Total energy    Change
  ------------------------------------------------------------------------------
     1 OT CG       0.15E+00    0.3     0.00962499       -16.0999009750 -1.61E+01
     2 OT LS       0.19E+00    0.3                      -16.1007322783
     3 OT CG       0.19E+00    0.5     0.00270590       -16.1007746395 -8.74E-04
     4 OT LS       0.15E+00    0.3                      -16.1008260317
     5 OT CG       0.15E+00    0.5     0.00037833       -16.1008295969 -5.50E-05
     6 OT LS       0.21E+00    0.3                      -16.1008309749
     7 OT CG       0.21E+00    0.5     0.00002200       -16.1008310927 -1.50E-06

  *** SCF run converged in     7 steps ***


  Electronic density on regular grids:        -13.9999999997        0.0000000003
  Core density on regular grids:               13.9999999987       -0.0000000013
  Total charge density on r-space grids:       -0.0000000011
  Total charge density g-space grids:          -0.0000000011

  Overlap energy of the core charge distribution:               0.00000516525089
  Self energy of the core charge distribution:                -38.70122451907286
  Core Hamiltonian energy:                                     12.61696358410336
  Hartree energy:                                              15.58749550668674
  Exchange-correlation energy:                                 -5.60407082963153

  Total energy:                                               -16.10083109266339

  outer SCF iter =    1 RMS gradient =   0.22E-04 energy =        -16.1008310927
  outer SCF loop converged in   1 iterations or    7 steps


 ENERGY| Total FORCE_EVAL ( QS ) energy [a.u.]:              -16.100831096307150

 STRESS| Analytical stress tensor [GPa]
 STRESS|                        x                   y                   z
 STRESS|      x       -9.76609352539E-02  -7.69551120241E-02  -5.48568169804E-03
 STRESS|      y       -7.69551120241E-02  -7.70543420284E-02  -6.08807583057E-03
 STRESS|      z       -5.48568169804E-03  -6.08807583057E-03  -4.73833729544E-02
 STRESS| 1/3 Trace                                            -7.40328834123E-02
 STRESS| Determinant                                          -7.51623855747E-05

 STRESS| Eigenvectors and eigenvalues of the analytical stress tensor [GPa]
 STRESS|                        1                   2                   3
 STRESS| Eigenvalues  -1.65559786314E-01  -4.68482208990E-02  -9.69064302379E-03
 STRESS|      x           0.750503859678     -0.068833657360     -0.657271545271
 STRESS|      y           0.657285608303     -0.025641409824      0.753205249066
 STRESS|      z           0.068699241094      0.997298574007     -0.025999395309

 Number of electrons:                                                         14
 Number of occupied orbitals:                                                  7
 Number of molecular orbitals:                                                 7

 Number of orbital functions:                                                 14
 Number of independent orbital functions:                                     14

 Extrapolation method: ASPC


 SCF WAVEFUNCTION OPTIMIZATION

  ----------------------------------- OT ---------------------------------------
  Minimizer      : CG                  : conjugate gradient
  Preconditioner : FULL_ALL            : diagonalization, state selective
  Precond_solver : DEFAULT
  Line search    : 2PNT                : 2 energies, one gradient
  stepsize       :    0.15000000                  energy_gap     :    0.08000000
  eps_taylor     :   0.10000E-15                  max_taylor     :             4
  ----------------------------------- OT ---------------------------------------

  Step     Update method      Time    Convergence         Total energy    Change
  ------------------------------------------------------------------------------
     1 OT CG       0.15E+00    0.3     0.00952828       -16.1000787206 -1.61E+01
     2 OT LS       0.19E+00    0.3                      -16.1008971926
     3 OT CG       0.19E+00    0.5     0.00266783       -16.1009416347 -8.63E-04
     4 OT LS       0.15E+00    0.3                      -16.1009909045
     5 OT CG       0.15E+00    0.5     0.00036783       -16.1009948546 -5.32E-05
     6 OT LS       0.21E+00    0.3                      -16.1009961562
     7 OT CG       0.21E+00    0.5     0.00002604       -16.1009962738 -1.42E-06

  *** SCF run converged in     7 steps ***


  Electronic density on regular grids:        -13.9999999997        0.0000000003
  Core density on regular grids:               13.9999999987       -0.0000000013
  Total charge density on r-space grids:       -0.0000000011
  Total charge density g-space grids:          -0.0000000011

  Overlap energy of the core charge distribution:               0.00000594802081
  Self energy of the core charge distribution:                -38.70122451907286
  Core Hamiltonian energy:                                     12.64633244918061
  Hartree energy:                                              15.56705207619195
  Exchange-correlation energy:                                 -5.61316222811751

  Total energy:                                               -16.10099627379700

  outer SCF iter =    1 RMS gradient =   0.26E-04 energy =        -16.1009962738
  outer SCF loop converged in   1 iterations or    7 steps


 ENERGY| Total FORCE_EVAL ( QS ) energy [a.u.]:              -16.100996278645987

 STRESS| Analytical stress tensor [GPa]
 STRESS|                        x                   y                   z
 STRESS|      x       -4.77000157744E-02  -5.03958291866E-02  -7.04676965139E-03
 STRESS|      y       -5.03958291866E-02  -5.18104616678E-02   7.54755207577E-04
 STRESS|      z       -7.04676965139E-03   7.54755207577E-04   1.86238553149E-02
 STRESS| 1/3 Trace                                            -2.69622073758E-02
 STRESS| Determinant                                           1.86249707085E-06

 STRESS| Eigenvectors and eigenvalues of the analytical stress tensor [GPa]
 STRESS|                        1                   2                   3
 STRESS| Eigenvalues  -1.00351380363E-01  -9.10879718928E-04   2.03756379542E-02
 STRESS|      x           0.693548719271      0.685569172277     -0.221325741885
 STRESS|      y           0.719483782125     -0.674730410958      0.164565973968
 STRESS|      z           0.036513850220      0.273374802334      0.961214313351

 Number of electrons:                                                         14
 Number of occupied orbitals:                                                  7
 Number of molecular orbitals:                                                 7

 Number of orbital functions:                                                 14
 Number of independent orbital functions:                                     14

 Extrapolation method: ASPC


 SCF WAVEFUNCTION OPTIMIZATION

  ----------------------------------- OT ---------------------------------------
  Minimizer      : CG                  : conjugate gradient
  Preconditioner : FULL_ALL            : diagonalization, state selective
  Precond_solver : DEFAULT
  Line search    : 2PNT                : 2 energies, one gradient
  stepsize       :    0.15000000                  energy_gap     :    0.08000000
  eps_taylor     :   0.10000E-15                  max_taylor     :             4
  ----------------------------------- OT ---------------------------------------

  Step     Update method      Time    Convergence         Total energy    Change
  ------------------------------------------------------------------------------
     1 OT CG       0.15E+00    0.3     0.00942629       -16.1000946765 -1.61E+01
     2 OT LS       0.20E+00    0.3                      -16.1009010032
     3 OT CG       0.20E+00    0.5     0.00244862       -16.1009478813 -8.53E-04
     4 OT LS       0.15E+00    0.3                      -16.1009892935
     5 OT CG       0.15E+00    0.5     0.00038225       -16.1009928204 -4.49E-05
     6 OT LS       0.21E+00    0.3                      -16.1009942143
     7 OT CG       0.21E+00    0.5     0.00002735       -16.1009943256 -1.51E-06

  *** SCF run converged in     7 steps ***


  Electronic density on regular grids:        -13.9999999998        0.0000000002
  Core density on regular grids:               13.9999999987       -0.0000000013
  Total charge density on r-space grids:       -0.0000000011
  Total charge density g-space grids:          -0.0000000011

  Overlap energy of the core charge distribution:               0.00000594802081
  Self energy of the core charge distribution:                -38.70122451907286
  Core Hamiltonian energy:                                     12.64633051404560
  Hartree energy:                                              15.56704403914481
  Exchange-correlation energy:                                 -5.61315030771803

  Total energy:                                               -16.10099432557967

  outer SCF iter =    1 RMS gradient =   0.27E-04 energy =        -16.1009943256
  outer SCF loop converged in   1 iterations or    7 steps


 ENERGY| Total FORCE_EVAL ( QS ) energy [a.u.]:              -16.100994330745706

 STRESS| Analytical stress tensor [GPa]
 STRESS|                        x                   y                   z
 STRESS|      x       -4.76901881515E-02  -5.04300845909E-02  -7.08052047802E-03
 STRESS|      y       -5.04300845909E-02  -5.18783719548E-02   7.41970596623E-04
 STRESS|      z       -7.08052047802E-03   7.41970596623E-04   1.86049394078E-02
 STRESS| 1/3 Trace                                            -2.69878735662E-02
 STRESS| Determinant                                           1.87130770890E-06

 STRESS| Eigenvectors and eigenvalues of the analytical stress tensor [GPa]
 STRESS|                        1                   2                   3
 STRESS| Eigenvalues  -1.00418420997E-01  -9.14846679569E-04   2.03696469777E-02
 STRESS|      x           0.693288758732      0.685545668985     -0.222211234531
 STRESS|      y           0.719721951344     -0.674376412644      0.164975049093
 STRESS|      z           0.036756084796      0.274305650335      0.960939852657

 Number of electrons:                                                         14
 Number of occupied orbitals:                                                  7
 Number of molecular orbitals:                                                 7

 Number of orbital functions:                                                 14
 Number of independent orbital functions:                                     14

 Extrapolation method: ASPC


 SCF WAVEFUNCTION OPTIMIZATION

  ----------------------------------- OT ---------------------------------------
  Minimizer      : CG                  : conjugate gradient
  Preconditioner : FULL_ALL            : diagonalization, state selective
  Precond_solver : DEFAULT
  Line search    : 2PNT                : 2 energies, one gradient
  stepsize       :    0.15000000                  energy_gap     :    0.08000000
  eps_taylor     :   0.10000E-15                  max_taylor     :             4
  ----------------------------------- OT ---------------------------------------

  Step     Update method      Time    Convergence         Total energy    Change
  ------------------------------------------------------------------------------
     1 OT CG       0.15E+00    0.3     0.00917785       -16.1005457751 -1.61E+01
     2 OT LS       0.20E+00    0.3                      -16.1013155862
     3 OT CG       0.20E+00    0.5     0.00234354       -16.1013640086 -8.18E-04
     4 OT LS       0.15E+00    0.3                      -16.1014007784
     5 OT CG       0.15E+00    0.5     0.00036983       -16.1014047158 -4.07E-05
     6 OT LS       0.21E+00    0.3                      -16.1014060147
     7 OT CG       0.21E+00    0.5     0.00003120       -16.1014061265 -1.41E-06

  *** SCF run converged in     7 steps ***


  Electronic density on regular grids:        -13.9999999998        0.0000000002
  Core density on regular grids:               13.9999999987       -0.0000000013
  Total charge density on r-space grids:       -0.0000000011
  Total charge density g-space grids:          -0.0000000011

  Overlap energy of the core charge distribution:               0.00000716760736
  Self energy of the core charge distribution:                -38.70122451907286
  Core Hamiltonian energy:                                     12.67276458701562
  Hartree energy:                                              15.54838052414911
  Exchange-correlation energy:                                 -5.62133388617905

  Total energy:                                               -16.10140612647981

  outer SCF iter =    1 RMS gradient =   0.31E-04 energy =        -16.1014061265
  outer SCF loop converged in   1 iterations or    7 steps


 ENERGY| Total FORCE_EVAL ( QS ) energy [a.u.]:              -16.101406133151709

 STRESS| Analytical stress tensor [GPa]
 STRESS|                        x                   y                   z
 STRESS|      x       -7.97174668261E-04  -2.34264390769E-02  -1.09338496775E-02
 STRESS|      y       -2.34264390769E-02  -3.03970594173E-02   6.15503806466E-03
 STRESS|      z       -1.09338496775E-02   6.15503806466E-03   7.78544408871E-02
 STRESS| 1/3 Trace                                             1.55534022672E-02
 STRESS| Determinant                                          -3.40225566727E-05

 STRESS| Eigenvectors and eigenvalues of the analytical stress tensor [GPa]
 STRESS|                        1                   2                   3
 STRESS| Eigenvalues  -4.33070859063E-02   9.79960645961E-03   8.01676862482E-02
 STRESS|      x           0.482456547192      0.861486801427     -0.158354573781
 STRESS|      y           0.875919379931     -0.474308550466      0.088298577652
 STRESS|      z          -0.000959130883      0.181306066972      0.983426250487

 Number of electrons:                                                         14
 Number of occupied orbitals:                                                  7
 Number of molecular orbitals:                                                 7

 Number of orbital functions:                                                 14
 Number of independent orbital functions:                                     14

 Extrapolation method: ASPC


 SCF WAVEFUNCTION OPTIMIZATION

  ----------------------------------- OT ---------------------------------------
  Minimizer      : CG                  : conjugate gradient
  Preconditioner : FULL_ALL            : diagonalization, state selective
  Precond_solver : DEFAULT
  Line search    : 2PNT                : 2 energies, one gradient
  stepsize       :    0.15000000                  energy_gap     :    0.08000000
  eps_taylor     :   0.10000E-15                  max_taylor     :             4
  ----------------------------------- OT ---------------------------------------

  Step     Update method      Time    Convergence         Total energy    Change
  ------------------------------------------------------------------------------
     1 OT CG       0.15E+00    0.3     0.00899006       -16.1005767536 -1.61E+01
     2 OT LS       0.20E+00    0.3                      -16.1013198261
     3 OT CG       0.20E+00    0.5     0.00207494       -16.1013698936 -7.93E-04
     4 OT LS       0.15E+00    0.3                      -16.1013991905
     5 OT CG       0.15E+00    0.5     0.00037737       -16.1014022309 -3.23E-05
     6 OT LS       0.20E+00    0.3                      -16.1014035701
     7 OT CG       0.20E+00    0.5     0.00003194       -16.1014036612 -1.43E-06

  *** SCF run converged in     7 steps ***


  Electronic density on regular grids:        -13.9999999998        0.0000000002
  Core density on regular grids:               13.9999999987       -0.0000000013
  Total charge density on r-space grids:       -0.0000000011
  Total charge density g-space grids:          -0.0000000011

  Overlap energy of the core charge distribution:               0.00000716760736
  Self energy of the core charge distribution:                -38.70122451907286
  Core Hamiltonian energy:                                     12.67275820995040
  Hartree energy:                                              15.54837205500521
  Exchange-correlation energy:                                 -5.62131657473825

  Total energy:                                               -16.10140366124813

  outer SCF iter =    1 RMS gradient =   0.32E-04 energy =        -16.1014036612
  outer SCF loop converged in   1 iterations or    7 steps


 ENERGY| Total FORCE_EVAL ( QS ) energy [a.u.]:              -16.101403668216527

 STRESS| Analytical stress tensor [GPa]
 STRESS|                        x                   y                   z
 STRESS|      x       -8.11861140033E-04  -2.34414194072E-02  -1.09646549213E-02
 STRESS|      y       -2.34414194072E-02  -3.04599931127E-02   6.14025684820E-03
 STRESS|      z       -1.09646549213E-02   6.14025684820E-03   7.78338326479E-02
 STRESS| 1/3 Trace                                             1.55206594651E-02
 STRESS| Determinant                                          -3.39958815326E-05

 STRESS| Eigenvectors and eigenvalues of the analytical stress tensor [GPa]
 STRESS|                        1                   2                   3
 STRESS| Eigenvalues  -4.33714052224E-02   9.77902792472E-03   8.01543556928E-02
 STRESS|      x           0.482302784221      0.861506864172     -0.158713412530
 STRESS|      y           0.876004261117     -0.474165976191      0.088222228082
 STRESS|      z          -0.000747554878      0.181583451906      0.983375254496

 Number of electrons:                                                         14
 Number of occupied orbitals:                                                  7
 Number of molecular orbitals:                                                 7

 Number of orbital functions:                                                 14
 Number of independent orbital functions:                                     14

 Extrapolation method: ASPC


 SCF WAVEFUNCTION OPTIMIZATION

  ----------------------------------- OT ---------------------------------------
  Minimizer      : CG                  : conjugate gradient
  Preconditioner : FULL_ALL            : diagonalization, state selective
  Precond_solver : DEFAULT
  Line search    : 2PNT                : 2 energies, one gradient
  stepsize       :    0.15000000                  energy_gap     :    0.08000000
  eps_taylor     :   0.10000E-15                  max_taylor     :             4
  ----------------------------------- OT ---------------------------------------

  Step     Update method      Time    Convergence         Total energy    Change
  ------------------------------------------------------------------------------
     1 OT CG       0.15E+00    0.3     0.00865731       -16.1012945687 -1.61E+01
     2 OT LS       0.20E+00    0.3                      -16.1019893004
     3 OT CG       0.20E+00    0.5     0.00191093       -16.1020397843 -7.45E-04
     4 OT LS       0.15E+00    0.3                      -16.1020637084
     5 OT CG       0.15E+00    0.5     0.00036317       -16.1020668488 -2.71E-05
     6 OT LS       0.20E+00    0.3                      -16.1020680797
     7 OT CG       0.20E+00    0.5     0.00003470       -16.1020681674 -1.32E-06

  *** SCF run converged in     7 steps ***


  Electronic density on regular grids:        -13.9999999998        0.0000000002
  Core density on regular grids:               13.9999999987       -0.0000000013
  Total charge density on r-space grids:       -0.0000000011
  Total charge density g-space grids:          -0.0000000011

  Overlap energy of the core charge distribution:               0.00000892174298
  Self energy of the core charge distribution:                -38.70122451907286
  Core Hamiltonian energy:                                     12.69459185100236
  Hartree energy:                                              15.53252981739704
  Exchange-correlation energy:                                 -5.62797423842017

  Total energy:                                               -16.10206816735064

  outer SCF iter =    1 RMS gradient =   0.35E-04 energy =        -16.1020681674
  outer SCF loop converged in   1 iterations or    7 steps


 ENERGY| Total FORCE_EVAL ( QS ) energy [a.u.]:              -16.102068175710095

 STRESS| Analytical stress tensor [GPa]
 STRESS|                        x                   y                   z
 STRESS|      x        3.77380106528E-02   1.05943596637E-03  -1.51553367270E-02
 STRESS|      y        1.05943596637E-03  -1.37027574942E-02   1.03094880606E-02
 STRESS|      z       -1.51553367270E-02   1.03094880606E-02   1.24543621795E-01
 STRESS| 1/3 Trace                                             4.95262916510E-02
 STRESS| Determinant                                          -6.57378976347E-05

 STRESS| Eigenvectors and eigenvalues of the analytical stress tensor [GPa]
 STRESS|                        1                   2                   3
 STRESS| Eigenvalues  -1.45608876777E-02   3.53210403841E-02   1.27818722247E-01
 STRESS|      x          -0.042921870389      0.985410648306     -0.164692341192
 STRESS|      y           0.995990289994      0.055154781164      0.070436441940
 STRESS|      z          -0.078492389954      0.161008708832      0.983826783738

 Number of electrons:                                                         14
 Number of occupied orbitals:                                                  7
 Number of molecular orbitals:                                                 7

 Number of orbital functions:                                                 14
 Number of independent orbital functions:                                     14

 Extrapolation method: ASPC


 SCF WAVEFUNCTION OPTIMIZATION

  ----------------------------------- OT ---------------------------------------
  Minimizer      : CG                  : conjugate gradient
  Preconditioner : FULL_ALL            : diagonalization, state selective
  Precond_solver : DEFAULT
  Line search    : 2PNT                : 2 energies, one gradient
  stepsize       :    0.15000000                  energy_gap     :    0.08000000
  eps_taylor     :   0.10000E-15                  max_taylor     :             4
  ----------------------------------- OT ---------------------------------------

  Step     Update method      Time    Convergence         Total energy    Change
  ------------------------------------------------------------------------------
     1 OT CG       0.15E+00    0.3     0.00844315       -16.1013340335 -1.61E+01
     2 OT LS       0.20E+00    0.3                      -16.1019970618
     3 OT CG       0.20E+00    0.5     0.00161651       -16.1020477757 -7.14E-04
     4 OT LS       0.16E+00    0.3                      -16.1020661660
     5 OT CG       0.16E+00    0.5     0.00036084       -16.1020679551 -2.02E-05
     6 OT LS       0.19E+00    0.3                      -16.1020691525
     7 OT CG       0.19E+00    0.5     0.00003461       -16.1020691987 -1.24E-06

  *** SCF run converged in     7 steps ***


  Electronic density on regular grids:        -13.9999999998        0.0000000002
  Core density on regular grids:               13.9999999987       -0.0000000013
  Total charge density on r-space grids:       -0.0000000011
  Total charge density g-space grids:          -0.0000000011

  Overlap energy of the core charge distribution:               0.00000892174298
  Self energy of the core charge distribution:                -38.70122451907286
  Core Hamiltonian energy:                                     12.69456653974310
  Hartree energy:                                              15.53253396517594
  Exchange-correlation energy:                                 -5.62795410629722

  Total energy:                                               -16.10206919870806

  outer SCF iter =    1 RMS gradient =   0.35E-04 energy =        -16.1020691987
  outer SCF loop converged in   1 iterations or    7 steps


 ENERGY| Total FORCE_EVAL ( QS ) energy [a.u.]:              -16.102069207139962

 STRESS| Analytical stress tensor [GPa]
 STRESS|                        x                   y                   z
 STRESS|      x        3.77198641381E-02   1.05832745899E-03  -1.51871481771E-02
 STRESS|      y        1.05832745899E-03  -1.37110529092E-02   1.02935530175E-02
 STRESS|      z       -1.51871481771E-02   1.02935530175E-02   1.24529745676E-01
 STRESS| 1/3 Trace                                             4.95128523018E-02
 STRESS| Determinant                                          -6.57087977816E-05

 STRESS| Eigenvectors and eigenvalues of the analytical stress tensor [GPa]
 STRESS|                        1                   2                   3
 STRESS| Eigenvalues  -1.45668650561E-02   3.52925266560E-02   1.27812895305E-01
 STRESS|      x          -0.042930072288      0.985356843256     -0.165011818795
 STRESS|      y           0.995997685203      0.055169751478      0.070320051136
 STRESS|      z          -0.078394004639      0.161332544672      0.983781576401

 Number of electrons:                                                         14
 Number of occupied orbitals:                                                  7
 Number of molecular orbitals:                                                 7

 Number of orbital functions:                                                 14
 Number of independent orbital functions:                                     14

 Extrapolation method: ASPC


 SCF WAVEFUNCTION OPTIMIZATION

  ----------------------------------- OT ---------------------------------------
  Minimizer      : CG                  : conjugate gradient
  Preconditioner : FULL_ALL            : diagonalization, state selective
  Precond_solver : DEFAULT
  Line search    : 2PNT                : 2 energies, one gradient
  stepsize       :    0.15000000                  energy_gap     :    0.08000000
  eps_taylor     :   0.10000E-15                  max_taylor     :             4
  ----------------------------------- OT ---------------------------------------

  Step     Update method      Time    Convergence         Total energy    Change
  ------------------------------------------------------------------------------
     1 OT CG       0.15E+00    0.3     0.00810941       -16.1021655915 -1.61E+01
     2 OT LS       0.21E+00    0.3                      -16.1027814233
     3 OT CG       0.21E+00    0.5     0.00142142       -16.1028307532 -6.65E-04
     4 OT LS       0.16E+00    0.3                      -16.1028449308
     5 OT CG       0.16E+00    0.5     0.00034158       -16.1028463833 -1.56E-05
     6 OT LS       0.19E+00    0.3                      -16.1028474428
     7 OT CG       0.19E+00    0.5     0.00003589       -16.1028474744 -1.09E-06

  *** SCF run converged in     7 steps ***


  Electronic density on regular grids:        -13.9999999998        0.0000000002
  Core density on regular grids:               13.9999999987       -0.0000000013
  Total charge density on r-space grids:       -0.0000000011
  Total charge density g-space grids:          -0.0000000011

  Overlap energy of the core charge distribution:               0.00001131093323
  Self energy of the core charge distribution:                -38.70122451907286
  Core Hamiltonian energy:                                     12.71097064601608
  Hartree energy:                                              15.52012563156633
  Exchange-correlation energy:                                 -5.63273054379997

  Total energy:                                               -16.10284747435720

  outer SCF iter =    1 RMS gradient =   0.36E-04 energy =        -16.1028474744
  outer SCF loop converged in   1 iterations or    7 steps


 ENERGY| Total FORCE_EVAL ( QS ) energy [a.u.]:              -16.102847483667780

 STRESS| Analytical stress tensor [GPa]
 STRESS|                        x                   y                   z
 STRESS|      x        6.43035560786E-02   2.08524244957E-02  -1.77164393759E-02
 STRESS|      y        2.08524244957E-02  -1.42910128516E-03   1.34507772033E-02
 STRESS|      z       -1.77164393759E-02   1.34507772033E-02   1.55473297497E-01
 STRESS| 1/3 Trace                                             7.27825840969E-02
 STRESS| Determinant                                          -1.03014603755E-04

 STRESS| Eigenvectors and eigenvalues of the analytical stress tensor [GPa]
 STRESS|                        1                   2                   3
 STRESS| Eigenvalues  -9.44607856656E-03   6.84330216299E-02   1.59360809227E-01
 STRESS|      x          -0.294632959434      0.940348433104     -0.170106565344
 STRESS|      y           0.949364418920      0.308351589933      0.060220404132
 STRESS|      z          -0.109080792548      0.143750204675      0.983583885265

 Number of electrons:                                                         14
 Number of occupied orbitals:                                                  7
 Number of molecular orbitals:                                                 7

 Number of orbital functions:                                                 14
 Number of independent orbital functions:                                     14

 Extrapolation method: ASPC


 SCF WAVEFUNCTION OPTIMIZATION

  ----------------------------------- OT ---------------------------------------
  Minimizer      : CG                  : conjugate gradient
  Preconditioner : FULL_ALL            : diagonalization, state selective
  Precond_solver : DEFAULT
  Line search    : 2PNT                : 2 energies, one gradient
  stepsize       :    0.15000000                  energy_gap     :    0.08000000
  eps_taylor     :   0.10000E-15                  max_taylor     :             4
  ----------------------------------- OT ---------------------------------------

  Step     Update method      Time    Convergence         Total energy    Change
  ------------------------------------------------------------------------------
     1 OT CG       0.15E+00    0.3     0.00793585       -16.1022038862 -1.61E+01
     2 OT LS       0.21E+00    0.3                      -16.1027924976
     3 OT CG       0.21E+00    0.5     0.00116273       -16.1028401272 -6.36E-04
     4 OT LS       0.17E+00    0.3                      -16.1028513803
     5 OT CG       0.17E+00    0.5     0.00031321       -16.1028517458 -1.16E-05
     6 OT LS       0.18E+00    0.3                      -16.1028525877
     7 OT CG       0.18E+00    0.5     0.00003454       -16.1028525877 -8.42E-07

  *** SCF run converged in     7 steps ***


  Electronic density on regular grids:        -13.9999999997        0.0000000003
  Core density on regular grids:               13.9999999987       -0.0000000013
  Total charge density on r-space grids:       -0.0000000010
  Total charge density g-space grids:          -0.0000000010

  Overlap energy of the core charge distribution:               0.00001131093323
  Self energy of the core charge distribution:                -38.70122451907286
  Core Hamiltonian energy:                                     12.71088750664376
  Hartree energy:                                              15.52017641944274
  Exchange-correlation energy:                                 -5.63270330566983

  Total energy:                                               -16.10285258772296

  outer SCF iter =    1 RMS gradient =   0.35E-04 energy =        -16.1028525877
  outer SCF loop converged in   1 iterations or    7 steps


 ENERGY| Total FORCE_EVAL ( QS ) energy [a.u.]:              -16.102852596450120

 STRESS| Analytical stress tensor [GPa]
 STRESS|                        x                   y                   z
 STRESS|      x        6.43112249112E-02   2.08470467756E-02  -1.77511175403E-02
 STRESS|      y        2.08470467756E-02  -1.38138927911E-03   1.34300242023E-02
 STRESS|      z       -1.77511175403E-02   1.34300242023E-02   1.55472029834E-01
 STRESS| 1/3 Trace                                             7.28006218222E-02
 STRESS| Determinant                                          -1.02484035436E-04

 STRESS| Eigenvectors and eigenvalues of the analytical stress tensor [GPa]
 STRESS|                        1                   2                   3
 STRESS| Eigenvalues  -9.39734935662E-03   6.84299647841E-02   1.59369250039E-01
 STRESS|      x          -0.294764766174      0.940237285255     -0.170492170023
 STRESS|      y           0.949325050186      0.308504226717      0.060059064150
 STRESS|      z          -0.109067326505      0.144149191862      0.983526984263

 Number of electrons:                                                         14
 Number of occupied orbitals:                                                  7
 Number of molecular orbitals:                                                 7

 Number of orbital functions:                                                 14
 Number of independent orbital functions:                                     14

 Extrapolation method: ASPC


 SCF WAVEFUNCTION OPTIMIZATION

  ----------------------------------- OT ---------------------------------------
  Minimizer      : CG                  : conjugate gradient
  Preconditioner : FULL_ALL            : diagonalization, state selective
  Precond_solver : DEFAULT
  Line search    : 2PNT                : 2 energies, one gradient
  stepsize       :    0.15000000                  energy_gap     :    0.08000000
  eps_taylor     :   0.10000E-15                  max_taylor     :             4
  ----------------------------------- OT ---------------------------------------

  Step     Update method      Time    Convergence         Total energy    Change
  ------------------------------------------------------------------------------
     1 OT CG       0.15E+00    0.3     0.00767375       -16.1028860136 -1.61E+01
     2 OT LS       0.21E+00    0.3                      -16.1034379612
     3 OT CG       0.21E+00    0.5     0.00100044       -16.1034822640 -5.96E-04
     4 OT LS       0.18E+00    0.3                      -16.1034911183
     5 OT CG       0.18E+00    0.5     0.00027202       -16.1034912540 -8.99E-06
     6 OT LS       0.17E+00    0.3                      -16.1034918553
     7 OT CG       0.17E+00    0.5     0.00003354       -16.1034918614 -6.07E-07

  *** SCF run converged in     7 steps ***


  Electronic density on regular grids:        -13.9999999997        0.0000000003
  Core density on regular grids:               13.9999999987       -0.0000000013
  Total charge density on r-space grids:       -0.0000000010
  Total charge density g-space grids:          -0.0000000010

  Overlap energy of the core charge distribution:               0.00001437953736
  Self energy of the core charge distribution:                -38.70122451907286
  Core Hamiltonian energy:                                     12.72191301400026
  Hartree energy:                                              15.51133189118371
  Exchange-correlation energy:                                 -5.63552662702527

  Total energy:                                               -16.10349186137680

  outer SCF iter =    1 RMS gradient =   0.34E-04 energy =        -16.1034918614
  outer SCF loop converged in   1 iterations or    7 steps


 ENERGY| Total FORCE_EVAL ( QS ) energy [a.u.]:              -16.103491869656210

 STRESS| Analytical stress tensor [GPa]
 STRESS|                        x                   y                   z
 STRESS|      x        7.76093470403E-02   3.47059775416E-02  -1.74209133036E-02
 STRESS|      y        3.47059775416E-02   7.32407442647E-03   1.56126907943E-02
 STRESS|      z       -1.74209133036E-02   1.56126907943E-02   1.70239168117E-01
 STRESS| 1/3 Trace                                             8.50575298612E-02
 STRESS| Determinant                                          -1.48306829042E-04

 STRESS| Eigenvectors and eigenvalues of the analytical stress tensor [GPa]
 STRESS|                        1                   2                   3
 STRESS| Eigenvalues  -9.40752274868E-03   9.06252857194E-02   1.73954826613E-01
 STRESS|      x          -0.388049467938      0.908212312458     -0.156741844871
 STRESS|      y           0.914171818685      0.400902858307      0.059722559584
 STRESS|      z          -0.117079017571      0.120113669919      0.985832242292

 Number of electrons:                                                         14
 Number of occupied orbitals:                                                  7
 Number of molecular orbitals:                                                 7

 Number of orbital functions:                                                 14
 Number of independent orbital functions:                                     14

 Extrapolation method: ASPC


 SCF WAVEFUNCTION OPTIMIZATION

  ----------------------------------- OT ---------------------------------------
  Minimizer      : CG                  : conjugate gradient
  Preconditioner : FULL_ALL            : diagonalization, state selective
  Precond_solver : DEFAULT
  Line search    : 2PNT                : 2 energies, one gradient
  stepsize       :    0.15000000                  energy_gap     :    0.08000000
  eps_taylor     :   0.10000E-15                  max_taylor     :             4
  ----------------------------------- OT ---------------------------------------

  Step     Update method      Time    Convergence         Total energy    Change
  ------------------------------------------------------------------------------
     1 OT CG       0.15E+00    0.5     0.00758829       -16.1029105538 -1.61E+01
     2 OT LS       0.20E+00    0.4                      -16.1034455745
     3 OT CG       0.20E+00    0.9     0.00087762       -16.1034866084 -5.76E-04
     4 OT LS       0.21E+00    0.5                      -16.1034945149
     5 OT CG       0.21E+00    0.8     0.00018650       -16.1034945197 -7.91E-06
     6 OT LS       0.17E+00    0.5                      -16.1034947897
     7 OT CG       0.17E+00    0.9     0.00001910       -16.1034948065 -2.87E-07

  *** SCF run converged in     7 steps ***


  Electronic density on regular grids:        -13.9999999997        0.0000000003
  Core density on regular grids:               13.9999999987       -0.0000000013
  Total charge density on r-space grids:       -0.0000000011
  Total charge density g-space grids:          -0.0000000011

  Overlap energy of the core charge distribution:               0.00001437953736
  Self energy of the core charge distribution:                -38.70122451907286
  Core Hamiltonian energy:                                     12.72174090148504
  Hartree energy:                                              15.51146389520170
  Exchange-correlation energy:                                 -5.63548946362659

  Total energy:                                               -16.10349480647535

  outer SCF iter =    1 RMS gradient =   0.19E-04 energy =        -16.1034948065
  outer SCF loop converged in   1 iterations or    7 steps


 ENERGY| Total FORCE_EVAL ( QS ) energy [a.u.]:              -16.103494808904465

 STRESS| Analytical stress tensor [GPa]
 STRESS|                        x                   y                   z
 STRESS|      x        7.76450961103E-02   3.47049368307E-02  -1.74480332108E-02
 STRESS|      y        3.47049368307E-02   7.35987056245E-03   1.55981496051E-02
 STRESS|      z       -1.74480332108E-02   1.55981496051E-02   1.70275246848E-01
 STRESS| 1/3 Trace                                             8.50934045069E-02
 STRESS| Determinant                                          -1.47802144745E-04

 STRESS| Eigenvectors and eigenvalues of the analytical stress tensor [GPa]
 STRESS|                        1                   2                   3
 STRESS| Eigenvalues  -9.37034311893E-03   9.06529614433E-02   1.73997595196E-01
 STRESS|      x          -0.388075117383      0.908146772019     -0.157057771983
 STRESS|      y           0.914162596320      0.400947266598      0.059565400161
 STRESS|      z          -0.117066010254      0.120460490949      0.985791468498

 Number of electrons:                                                         14
 Number of occupied orbitals:                                                  7
 Number of molecular orbitals:                                                 7

 Number of orbital functions:                                                 14
 Number of independent orbital functions:                                     14

 Extrapolation method: ASPC


 SCF WAVEFUNCTION OPTIMIZATION

  ----------------------------------- OT ---------------------------------------
  Minimizer      : CG                  : conjugate gradient
  Preconditioner : FULL_ALL            : diagonalization, state selective
  Precond_solver : DEFAULT
  Line search    : 2PNT                : 2 energies, one gradient
  stepsize       :    0.15000000                  energy_gap     :    0.08000000
  eps_taylor     :   0.10000E-15                  max_taylor     :             4
  ----------------------------------- OT ---------------------------------------

  Step     Update method      Time    Convergence         Total energy    Change
  ------------------------------------------------------------------------------
     1 OT CG       0.15E+00    0.4     0.00743353       -16.1031924836 -1.61E+01
     2 OT LS       0.20E+00    0.4                      -16.1037051160
     3 OT CG       0.20E+00    0.8     0.00080434       -16.1037419205 -5.49E-04
     4 OT LS       0.21E+00    0.4                      -16.1037485796
     5 OT CG       0.21E+00    0.6     0.00016028       -16.1037485912 -6.67E-06
     6 OT LS       0.17E+00    0.3                      -16.1037487982
     7 OT CG       0.17E+00    0.6     0.00001007       -16.1037488092 -2.18E-07

  *** SCF run converged in     7 steps ***


  Electronic density on regular grids:        -13.9999999997        0.0000000003
  Core density on regular grids:               13.9999999987       -0.0000000013
  Total charge density on r-space grids:       -0.0000000011
  Total charge density g-space grids:          -0.0000000011

  Overlap energy of the core charge distribution:               0.00001802602678
  Self energy of the core charge distribution:                -38.70122451907286
  Core Hamiltonian energy:                                     12.72788696945112
  Hartree energy:                                              15.50605044254305
  Exchange-correlation energy:                                 -5.63647972816931

  Total energy:                                               -16.10374880922123

  outer SCF iter =    1 RMS gradient =   0.10E-04 energy =        -16.1037488092
  outer SCF loop converged in   1 iterations or    7 steps


 ENERGY| Total FORCE_EVAL ( QS ) energy [a.u.]:              -16.103748809997025

 STRESS| Analytical stress tensor [GPa]
 STRESS|                        x                   y                   z
 STRESS|      x        7.85904682085E-02   4.23239185317E-02  -1.44088284177E-02
 STRESS|      y        4.23239185317E-02   1.33888454133E-02   1.64907298961E-02
 STRESS|      z       -1.44088284177E-02   1.64907298961E-02   1.70731638647E-01
 STRESS| 1/3 Trace                                             8.75703174229E-02
 STRESS| Determinant                                          -1.70449361087E-04

 STRESS| Eigenvectors and eigenvalues of the analytical stress tensor [GPa]
 STRESS|                        1                   2                   3
 STRESS| Eigenvalues  -9.91640457756E-03   9.89935259780E-02   1.73633830868E-01
 STRESS|      x          -0.443846047615      0.888203110267     -0.118726243643
 STRESS|      y           0.888496575055      0.453425164717      0.070565261401
 STRESS|      z          -0.116509751233      0.074167748474      0.990416388674

 Number of electrons:                                                         14
 Number of occupied orbitals:                                                  7
 Number of molecular orbitals:                                                 7

 Number of orbital functions:                                                 14
 Number of independent orbital functions:                                     14

 Extrapolation method: ASPC


 SCF WAVEFUNCTION OPTIMIZATION

  ----------------------------------- OT ---------------------------------------
  Minimizer      : CG                  : conjugate gradient
  Preconditioner : FULL_ALL            : diagonalization, state selective
  Precond_solver : DEFAULT
  Line search    : 2PNT                : 2 energies, one gradient
  stepsize       :    0.15000000                  energy_gap     :    0.08000000
  eps_taylor     :   0.10000E-15                  max_taylor     :             4
  ----------------------------------- OT ---------------------------------------

  Step     Update method      Time    Convergence         Total energy    Change
  ------------------------------------------------------------------------------
     1 OT CG       0.15E+00    0.3     0.00743791       -16.1031981333 -1.61E+01
     2 OT LS       0.20E+00    0.3                      -16.1037043795
     3 OT CG       0.20E+00    0.6     0.00082858       -16.1037376272 -5.39E-04
     4 OT LS       0.20E+00    0.3                      -16.1037443874
     5 OT CG       0.20E+00    0.6     0.00022338       -16.1037443878 -6.76E-06
     6 OT LS       0.16E+00    0.3                      -16.1037447577
     7 OT CG       0.16E+00    0.5     0.00002923       -16.1037447813 -3.94E-07

  *** SCF run converged in     7 steps ***


  Electronic density on regular grids:        -13.9999999998        0.0000000002
  Core density on regular grids:               13.9999999987       -0.0000000013
  Total charge density on r-space grids:       -0.0000000011
  Total charge density g-space grids:          -0.0000000011

  Overlap energy of the core charge distribution:               0.00001802602678
  Self energy of the core charge distribution:                -38.70122451907286
  Core Hamiltonian energy:                                     12.72802179290800
  Hartree energy:                                              15.50593564329287
  Exchange-correlation energy:                                 -5.63649572447958

  Total energy:                                               -16.10374478132480

  outer SCF iter =    1 RMS gradient =   0.29E-04 energy =        -16.1037447813
  outer SCF loop converged in   1 iterations or    7 steps


 ENERGY| Total FORCE_EVAL ( QS ) energy [a.u.]:              -16.103744787622144

 STRESS| Analytical stress tensor [GPa]
 STRESS|                        x                   y                   z
 STRESS|      x        7.85413528529E-02   4.22816676038E-02  -1.44181302304E-02
 STRESS|      y        4.22816676038E-02   1.32990032356E-02   1.64884375034E-02
 STRESS|      z       -1.44181302304E-02   1.64884375034E-02   1.70708349461E-01
 STRESS| 1/3 Trace                                             8.75162351832E-02
 STRESS| Determinant                                          -1.71094471604E-04

 STRESS| Eigenvectors and eigenvalues of the analytical stress tensor [GPa]
 STRESS|                        1                   2                   3
 STRESS| Eigenvalues  -9.96449870843E-03   9.89007818277E-02   1.73612422430E-01
 STRESS|      x          -0.443516351706      0.888352888595     -0.118837666984
 STRESS|      y           0.888663231880      0.453105211514      0.070521823594
 STRESS|      z          -0.116494231933      0.074329083295      0.990406119379

 Number of electrons:                                                         14
 Number of occupied orbitals:                                                  7
 Number of molecular orbitals:                                                 7

 Number of orbital functions:                                                 14
 Number of independent orbital functions:                                     14

 Extrapolation method: ASPC


 SCF WAVEFUNCTION OPTIMIZATION

  ----------------------------------- OT ---------------------------------------
  Minimizer      : CG                  : conjugate gradient
  Preconditioner : FULL_ALL            : diagonalization, state selective
  Precond_solver : DEFAULT
  Line search    : 2PNT                : 2 energies, one gradient
  stepsize       :    0.15000000                  energy_gap     :    0.08000000
  eps_taylor     :   0.10000E-15                  max_taylor     :             4
  ----------------------------------- OT ---------------------------------------

  Step     Update method      Time    Convergence         Total energy    Change
  ------------------------------------------------------------------------------
     1 OT CG       0.15E+00    0.3     0.00737852       -16.1029880720 -1.61E+01
     2 OT LS       0.20E+00    0.3                      -16.1034847178
     3 OT CG       0.20E+00    0.6     0.00078547       -16.1035143710 -5.26E-04
     4 OT LS       0.19E+00    0.3                      -16.1035201492
     5 OT CG       0.19E+00    0.6     0.00022851       -16.1035201526 -5.78E-06
     6 OT LS       0.16E+00    0.3                      -16.1035205544
     7 OT CG       0.16E+00    0.6     0.00002801       -16.1035205688 -4.16E-07

  *** SCF run converged in     7 steps ***


  Electronic density on regular grids:        -13.9999999998        0.0000000002
  Core density on regular grids:               13.9999999987       -0.0000000013
  Total charge density on r-space grids:       -0.0000000011
  Total charge density g-space grids:          -0.0000000011

  Overlap energy of the core charge distribution:               0.00002192314643
  Self energy of the core charge distribution:                -38.70122451907286
  Core Hamiltonian energy:                                     12.73014911485585
  Hartree energy:                                              15.50350469486645
  Exchange-correlation energy:                                 -5.63597178261404

  Total energy:                                               -16.10352056881816

  outer SCF iter =    1 RMS gradient =   0.28E-04 energy =        -16.1035205688
  outer SCF loop converged in   1 iterations or    7 steps


 ENERGY| Total FORCE_EVAL ( QS ) energy [a.u.]:              -16.103520574764630

 STRESS| Analytical stress tensor [GPa]
 STRESS|                        x                   y                   z
 STRESS|      x        6.96053186771E-02   4.40295284020E-02  -9.98716096106E-03
 STRESS|      y        4.40295284020E-02   1.71638382257E-02   1.55347505820E-02
 STRESS|      z       -9.98716096106E-03   1.55347505820E-02   1.59839009591E-01
 STRESS| 1/3 Trace                                             8.22027221646E-02
 STRESS| Determinant                                          -1.51076945250E-04

 STRESS| Eigenvectors and eigenvalues of the analytical stress tensor [GPa]
 STRESS|                        1                   2                   3
 STRESS| Eigenvalues  -9.86511676852E-03   9.46155460415E-02   1.61857737221E-01
 STRESS|      x          -0.492144574536      0.867984441679     -0.066307818232
 STRESS|      y           0.863783770384      0.496374284630      0.086545754254
 STRESS|      z          -0.108033864026      0.014682593833      0.994038784788

 Number of electrons:                                                         14
 Number of occupied orbitals:                                                  7
 Number of molecular orbitals:                                                 7

 Number of orbital functions:                                                 14
 Number of independent orbital functions:                                     14

 Extrapolation method: ASPC


 SCF WAVEFUNCTION OPTIMIZATION

  ----------------------------------- OT ---------------------------------------
  Minimizer      : CG                  : conjugate gradient
  Preconditioner : FULL_ALL            : diagonalization, state selective
  Precond_solver : DEFAULT
  Line search    : 2PNT                : 2 energies, one gradient
  stepsize       :    0.15000000                  energy_gap     :    0.08000000
  eps_taylor     :   0.10000E-15                  max_taylor     :             4
  ----------------------------------- OT ---------------------------------------

  Step     Update method      Time    Convergence         Total energy    Change
  ------------------------------------------------------------------------------
     1 OT CG       0.15E+00    0.3     0.00744992       -16.1029819855 -1.61E+01
     2 OT LS       0.19E+00    0.3                      -16.1034809630
     3 OT CG       0.19E+00    0.6     0.00084858       -16.1035079808 -5.26E-04
     4 OT LS       0.18E+00    0.4                      -16.1035141988
     5 OT CG       0.18E+00    0.6     0.00026210       -16.1035142498 -6.27E-06
     6 OT LS       0.18E+00    0.4                      -16.1035148389
     7 OT CG       0.18E+00    0.6     0.00002680       -16.1035148390 -5.89E-07

  *** SCF run converged in     7 steps ***


  Electronic density on regular grids:        -13.9999999998        0.0000000002
  Core density on regular grids:               13.9999999987       -0.0000000013
  Total charge density on r-space grids:       -0.0000000011
  Total charge density g-space grids:          -0.0000000011

  Overlap energy of the core charge distribution:               0.00002192314643
  Self energy of the core charge distribution:                -38.70122451907286
  Core Hamiltonian energy:                                     12.73029170436408
  Hartree energy:                                              15.50337726206306
  Exchange-correlation energy:                                 -5.63598120949804

  Total energy:                                               -16.10351483899733

  outer SCF iter =    1 RMS gradient =   0.27E-04 energy =        -16.1035148390
  outer SCF loop converged in   1 iterations or    7 steps


 ENERGY| Total FORCE_EVAL ( QS ) energy [a.u.]:              -16.103514844510251

 STRESS| Analytical stress tensor [GPa]
 STRESS|                        x                   y                   z
 STRESS|      x        6.95266022494E-02   4.39922272289E-02  -1.00011953634E-02
 STRESS|      y        4.39922272289E-02   1.70611417709E-02   1.55214325831E-02
 STRESS|      z       -1.00011953634E-02   1.55214325831E-02   1.59806880625E-01
 STRESS| 1/3 Trace                                             8.21315415483E-02
 STRESS| Determinant                                          -1.51827980608E-04

 STRESS| Eigenvectors and eigenvalues of the analytical stress tensor [GPa]
 STRESS|                        1                   2                   3
 STRESS| Eigenvalues  -9.92848175502E-03   9.44982381819E-02   1.61824868218E-01
 STRESS|      x          -0.491921015871      0.868092499407     -0.066551683807
 STRESS|      y           0.863917099784      0.496175333520      0.086355562108
 STRESS|      z          -0.107985919657      0.015015021822      0.994039028547

 Number of electrons:                                                         14
 Number of occupied orbitals:                                                  7
 Number of molecular orbitals:                                                 7

 Number of orbital functions:                                                 14
 Number of independent orbital functions:                                     14

 Extrapolation method: ASPC


 SCF WAVEFUNCTION OPTIMIZATION

  ----------------------------------- OT ---------------------------------------
  Minimizer      : CG                  : conjugate gradient
  Preconditioner : FULL_ALL            : diagonalization, state selective
  Precond_solver : DEFAULT
  Line search    : 2PNT                : 2 energies, one gradient
  stepsize       :    0.15000000                  energy_gap     :    0.08000000
  eps_taylor     :   0.10000E-15                  max_taylor     :             4
  ----------------------------------- OT ---------------------------------------

  Step     Update method      Time    Convergence         Total energy    Change
  ------------------------------------------------------------------------------
     1 OT CG       0.15E+00    0.3     0.00746065       -16.1024252474 -1.61E+01
     2 OT LS       0.19E+00    0.3                      -16.1029248949
     3 OT CG       0.19E+00    0.6     0.00077562       -16.1029496709 -5.24E-04
     4 OT LS       0.18E+00    0.4                      -16.1029547473
     5 OT CG       0.18E+00    0.6     0.00024410       -16.1029547963 -5.13E-06
     6 OT LS       0.18E+00    0.3                      -16.1029553080
     7 OT CG       0.18E+00    0.5     0.00002304       -16.1029553080 -5.12E-07

  *** SCF run converged in     7 steps ***


  Electronic density on regular grids:        -13.9999999998        0.0000000002
  Core density on regular grids:               13.9999999987       -0.0000000013
  Total charge density on r-space grids:       -0.0000000011
  Total charge density g-space grids:          -0.0000000011

  Overlap energy of the core charge distribution:               0.00002551422115
  Self energy of the core charge distribution:                -38.70122451907286
  Core Hamiltonian energy:                                     12.72975980048278
  Hartree energy:                                              15.50287396478577
  Exchange-correlation energy:                                 -5.63439006842682

  Total energy:                                               -16.10295530800997

  outer SCF iter =    1 RMS gradient =   0.23E-04 energy =        -16.1029553080
  outer SCF loop converged in   1 iterations or    7 steps


 ENERGY| Total FORCE_EVAL ( QS ) energy [a.u.]:              -16.102955312141582

 STRESS| Analytical stress tensor [GPa]
 STRESS|                        x                   y                   z
 STRESS|      x        5.35473819755E-02   4.04320091853E-02  -6.05996548145E-03
 STRESS|      y        4.04320091853E-02   1.86570449408E-02   1.21548711846E-02
 STRESS|      z       -6.05996548145E-03   1.21548711846E-02   1.40479241881E-01
 STRESS| 1/3 Trace                                             7.08945562658E-02
 STRESS| Determinant                                          -1.03856837268E-04

 STRESS| Eigenvectors and eigenvalues of the analytical stress tensor [GPa]
 STRESS|                        1                   2                   3
 STRESS| Eigenvalues  -9.14840205575E-03   8.00954202803E-02   1.41736650573E-01
 STRESS|      x          -0.545892816932      0.837404444102     -0.027474159128
 STRESS|      y           0.833031029490      0.545971626572      0.089298862736
 STRESS|      z          -0.089779375856     -0.025860780665      0.995625875364

 Number of electrons:                                                         14
 Number of occupied orbitals:                                                  7
 Number of molecular orbitals:                                                 7

 Number of orbital functions:                                                 14
 Number of independent orbital functions:                                     14

 Extrapolation method: ASPC


 SCF WAVEFUNCTION OPTIMIZATION

  ----------------------------------- OT ---------------------------------------
  Minimizer      : CG                  : conjugate gradient
  Preconditioner : FULL_ALL            : diagonalization, state selective
  Precond_solver : DEFAULT
  Line search    : 2PNT                : 2 energies, one gradient
  stepsize       :    0.15000000                  energy_gap     :    0.08000000
  eps_taylor     :   0.10000E-15                  max_taylor     :             4
  ----------------------------------- OT ---------------------------------------

  Step     Update method      Time    Convergence         Total energy    Change
  ------------------------------------------------------------------------------
     1 OT CG       0.15E+00    0.3     0.00757599       -16.1024183746 -1.61E+01
     2 OT LS       0.19E+00    0.3                      -16.1029271232
     3 OT CG       0.19E+00    0.6     0.00082569       -16.1029504734 -5.32E-04
     4 OT LS       0.17E+00    0.3                      -16.1029559558
     5 OT CG       0.17E+00    0.6     0.00025485       -16.1029560557 -5.58E-06
     6 OT LS       0.19E+00    0.3                      -16.1029566400
     7 OT CG       0.19E+00    0.6     0.00002080       -16.1029566461 -5.90E-07

  *** SCF run converged in     7 steps ***


  Electronic density on regular grids:        -13.9999999997        0.0000000003
  Core density on regular grids:               13.9999999987       -0.0000000013
  Total charge density on r-space grids:       -0.0000000011
  Total charge density g-space grids:          -0.0000000011

  Overlap energy of the core charge distribution:               0.00002551422115
  Self energy of the core charge distribution:                -38.70122451907286
  Core Hamiltonian energy:                                     12.72984742623552
  Hartree energy:                                              15.50279206287643
  Exchange-correlation energy:                                 -5.63439713036879

  Total energy:                                               -16.10295664610856

  outer SCF iter =    1 RMS gradient =   0.21E-04 energy =        -16.1029566461
  outer SCF loop converged in   1 iterations or    7 steps


 ENERGY| Total FORCE_EVAL ( QS ) energy [a.u.]:              -16.102956649460523

 STRESS| Analytical stress tensor [GPa]
 STRESS|                        x                   y                   z
 STRESS|      x        5.35024196892E-02   4.04205557712E-02  -6.07111002685E-03
 STRESS|      y        4.04205557712E-02   1.86559859476E-02   1.21459125875E-02
 STRESS|      z       -6.07111002685E-03   1.21459125875E-02   1.40459021218E-01
 STRESS| 1/3 Trace                                             7.08724756182E-02
 STRESS| Determinant                                          -1.03828756224E-04

 STRESS| Eigenvectors and eigenvalues of the analytical stress tensor [GPa]
 STRESS|                        1                   2                   3
 STRESS| Eigenvalues  -9.15203738266E-03   8.00538244104E-02   1.41715639827E-01
 STRESS|      x          -0.546050055294      0.837295897081     -0.027657148175
 STRESS|      y           0.832928102242      0.546147435190      0.089183829985
 STRESS|      z          -0.089778135473     -0.025662419352      0.995631119755

 Number of electrons:                                                         14
 Number of occupied orbitals:                                                  7
 Number of molecular orbitals:                                                 7

 Number of orbital functions:                                                 14
 Number of independent orbital functions:                                     14

 Extrapolation method: ASPC


 SCF WAVEFUNCTION OPTIMIZATION

  ----------------------------------- OT ---------------------------------------
  Minimizer      : CG                  : conjugate gradient
  Preconditioner : FULL_ALL            : diagonalization, state selective
  Precond_solver : DEFAULT
  Line search    : 2PNT                : 2 energies, one gradient
  stepsize       :    0.15000000                  energy_gap     :    0.08000000
  eps_taylor     :   0.10000E-15                  max_taylor     :             4
  ----------------------------------- OT ---------------------------------------

  Step     Update method      Time    Convergence         Total energy    Change
  ------------------------------------------------------------------------------
     1 OT CG       0.15E+00    0.3     0.00763311       -16.1018583799 -1.61E+01
     2 OT LS       0.19E+00    0.4                      -16.1023755695
     3 OT CG       0.19E+00    0.6     0.00070953       -16.1023979763 -5.40E-04
     4 OT LS       0.17E+00    0.3                      -16.1024021710
     5 OT CG       0.17E+00    0.6     0.00023100       -16.1024022077 -4.23E-06
     6 OT LS       0.18E+00    0.3                      -16.1024026710
     7 OT CG       0.18E+00    0.6     0.00001685       -16.1024026712 -4.64E-07

  *** SCF run converged in     7 steps ***


  Electronic density on regular grids:        -13.9999999997        0.0000000003
  Core density on regular grids:               13.9999999987       -0.0000000013
  Total charge density on r-space grids:       -0.0000000010
  Total charge density g-space grids:          -0.0000000010

  Overlap energy of the core charge distribution:               0.00002813069123
  Self energy of the core charge distribution:                -38.70122451907286
  Core Hamiltonian energy:                                     12.72750065831111
  Hartree energy:                                              15.50341864174413
  Exchange-correlation energy:                                 -5.63212558290901

  Total energy:                                               -16.10240267123539

  outer SCF iter =    1 RMS gradient =   0.17E-04 energy =        -16.1024026712
  outer SCF loop converged in   1 iterations or    7 steps


 ENERGY| Total FORCE_EVAL ( QS ) energy [a.u.]:              -16.102402673508706

 STRESS| Analytical stress tensor [GPa]
 STRESS|                        x                   y                   z
 STRESS|      x        3.32018529541E-02   3.23148934203E-02  -4.20228574206E-03
 STRESS|      y        3.23148934203E-02   1.76156220009E-02   6.19902039815E-03
 STRESS|      z       -4.20228574206E-03   6.19902039815E-03   1.15139798645E-01
 STRESS| 1/3 Trace                                             5.53190912000E-02
 STRESS| Determinant                                          -5.61636044154E-05

 STRESS| Eigenvectors and eigenvalues of the analytical stress tensor [GPa]
 STRESS|                        1                   2                   3
 STRESS| Eigenvalues  -8.28470770314E-03   5.86450815670E-02   1.15596899736E-01
 STRESS|      x          -0.617183155779      0.786246508175     -0.030023001262
 STRESS|      y           0.784496641720      0.617842815820      0.053247291666
 STRESS|      z          -0.060414992781     -0.009310387842      0.998129924071

 Number of electrons:                                                         14
 Number of occupied orbitals:                                                  7
 Number of molecular orbitals:                                                 7

 Number of orbital functions:                                                 14
 Number of independent orbital functions:                                     14

 Extrapolation method: ASPC


 SCF WAVEFUNCTION OPTIMIZATION

  ----------------------------------- OT ---------------------------------------
  Minimizer      : CG                  : conjugate gradient
  Preconditioner : FULL_ALL            : diagonalization, state selective
  Precond_solver : DEFAULT
  Line search    : 2PNT                : 2 energies, one gradient
  stepsize       :    0.15000000                  energy_gap     :    0.08000000
  eps_taylor     :   0.10000E-15                  max_taylor     :             4
  ----------------------------------- OT ---------------------------------------

  Step     Update method      Time    Convergence         Total energy    Change
  ------------------------------------------------------------------------------
     1 OT CG       0.15E+00    0.3     0.00778088       -16.1018500591 -1.61E+01
     2 OT LS       0.19E+00    0.3                      -16.1023822311
     3 OT CG       0.19E+00    0.6     0.00073962       -16.1024042490 -5.54E-04
     4 OT LS       0.17E+00    0.3                      -16.1024087523
     5 OT CG       0.17E+00    0.5     0.00024038       -16.1024087991 -4.55E-06
     6 OT LS       0.18E+00    0.3                      -16.1024093121
     7 OT CG       0.18E+00    0.5     0.00001433       -16.1024093147 -5.16E-07

  *** SCF run converged in     7 steps ***


  Electronic density on regular grids:        -13.9999999998        0.0000000002
  Core density on regular grids:               13.9999999987       -0.0000000013
  Total charge density on r-space grids:       -0.0000000011
  Total charge density g-space grids:          -0.0000000011

  Overlap energy of the core charge distribution:               0.00002813069123
  Self energy of the core charge distribution:                -38.70122451907286
  Core Hamiltonian energy:                                     12.72755407845332
  Hartree energy:                                              15.50336770749851
  Exchange-correlation energy:                                 -5.63213471222217

  Total energy:                                               -16.10240931465197

  outer SCF iter =    1 RMS gradient =   0.14E-04 energy =        -16.1024093147
  outer SCF loop converged in   1 iterations or    7 steps


 ENERGY| Total FORCE_EVAL ( QS ) energy [a.u.]:              -16.102409316325968

 STRESS| Analytical stress tensor [GPa]
 STRESS|                        x                   y                   z
 STRESS|      x        3.31927225683E-02   3.23038707867E-02  -4.21499271981E-03
 STRESS|      y        3.23038707867E-02   1.76742776771E-02   6.19388819282E-03
 STRESS|      z       -4.21499271981E-03   6.19388819282E-03   1.15134134672E-01
 STRESS| 1/3 Trace                                             5.53337116390E-02
 STRESS| Determinant                                          -5.58769359861E-05

 STRESS| Eigenvectors and eigenvalues of the analytical stress tensor [GPa]
 STRESS|                        1                   2                   3
 STRESS| Eigenvalues  -8.24190960237E-03   5.86513756262E-02   1.15591668893E-01
 STRESS|      x          -0.617546005109      0.785954276887     -0.030212683032
 STRESS|      y           0.784206995402      0.618217029182      0.053170416517
 STRESS|      z          -0.060467511413     -0.009142180927      0.998128298663

 Number of electrons:                                                         14
 Number of occupied orbitals:                                                  7
 Number of molecular orbitals:                                                 7

 Number of orbital functions:                                                 14
 Number of independent orbital functions:                                     14

 Extrapolation method: ASPC


 SCF WAVEFUNCTION OPTIMIZATION

  ----------------------------------- OT ---------------------------------------
  Minimizer      : CG                  : conjugate gradient
  Preconditioner : FULL_ALL            : diagonalization, state selective
  Precond_solver : DEFAULT
  Line search    : 2PNT                : 2 energies, one gradient
  stepsize       :    0.15000000                  energy_gap     :    0.08000000
  eps_taylor     :   0.10000E-15                  max_taylor     :             4
  ----------------------------------- OT ---------------------------------------

  Step     Update method      Time    Convergence         Total energy    Change
  ------------------------------------------------------------------------------
     1 OT CG       0.15E+00    0.3     0.00788058       -16.1016891500 -1.61E+01
     2 OT LS       0.19E+00    0.3                      -16.1022369546
     3 OT CG       0.19E+00    0.6     0.00060799       -16.1022589434 -5.70E-04
     4 OT LS       0.19E+00    0.3                      -16.1022623964
     5 OT CG       0.19E+00    0.6     0.00020472       -16.1022623989 -3.46E-06
     6 OT LS       0.16E+00    0.3                      -16.1022627125
     7 OT CG       0.16E+00    0.6     0.00001263       -16.1022627266 -3.28E-07

  *** SCF run converged in     7 steps ***


  Electronic density on regular grids:        -13.9999999997        0.0000000003
  Core density on regular grids:               13.9999999987       -0.0000000013
  Total charge density on r-space grids:       -0.0000000011
  Total charge density g-space grids:          -0.0000000011

  Overlap energy of the core charge distribution:               0.00002920288934
  Self energy of the core charge distribution:                -38.70122451907286
  Core Hamiltonian energy:                                     12.72409651329006
  Hartree energy:                                              15.50437904252135
  Exchange-correlation energy:                                 -5.62954296624277

  Total energy:                                               -16.10226272661488

  outer SCF iter =    1 RMS gradient =   0.13E-04 energy =        -16.1022627266
  outer SCF loop converged in   1 iterations or    7 steps


 ENERGY| Total FORCE_EVAL ( QS ) energy [a.u.]:              -16.102262727970452

 STRESS| Analytical stress tensor [GPa]
 STRESS|                        x                   y                   z
 STRESS|      x        1.08845164014E-02   2.05885569230E-02  -5.10366241448E-03
 STRESS|      y        2.05885569230E-02   1.36855171988E-02  -1.83856660388E-03
 STRESS|      z       -5.10366241448E-03  -1.83856660388E-03   8.58192860844E-02
 STRESS| 1/3 Trace                                             3.67964398949E-02
 STRESS| Determinant                                          -2.36010450932E-05

 STRESS| Eigenvectors and eigenvalues of the analytical stress tensor [GPa]
 STRESS|                        1                   2                   3
 STRESS| Eigenvalues  -8.41646591193E-03   3.24853850661E-02   8.63204005304E-02
 STRESS|      x           0.732554215620      0.675936679945     -0.080460710175
 STRESS|      y          -0.680196437492      0.731456114484     -0.048007905673
 STRESS|      z           0.026403174062      0.089897482103      0.995600981875

 Number of electrons:                                                         14
 Number of occupied orbitals:                                                  7
 Number of molecular orbitals:                                                 7

 Number of orbital functions:                                                 14
 Number of independent orbital functions:                                     14

 Extrapolation method: ASPC


 SCF WAVEFUNCTION OPTIMIZATION

  ----------------------------------- OT ---------------------------------------
  Minimizer      : CG                  : conjugate gradient
  Preconditioner : FULL_ALL            : diagonalization, state selective
  Precond_solver : DEFAULT
  Line search    : 2PNT                : 2 energies, one gradient
  stepsize       :    0.15000000                  energy_gap     :    0.08000000
  eps_taylor     :   0.10000E-15                  max_taylor     :             4
  ----------------------------------- OT ---------------------------------------

  Step     Update method      Time    Convergence         Total energy    Change
  ------------------------------------------------------------------------------
     1 OT CG       0.15E+00    0.4     0.00805711       -16.1016717069 -1.61E+01
     2 OT LS       0.19E+00    0.4                      -16.1022399855
     3 OT CG       0.19E+00    0.7     0.00063373       -16.1022622167 -5.91E-04
     4 OT LS       0.19E+00    0.4                      -16.1022660405
     5 OT CG       0.19E+00    0.7     0.00021545       -16.1022660488 -3.83E-06
     6 OT LS       0.16E+00    0.4                      -16.1022663892
     7 OT CG       0.16E+00    0.6     0.00001110       -16.1022664083 -3.59E-07

  *** SCF run converged in     7 steps ***


  Electronic density on regular grids:        -13.9999999997        0.0000000003
  Core density on regular grids:               13.9999999987       -0.0000000013
  Total charge density on r-space grids:       -0.0000000011
  Total charge density g-space grids:          -0.0000000011

  Overlap energy of the core charge distribution:               0.00002920288934
  Self energy of the core charge distribution:                -38.70122451907286
  Core Hamiltonian energy:                                     12.72412850013577
  Hartree energy:                                              15.50434980565838
  Exchange-correlation energy:                                 -5.62954939791627

  Total energy:                                               -16.10226640830565

  outer SCF iter =    1 RMS gradient =   0.11E-04 energy =        -16.1022664083
  outer SCF loop converged in   1 iterations or    7 steps


 ENERGY| Total FORCE_EVAL ( QS ) energy [a.u.]:              -16.102266409411541

 STRESS| Analytical stress tensor [GPa]
 STRESS|                        x                   y                   z
 STRESS|      x        1.08850444695E-02   2.05620849247E-02  -5.11745163448E-03
 STRESS|      y        2.05620849247E-02   1.37109870911E-02  -1.84594001691E-03
 STRESS|      z       -5.11745163448E-03  -1.84594001691E-03   8.58152725473E-02
 STRESS| 1/3 Trace                                             3.68037680360E-02
 STRESS| Determinant                                          -2.34828438187E-05

 STRESS| Eigenvectors and eigenvalues of the analytical stress tensor [GPa]
 STRESS|                        1                   2                   3
 STRESS| Eigenvalues  -8.37829480680E-03   3.24704014334E-02   8.63191974813E-02
 STRESS|      x           0.732802884728      0.675642585185     -0.080666159070
 STRESS|      y          -0.679925236776      0.731698557506     -0.048154889038
 STRESS|      z           0.026487818513      0.090134998906      0.995577258400

 Number of electrons:                                                         14
 Number of occupied orbitals:                                                  7
 Number of molecular orbitals:                                                 7

 Number of orbital functions:                                                 14
 Number of independent orbital functions:                                     14

 Extrapolation method: ASPC


 SCF WAVEFUNCTION OPTIMIZATION

  ----------------------------------- OT ---------------------------------------
  Minimizer      : CG                  : conjugate gradient
  Preconditioner : FULL_ALL            : diagonalization, state selective
  Precond_solver : DEFAULT
  Line search    : 2PNT                : 2 energies, one gradient
  stepsize       :    0.15000000                  energy_gap     :    0.08000000
  eps_taylor     :   0.10000E-15                  max_taylor     :             4
  ----------------------------------- OT ---------------------------------------

  Step     Update method      Time    Convergence         Total energy    Change
  ------------------------------------------------------------------------------
     1 OT CG       0.15E+00    0.3     0.00819673       -16.1022044145 -1.61E+01
     2 OT LS       0.19E+00    0.3                      -16.1027947473
     3 OT CG       0.19E+00    0.5     0.00055911       -16.1028174265 -6.13E-04
     4 OT LS       0.24E+00    0.3                      -16.1028208582
     5 OT CG       0.24E+00    0.5     0.00008898       -16.1028210199 -3.59E-06

  *** SCF run converged in     5 steps ***


  Electronic density on regular grids:        -13.9999999998        0.0000000002
  Core density on regular grids:               13.9999999987       -0.0000000013
  Total charge density on r-space grids:       -0.0000000011
  Total charge density g-space grids:          -0.0000000011

  Overlap energy of the core charge distribution:               0.00002847104689
  Self energy of the core charge distribution:                -38.70122451907286
  Core Hamiltonian energy:                                     12.72062332065439
  Hartree energy:                                              15.50479537027003
  Exchange-correlation energy:                                 -5.62704366280860

  Total energy:                                               -16.10282101991015

  outer SCF iter =    1 RMS gradient =   0.89E-04 energy =        -16.1028210199
  outer SCF loop converged in   1 iterations or    5 steps


 ENERGY| Total FORCE_EVAL ( QS ) energy [a.u.]:              -16.102821046602124

 STRESS| Analytical stress tensor [GPa]
 STRESS|                        x                   y                   z
 STRESS|      x       -1.14560830266E-02   6.39691942272E-03  -8.41445342603E-03
 STRESS|      y        6.39691942272E-03   6.82972190186E-03  -1.08175518938E-02
 STRESS|      z       -8.41445342603E-03  -1.08175518938E-02   5.42872246753E-02
 STRESS| 1/3 Trace                                             1.65536211835E-02
 STRESS| Determinant                                          -4.44743514248E-06

 STRESS| Eigenvectors and eigenvalues of the analytical stress tensor [GPa]
 STRESS|                        1                   2                   3
 STRESS| Eigenvalues  -1.38462823031E-02   5.54119561452E-03   5.79659502392E-02
 STRESS|      x           0.963213391830      0.230943845202     -0.137422349571
 STRESS|      y          -0.257129057203      0.940667631114     -0.221425056658
 STRESS|      z           0.078132002025      0.248614859043      0.965446032734

 Number of electrons:                                                         14
 Number of occupied orbitals:                                                  7
 Number of molecular orbitals:                                                 7

 Number of orbital functions:                                                 14
 Number of independent orbital functions:                                     14

 Extrapolation method: ASPC


 SCF WAVEFUNCTION OPTIMIZATION

  ----------------------------------- OT ---------------------------------------
  Minimizer      : CG                  : conjugate gradient
  Preconditioner : FULL_ALL            : diagonalization, state selective
  Precond_solver : DEFAULT
  Line search    : 2PNT                : 2 energies, one gradient
  stepsize       :    0.15000000                  energy_gap     :    0.08000000
  eps_taylor     :   0.10000E-15                  max_taylor     :             4
  ----------------------------------- OT ---------------------------------------

  Step     Update method      Time    Convergence         Total energy    Change
  ------------------------------------------------------------------------------
     1 OT CG       0.15E+00    0.3     0.00835315       -16.1021810963 -1.61E+01
     2 OT LS       0.18E+00    0.3                      -16.1027902353
     3 OT CG       0.18E+00    0.6     0.00062630       -16.1028131311 -6.32E-04
     4 OT LS       0.23E+00    0.3                      -16.1028173443
     5 OT CG       0.23E+00    0.6     0.00015061       -16.1028174944 -4.36E-06
     6 OT LS       0.14E+00    0.3                      -16.1028175795
     7 OT CG       0.14E+00    0.6     0.00001286       -16.1028176460 -1.52E-07

  *** SCF run converged in     7 steps ***


  Electronic density on regular grids:        -13.9999999998        0.0000000002
  Core density on regular grids:               13.9999999987       -0.0000000013
  Total charge density on r-space grids:       -0.0000000011
  Total charge density g-space grids:          -0.0000000011

  Overlap energy of the core charge distribution:               0.00002847104689
  Self energy of the core charge distribution:                -38.70122451907286
  Core Hamiltonian energy:                                     12.72023221661058
  Hartree energy:                                              15.50511034112698
  Exchange-correlation energy:                                 -5.62696415569023

  Total energy:                                               -16.10281764597864

  outer SCF iter =    1 RMS gradient =   0.13E-04 energy =        -16.1028176460
  outer SCF loop converged in   1 iterations or    7 steps


 ENERGY| Total FORCE_EVAL ( QS ) energy [a.u.]:              -16.102817647407402

 STRESS| Analytical stress tensor [GPa]
 STRESS|                        x                   y                   z
 STRESS|      x       -1.13693567670E-02   6.47700812210E-03  -8.43599715632E-03
 STRESS|      y        6.47700812210E-03   6.83029278646E-03  -1.08203099745E-02
 STRESS|      z       -8.43599715632E-03  -1.08203099745E-02   5.44284017264E-02
 STRESS| 1/3 Trace                                             1.66297792486E-02
 STRESS| Determinant                                          -4.48258114143E-06

 STRESS| Eigenvectors and eigenvalues of the analytical stress tensor [GPa]
 STRESS|                        1                   2                   3
 STRESS| Eigenvalues  -1.38081040350E-02   5.58644865490E-03   5.81109931259E-02
 STRESS|      x           0.962137060729      0.235146520302     -0.137834648624
 STRESS|      y          -0.261312590950      0.939585409170     -0.221122112611
 STRESS|      z           0.077511329383      0.248767708645      0.965456690356

 Number of electrons:                                                         14
 Number of occupied orbitals:                                                  7
 Number of molecular orbitals:                                                 7

 Number of orbital functions:                                                 14
 Number of independent orbital functions:                                     14

 Extrapolation method: ASPC


 SCF WAVEFUNCTION OPTIMIZATION

  ----------------------------------- OT ---------------------------------------
  Minimizer      : CG                  : conjugate gradient
  Preconditioner : FULL_ALL            : diagonalization, state selective
  Precond_solver : DEFAULT
  Line search    : 2PNT                : 2 energies, one gradient
  stepsize       :    0.15000000                  energy_gap     :    0.08000000
  eps_taylor     :   0.10000E-15                  max_taylor     :             4
  ----------------------------------- OT ---------------------------------------

  Step     Update method      Time    Convergence         Total energy    Change
  ------------------------------------------------------------------------------
     1 OT CG       0.15E+00    0.3     0.00850380       -16.1034732011 -1.61E+01
     2 OT LS       0.19E+00    0.3                      -16.1041069345
     3 OT CG       0.19E+00    0.6     0.00063619       -16.1041306158 -6.57E-04
     4 OT LS       0.24E+00    0.3                      -16.1041350698
     5 OT CG       0.24E+00    0.6     0.00008617       -16.1041352888 -4.67E-06

  *** SCF run converged in     5 steps ***


  Electronic density on regular grids:        -13.9999999998        0.0000000002
  Core density on regular grids:               13.9999999987       -0.0000000013
  Total charge density on r-space grids:       -0.0000000011
  Total charge density g-space grids:          -0.0000000011

  Overlap energy of the core charge distribution:               0.00002609219561
  Self energy of the core charge distribution:                -38.70122451907286
  Core Hamiltonian energy:                                     12.71614004705936
  Hartree energy:                                              15.50551791151957
  Exchange-correlation energy:                                 -5.62459482045200

  Total energy:                                               -16.10413528875032

  outer SCF iter =    1 RMS gradient =   0.86E-04 energy =        -16.1041352888
  outer SCF loop converged in   1 iterations or    5 steps


 ENERGY| Total FORCE_EVAL ( QS ) energy [a.u.]:              -16.104135314240896

 STRESS| Analytical stress tensor [GPa]
 STRESS|                        x                   y                   z
 STRESS|      x       -3.13697460668E-02  -8.26251807087E-03  -1.31571804976E-02
 STRESS|      y       -8.26251807087E-03  -2.09101799679E-03  -1.92376905911E-02
 STRESS|      z       -1.31571804976E-02  -1.92376905911E-02   2.34232449333E-02
 STRESS| 1/3 Trace                                            -3.34583971010E-03
 STRESS| Determinant                                           7.72620916926E-06

 STRESS| Eigenvectors and eigenvalues of the analytical stress tensor [GPa]
 STRESS|                        1                   2                   3
 STRESS| Eigenvalues  -3.90316223259E-02  -5.70472879303E-03   3.46988319886E-02
 STRESS|      x           0.887866159270     -0.443481245811     -0.122548226575
 STRESS|      y           0.352550066924      0.826889418913     -0.438135069587
 STRESS|      z           0.295638518355      0.345800915995      0.890516475402

 Number of electrons:                                                         14
 Number of occupied orbitals:                                                  7
 Number of molecular orbitals:                                                 7

 Number of orbital functions:                                                 14
 Number of independent orbital functions:                                     14

 Extrapolation method: ASPC


 SCF WAVEFUNCTION OPTIMIZATION

  ----------------------------------- OT ---------------------------------------
  Minimizer      : CG                  : conjugate gradient
  Preconditioner : FULL_ALL            : diagonalization, state selective
  Precond_solver : DEFAULT
  Line search    : 2PNT                : 2 energies, one gradient
  stepsize       :    0.15000000                  energy_gap     :    0.08000000
  eps_taylor     :   0.10000E-15                  max_taylor     :             4
  ----------------------------------- OT ---------------------------------------

  Step     Update method      Time    Convergence         Total energy    Change
  ------------------------------------------------------------------------------
     1 OT CG       0.15E+00    0.4     0.00868839       -16.1034428935 -1.61E+01
     2 OT LS       0.18E+00    0.4                      -16.1041003975
     3 OT CG       0.18E+00    0.6     0.00072828       -16.1041240748 -6.81E-04
     4 OT LS       0.22E+00    0.3                      -16.1041296491
     5 OT CG       0.22E+00    0.6     0.00018855       -16.1041298026 -5.73E-06
     6 OT LS       0.14E+00    0.3                      -16.1041299623
     7 OT CG       0.14E+00    0.6     0.00001338       -16.1041300447 -2.42E-07

  *** SCF run converged in     7 steps ***


  Electronic density on regular grids:        -13.9999999998        0.0000000002
  Core density on regular grids:               13.9999999987       -0.0000000013
  Total charge density on r-space grids:       -0.0000000011
  Total charge density g-space grids:          -0.0000000011

  Overlap energy of the core charge distribution:               0.00002609219561
  Self energy of the core charge distribution:                -38.70122451907286
  Core Hamiltonian energy:                                     12.71649785320761
  Hartree energy:                                              15.50523727315343
  Exchange-correlation energy:                                 -5.62466674419538

  Total energy:                                               -16.10413004471159

  outer SCF iter =    1 RMS gradient =   0.13E-04 energy =        -16.1041300447
  outer SCF loop converged in   1 iterations or    7 steps


 ENERGY| Total FORCE_EVAL ( QS ) energy [a.u.]:              -16.104130046244595

 STRESS| Analytical stress tensor [GPa]
 STRESS|                        x                   y                   z
 STRESS|      x       -3.14492376331E-02  -8.28277988695E-03  -1.31378636035E-02
 STRESS|      y       -8.28277988695E-03  -2.17878944632E-03  -1.92183691971E-02
 STRESS|      z       -1.31378636035E-02  -1.92183691971E-02   2.33011947613E-02
 STRESS| 1/3 Trace                                            -3.44227743937E-03
 STRESS| Determinant                                           7.80715940888E-06

 STRESS| Eigenvectors and eigenvalues of the analytical stress tensor [GPa]
 STRESS|                        1                   2                   3
 STRESS| Eigenvalues  -3.91143846253E-02  -5.77498576383E-03   3.45625380710E-02
 STRESS|      x           0.887788004934     -0.443721813633     -0.122243242767
 STRESS|      y           0.352849188708      0.826705581852     -0.438241178990
 STRESS|      z           0.295516341889      0.345931832940      0.890506181133

 Number of electrons:                                                         14
 Number of occupied orbitals:                                                  7
 Number of molecular orbitals:                                                 7

 Number of orbital functions:                                                 14
 Number of independent orbital functions:                                     14

 Extrapolation method: ASPC


 SCF WAVEFUNCTION OPTIMIZATION

  ----------------------------------- OT ---------------------------------------
  Minimizer      : CG                  : conjugate gradient
  Preconditioner : FULL_ALL            : diagonalization, state selective
  Precond_solver : DEFAULT
  Line search    : 2PNT                : 2 energies, one gradient
  stepsize       :    0.15000000                  energy_gap     :    0.08000000
  eps_taylor     :   0.10000E-15                  max_taylor     :             4
  ----------------------------------- OT ---------------------------------------

  Step     Update method      Time    Convergence         Total energy    Change
  ------------------------------------------------------------------------------
     1 OT CG       0.15E+00    0.4     0.00890975       -16.1052798003 -1.61E+01
     2 OT LS       0.18E+00    0.4                      -16.1059709176
     3 OT CG       0.18E+00    0.7     0.00089967       -16.1059949802 -7.15E-04
     4 OT LS       0.18E+00    0.4                      -16.1060021326
     5 OT CG       0.18E+00    0.7     0.00029579       -16.1060021349 -7.15E-06
     6 OT LS       0.17E+00    0.4                      -16.1060028537
     7 OT CG       0.17E+00    0.7     0.00001570       -16.1060028575 -7.23E-07

  *** SCF run converged in     7 steps ***


  Electronic density on regular grids:        -13.9999999998        0.0000000002
  Core density on regular grids:               13.9999999987       -0.0000000013
  Total charge density on r-space grids:       -0.0000000011
  Total charge density g-space grids:          -0.0000000011

  Overlap energy of the core charge distribution:               0.00002258393151
  Self energy of the core charge distribution:                -38.70122451907286
  Core Hamiltonian energy:                                     12.71370886689990
  Hartree energy:                                              15.50440770112079
  Exchange-correlation energy:                                 -5.62291749036203

  Total energy:                                               -16.10600285748269

  outer SCF iter =    1 RMS gradient =   0.16E-04 energy =        -16.1060028575
  outer SCF loop converged in   1 iterations or    7 steps


 ENERGY| Total FORCE_EVAL ( QS ) energy [a.u.]:              -16.106002859645642

 STRESS| Analytical stress tensor [GPa]
 STRESS|                        x                   y                   z
 STRESS|      x       -4.71749299870E-02  -2.18610607707E-02  -1.80123833788E-02
 STRESS|      y       -2.18610607707E-02  -1.20235458589E-02  -2.56511102137E-02
 STRESS|      z       -1.80123833788E-02  -2.56511102137E-02  -4.89924442212E-03
 STRESS| 1/3 Trace                                            -2.13659067560E-02
 STRESS| Determinant                                           1.43023381708E-05

 STRESS| Eigenvectors and eigenvalues of the analytical stress tensor [GPa]
 STRESS|                        1                   2                   3
 STRESS| Eigenvalues  -6.98023421519E-02  -1.17433514498E-02   1.74479733335E-02
 STRESS|      x           0.781276114641     -0.623988345572      0.015690037638
 STRESS|      y           0.475249803266      0.578373299531     -0.663039931592
 STRESS|      z           0.404654491124      0.525473948907      0.748419582743

 Number of electrons:                                                         14
 Number of occupied orbitals:                                                  7
 Number of molecular orbitals:                                                 7

 Number of orbital functions:                                                 14
 Number of independent orbital functions:                                     14

 Extrapolation method: ASPC


 SCF WAVEFUNCTION OPTIMIZATION

  ----------------------------------- OT ---------------------------------------
  Minimizer      : CG                  : conjugate gradient
  Preconditioner : FULL_ALL            : diagonalization, state selective
  Precond_solver : DEFAULT
  Line search    : 2PNT                : 2 energies, one gradient
  stepsize       :    0.15000000                  energy_gap     :    0.08000000
  eps_taylor     :   0.10000E-15                  max_taylor     :             4
  ----------------------------------- OT ---------------------------------------

  Step     Update method      Time    Convergence         Total energy    Change
  ------------------------------------------------------------------------------
     1 OT CG       0.15E+00    0.3     0.00909700       -16.1052499078 -1.61E+01
     2 OT LS       0.18E+00    0.4                      -16.1059674788
     3 OT CG       0.18E+00    0.7     0.00093442       -16.1059915371 -7.42E-04
     4 OT LS       0.19E+00    0.4                      -16.1059995541
     5 OT CG       0.19E+00    0.7     0.00030203       -16.1059995588 -8.02E-06
     6 OT LS       0.16E+00    0.4                      -16.1060002698
     7 OT CG       0.16E+00    0.7     0.00001687       -16.1060002864 -7.28E-07

  *** SCF run converged in     7 steps ***


  Electronic density on regular grids:        -13.9999999997        0.0000000003
  Core density on regular grids:               13.9999999987       -0.0000000013
  Total charge density on r-space grids:       -0.0000000011
  Total charge density g-space grids:          -0.0000000011

  Overlap energy of the core charge distribution:               0.00002258393151
  Self energy of the core charge distribution:                -38.70122451907286
  Core Hamiltonian energy:                                     12.71367663378618
  Hartree energy:                                              15.50443929065479
  Exchange-correlation energy:                                 -5.62291427570179

  Total energy:                                               -16.10600028640216

  outer SCF iter =    1 RMS gradient =   0.17E-04 energy =        -16.1060002864
  outer SCF loop converged in   1 iterations or    7 steps


 ENERGY| Total FORCE_EVAL ( QS ) energy [a.u.]:              -16.106000288872892

 STRESS| Analytical stress tensor [GPa]
 STRESS|                        x                   y                   z
 STRESS|      x       -4.71728300497E-02  -2.18384554213E-02  -1.80065250655E-02
 STRESS|      y       -2.18384554213E-02  -1.20248775118E-02  -2.56406365341E-02
 STRESS|      z       -1.80065250655E-02  -2.56406365341E-02  -4.89081743246E-03
 STRESS| 1/3 Trace                                            -2.13628416646E-02
 STRESS| Determinant                                           1.43049364225E-05

 STRESS| Eigenvectors and eigenvalues of the analytical stress tensor [GPa]
 STRESS|                        1                   2                   3
 STRESS| Eigenvalues  -6.97754637522E-02  -1.17544471702E-02   1.74413859285E-02
 STRESS|      x           0.781383391090     -0.623861090213      0.015405721217
 STRESS|      y           0.475119359342      0.578716884919     -0.662833585064
 STRESS|      z           0.404600532015      0.525246710820      0.748608243520

 Number of electrons:                                                         14
 Number of occupied orbitals:                                                  7
 Number of molecular orbitals:                                                 7

 Number of orbital functions:                                                 14
 Number of independent orbital functions:                                     14

 Extrapolation method: ASPC


 SCF WAVEFUNCTION OPTIMIZATION

  ----------------------------------- OT ---------------------------------------
  Minimizer      : CG                  : conjugate gradient
  Preconditioner : FULL_ALL            : diagonalization, state selective
  Precond_solver : DEFAULT
  Line search    : 2PNT                : 2 energies, one gradient
  stepsize       :    0.15000000                  energy_gap     :    0.08000000
  eps_taylor     :   0.10000E-15                  max_taylor     :             4
  ----------------------------------- OT ---------------------------------------

  Step     Update method      Time    Convergence         Total energy    Change
  ------------------------------------------------------------------------------
     1 OT CG       0.15E+00    0.3     0.00927532       -16.1072252330 -1.61E+01
     2 OT LS       0.18E+00    0.3                      -16.1079715128
     3 OT CG       0.18E+00    0.5     0.00106437       -16.1079964632 -7.71E-04
     4 OT LS       0.17E+00    0.3                      -16.1080059254
     5 OT CG       0.17E+00    0.6     0.00033268       -16.1080059694 -9.51E-06
     6 OT LS       0.18E+00    0.3                      -16.1080069405
     7 OT CG       0.18E+00    0.6     0.00001998       -16.1080069425 -9.73E-07

  *** SCF run converged in     7 steps ***


  Electronic density on regular grids:        -13.9999999997        0.0000000003
  Core density on regular grids:               13.9999999987       -0.0000000013
  Total charge density on r-space grids:       -0.0000000011
  Total charge density g-space grids:          -0.0000000011

  Overlap energy of the core charge distribution:               0.00001862834257
  Self energy of the core charge distribution:                -38.70122451907286
  Core Hamiltonian energy:                                     12.71240188089891
  Hartree energy:                                              15.50266284736104
  Exchange-correlation energy:                                 -5.62186578000182

  Total energy:                                               -16.10800694247217

  outer SCF iter =    1 RMS gradient =   0.20E-04 energy =        -16.1080069425
  outer SCF loop converged in   1 iterations or    7 steps


 ENERGY| Total FORCE_EVAL ( QS ) energy [a.u.]:              -16.108006945821650

 STRESS| Analytical stress tensor [GPa]
 STRESS|                        x                   y                   z
 STRESS|      x       -5.65652258665E-02  -3.23062265148E-02  -2.21328652914E-02
 STRESS|      y       -3.23062265148E-02  -2.12387540795E-02  -2.92060043687E-02
 STRESS|      z       -2.21328652914E-02  -2.92060043687E-02  -2.74730608904E-02
 STRESS| 1/3 Trace                                            -3.50923469455E-02
 STRESS| Determinant                                           1.25553800771E-05

 STRESS| Eigenvectors and eigenvalues of the analytical stress tensor [GPa]
 STRESS|                        1                   2                   3
 STRESS| Eigenvalues  -9.36805573102E-02  -1.87459417801E-02   7.14945825393E-03
 STRESS|      x           0.722417452412     -0.654499801359     -0.223031465206
 STRESS|      y           0.510288325226      0.286978835538      0.810708932412
 STRESS|      z           0.466603525050      0.699480634453     -0.541302126761

 Number of electrons:                                                         14
 Number of occupied orbitals:                                                  7
 Number of molecular orbitals:                                                 7

 Number of orbital functions:                                                 14
 Number of independent orbital functions:                                     14

 Extrapolation method: ASPC


 SCF WAVEFUNCTION OPTIMIZATION

  ----------------------------------- OT ---------------------------------------
  Minimizer      : CG                  : conjugate gradient
  Preconditioner : FULL_ALL            : diagonalization, state selective
  Precond_solver : DEFAULT
  Line search    : 2PNT                : 2 energies, one gradient
  stepsize       :    0.15000000                  energy_gap     :    0.08000000
  eps_taylor     :   0.10000E-15                  max_taylor     :             4
  ----------------------------------- OT ---------------------------------------

  Step     Update method      Time    Convergence         Total energy    Change
  ------------------------------------------------------------------------------
     1 OT CG       0.15E+00    0.3     0.00940072       -16.1072068526 -1.61E+01
     2 OT LS       0.18E+00    0.3                      -16.1079710616
     3 OT CG       0.18E+00    0.5     0.00108871       -16.1079955455 -7.89E-04
     4 OT LS       0.18E+00    0.3                      -16.1080058053
     5 OT CG       0.18E+00    0.6     0.00033982       -16.1080058143 -1.03E-05
     6 OT LS       0.17E+00    0.3                      -16.1080067987
     7 OT CG       0.17E+00    0.6     0.00002068       -16.1080067990 -9.85E-07

  *** SCF run converged in     7 steps ***


  Electronic density on regular grids:        -13.9999999998        0.0000000002
  Core density on regular grids:               13.9999999987       -0.0000000013
  Total charge density on r-space grids:       -0.0000000011
  Total charge density g-space grids:          -0.0000000011

  Overlap energy of the core charge distribution:               0.00001862834257
  Self energy of the core charge distribution:                -38.70122451907286
  Core Hamiltonian energy:                                     12.71235164876711
  Hartree energy:                                              15.50271135261317
  Exchange-correlation energy:                                 -5.62186390961235

  Total energy:                                               -16.10800679896237

  outer SCF iter =    1 RMS gradient =   0.21E-04 energy =        -16.1080067990
  outer SCF loop converged in   1 iterations or    7 steps


 ENERGY| Total FORCE_EVAL ( QS ) energy [a.u.]:              -16.108006802555007

 STRESS| Analytical stress tensor [GPa]
 STRESS|                        x                   y                   z
 STRESS|      x       -5.65491984642E-02  -3.22974378665E-02  -2.21274425046E-02
 STRESS|      y       -3.22974378665E-02  -2.12012420148E-02  -2.91988158932E-02
 STRESS|      z       -2.21274425046E-02  -2.91988158932E-02  -2.74555986378E-02
 STRESS| 1/3 Trace                                            -3.50686797056E-02
 STRESS| Determinant                                           1.25811216241E-05

 STRESS| Eigenvectors and eigenvalues of the analytical stress tensor [GPa]
 STRESS|                        1                   2                   3
 STRESS| Eigenvalues  -9.36450660942E-02  -1.87328234099E-02   7.17185038730E-03
 STRESS|      x           0.722503313226     -0.654403089337     -0.223037124813
 STRESS|      y           0.510174855850      0.286925088875      0.810799364721
 STRESS|      z           0.466594662246      0.699593160373     -0.541164329130

 Number of electrons:                                                         14
 Number of occupied orbitals:                                                  7
 Number of molecular orbitals:                                                 7

 Number of orbital functions:                                                 14
 Number of independent orbital functions:                                     14

 Extrapolation method: ASPC


 SCF WAVEFUNCTION OPTIMIZATION

  ----------------------------------- OT ---------------------------------------
  Minimizer      : CG                  : conjugate gradient
  Preconditioner : FULL_ALL            : diagonalization, state selective
  Precond_solver : DEFAULT
  Line search    : 2PNT                : 2 energies, one gradient
  stepsize       :    0.15000000                  energy_gap     :    0.08000000
  eps_taylor     :   0.10000E-15                  max_taylor     :             4
  ----------------------------------- OT ---------------------------------------

  Step     Update method      Time    Convergence         Total energy    Change
  ------------------------------------------------------------------------------
     1 OT CG       0.15E+00    0.3     0.00952041       -16.1088212537 -1.61E+01
     2 OT LS       0.18E+00    0.4                      -16.1096047610
     3 OT CG       0.18E+00    0.6     0.00120753       -16.1096299418 -8.09E-04
     4 OT LS       0.17E+00    0.4                      -16.1096416430
     5 OT CG       0.17E+00    0.6     0.00035192       -16.1096417636 -1.18E-05
     6 OT LS       0.19E+00    0.3                      -16.1096428902
     7 OT CG       0.19E+00    0.6     0.00002388       -16.1096429074 -1.14E-06

  *** SCF run converged in     7 steps ***


  Electronic density on regular grids:        -13.9999999998        0.0000000002
  Core density on regular grids:               13.9999999987       -0.0000000013
  Total charge density on r-space grids:       -0.0000000011
  Total charge density g-space grids:          -0.0000000011

  Overlap energy of the core charge distribution:               0.00001484079072
  Self energy of the core charge distribution:                -38.70122451907286
  Core Hamiltonian energy:                                     12.71295600482624
  Hartree energy:                                              15.50017118394959
  Exchange-correlation energy:                                 -5.62156041785905

  Total energy:                                               -16.10964290736536

  outer SCF iter =    1 RMS gradient =   0.24E-04 energy =        -16.1096429074
  outer SCF loop converged in   1 iterations or    7 steps


 ENERGY| Total FORCE_EVAL ( QS ) energy [a.u.]:              -16.109642911897744

 STRESS| Analytical stress tensor [GPa]
 STRESS|                        x                   y                   z
 STRESS|      x       -5.83808727068E-02  -3.82313355462E-02  -2.51655093945E-02
 STRESS|      y       -3.82313355462E-02  -2.84260726130E-02  -2.97581729897E-02
 STRESS|      z       -2.51655093945E-02  -2.97581729897E-02  -4.25789307095E-02
 STRESS| 1/3 Trace                                            -4.31286253431E-02
 STRESS| Determinant                                           4.01355842982E-06

 STRESS| Eigenvectors and eigenvalues of the analytical stress tensor [GPa]
 STRESS|                        1                   2                   3
 STRESS| Eigenvalues  -1.06792753306E-01  -2.41493814340E-02   1.55625871036E-03
 STRESS|      x           0.680508448863     -0.616234837125     -0.396437733496
 STRESS|      y           0.525783551060      0.033834155125      0.849945237872
 STRESS|      z           0.510352729453      0.786835354735     -0.347030569373

 Number of electrons:                                                         14
 Number of occupied orbitals:                                                  7
 Number of molecular orbitals:                                                 7

 Number of orbital functions:                                                 14
 Number of independent orbital functions:                                     14

 Extrapolation method: ASPC


 SCF WAVEFUNCTION OPTIMIZATION

  ----------------------------------- OT ---------------------------------------
  Minimizer      : CG                  : conjugate gradient
  Preconditioner : FULL_ALL            : diagonalization, state selective
  Precond_solver : DEFAULT
  Line search    : 2PNT                : 2 energies, one gradient
  stepsize       :    0.15000000                  energy_gap     :    0.08000000
  eps_taylor     :   0.10000E-15                  max_taylor     :             4
  ----------------------------------- OT ---------------------------------------

  Step     Update method      Time    Convergence         Total energy    Change
  ------------------------------------------------------------------------------
     1 OT CG       0.15E+00    0.4     0.00957955       -16.1088122897 -1.61E+01
     2 OT LS       0.18E+00    0.4                      -16.1096037940
     3 OT CG       0.18E+00    0.7     0.00120956       -16.1096280636 -8.16E-04
     4 OT LS       0.17E+00    0.4                      -16.1096401721
     5 OT CG       0.17E+00    0.6     0.00035530       -16.1096402281 -1.22E-05
     6 OT LS       0.18E+00    0.4                      -16.1096413576
     7 OT CG       0.18E+00    0.7     0.00002389       -16.1096413639 -1.14E-06

  *** SCF run converged in     7 steps ***


  Electronic density on regular grids:        -13.9999999998        0.0000000002
  Core density on regular grids:               13.9999999987       -0.0000000013
  Total charge density on r-space grids:       -0.0000000011
  Total charge density g-space grids:          -0.0000000011

  Overlap energy of the core charge distribution:               0.00001484079072
  Self energy of the core charge distribution:                -38.70122451907286
  Core Hamiltonian energy:                                     12.71288798464380
  Hartree energy:                                              15.50023603321675
  Exchange-correlation energy:                                 -5.62155570349453

  Total energy:                                               -16.10964136391611

  outer SCF iter =    1 RMS gradient =   0.24E-04 energy =        -16.1096413639
  outer SCF loop converged in   1 iterations or    7 steps


 ENERGY| Total FORCE_EVAL ( QS ) energy [a.u.]:              -16.109641368497130

 STRESS| Analytical stress tensor [GPa]
 STRESS|                        x                   y                   z
 STRESS|      x       -5.83733227486E-02  -3.82163753097E-02  -2.51648684378E-02
 STRESS|      y       -3.82163753097E-02  -2.83817601288E-02  -2.97538264448E-02
 STRESS|      z       -2.51648684378E-02  -2.97538264448E-02  -4.25589369769E-02
 STRESS| 1/3 Trace                                            -4.31046732848E-02
 STRESS| Determinant                                           4.06952198463E-06

 STRESS| Eigenvectors and eigenvalues of the analytical stress tensor [GPa]
 STRESS|                        1                   2                   3
 STRESS| Eigenvalues  -1.06758319912E-01  -2.41351014207E-02   1.57940147875E-03
 STRESS|      x           0.680607313022     -0.616325618558     -0.396126769317
 STRESS|      y           0.525620859141      0.034104971699      0.850035036538
 STRESS|      z           0.510388477433      0.786752555010     -0.347165694285

 Number of electrons:                                                         14
 Number of occupied orbitals:                                                  7
 Number of molecular orbitals:                                                 7

 Number of orbital functions:                                                 14
 Number of independent orbital functions:                                     14

 Extrapolation method: ASPC


 SCF WAVEFUNCTION OPTIMIZATION

  ----------------------------------- OT ---------------------------------------
  Minimizer      : CG                  : conjugate gradient
  Preconditioner : FULL_ALL            : diagonalization, state selective
  Precond_solver : DEFAULT
  Line search    : 2PNT                : 2 energies, one gradient
  stepsize       :    0.15000000                  energy_gap     :    0.08000000
  eps_taylor     :   0.10000E-15                  max_taylor     :             4
  ----------------------------------- OT ---------------------------------------

  Step     Update method      Time    Convergence         Total energy    Change
  ------------------------------------------------------------------------------
     1 OT CG       0.15E+00    0.3     0.00961996       -16.1096442790 -1.61E+01
     2 OT LS       0.18E+00    0.3                      -16.1104423462
     3 OT CG       0.18E+00    0.7     0.00127841       -16.1104673174 -8.23E-04
     4 OT LS       0.16E+00    0.4                      -16.1104801535
     5 OT CG       0.16E+00    0.8     0.00034894       -16.1104803338 -1.30E-05
     6 OT LS       0.20E+00    0.4                      -16.1104814646
     7 OT CG       0.20E+00    0.8     0.00002657       -16.1104814973 -1.16E-06

  *** SCF run converged in     7 steps ***


  Electronic density on regular grids:        -13.9999999998        0.0000000002
  Core density on regular grids:               13.9999999987       -0.0000000013
  Total charge density on r-space grids:       -0.0000000011
  Total charge density g-space grids:          -0.0000000011

  Overlap energy of the core charge distribution:               0.00001161933696
  Self energy of the core charge distribution:                -38.70122451907286
  Core Hamiltonian energy:                                     12.71525602539865
  Hartree energy:                                              15.49735642162134
  Exchange-correlation energy:                                 -5.62188104456960

  Total energy:                                               -16.11048149728551

  outer SCF iter =    1 RMS gradient =   0.27E-04 energy =        -16.1104814973
  outer SCF loop converged in   1 iterations or    7 steps


 ENERGY| Total FORCE_EVAL ( QS ) energy [a.u.]:              -16.110481502606920

 STRESS| Analytical stress tensor [GPa]
 STRESS|                        x                   y                   z
 STRESS|      x       -5.27596668116E-02  -3.91306257166E-02  -2.73451247420E-02
 STRESS|      y       -3.91306257166E-02  -3.27494813441E-02  -2.79256193223E-02
 STRESS|      z       -2.73451247420E-02  -2.79256193223E-02  -5.00700276123E-02
 STRESS| 1/3 Trace                                            -4.51930585893E-02
 STRESS| Determinant                                          -3.97594107230E-06

 STRESS| Eigenvectors and eigenvalues of the analytical stress tensor [GPa]
 STRESS|                        1                   2                   3
 STRESS| Eigenvalues  -1.08795418419E-01  -2.53416610775E-02  -1.44209627141E-03
 STRESS|      x           0.641425493972     -0.546945932700     -0.537980931247
 STRESS|      y           0.532769737532     -0.187009899392      0.825338539207
 STRESS|      z           0.552023316947      0.816013139743     -0.171443323913

 Number of electrons:                                                         14
 Number of occupied orbitals:                                                  7
 Number of molecular orbitals:                                                 7

 Number of orbital functions:                                                 14
 Number of independent orbital functions:                                     14

 Extrapolation method: ASPC


 SCF WAVEFUNCTION OPTIMIZATION

  ----------------------------------- OT ---------------------------------------
  Minimizer      : CG                  : conjugate gradient
  Preconditioner : FULL_ALL            : diagonalization, state selective
  Precond_solver : DEFAULT
  Line search    : 2PNT                : 2 energies, one gradient
  stepsize       :    0.15000000                  energy_gap     :    0.08000000
  eps_taylor     :   0.10000E-15                  max_taylor     :             4
  ----------------------------------- OT ---------------------------------------

  Step     Update method      Time    Convergence         Total energy    Change
  ------------------------------------------------------------------------------
     1 OT CG       0.15E+00    0.4     0.00959691       -16.1096477383 -1.61E+01
     2 OT LS       0.18E+00    0.4                      -16.1104414437
     3 OT CG       0.18E+00    0.8     0.00124074       -16.1104653606 -8.18E-04
     4 OT LS       0.17E+00    0.5                      -16.1104778005
     5 OT CG       0.17E+00    0.8     0.00034528       -16.1104778978 -1.25E-05
     6 OT LS       0.19E+00    0.4                      -16.1104789914
     7 OT CG       0.19E+00    0.8     0.00002582       -16.1104790084 -1.11E-06

  *** SCF run converged in     7 steps ***


  Electronic density on regular grids:        -13.9999999998        0.0000000002
  Core density on regular grids:               13.9999999987       -0.0000000013
  Total charge density on r-space grids:       -0.0000000011
  Total charge density g-space grids:          -0.0000000011

  Overlap energy of the core charge distribution:               0.00001161933696
  Self energy of the core charge distribution:                -38.70122451907286
  Core Hamiltonian energy:                                     12.71517812659611
  Hartree energy:                                              15.49743012007809
  Exchange-correlation energy:                                 -5.62187435537577

  Total energy:                                               -16.11047900843747

  outer SCF iter =    1 RMS gradient =   0.26E-04 energy =        -16.1104790084
  outer SCF loop converged in   1 iterations or    7 steps


 ENERGY| Total FORCE_EVAL ( QS ) energy [a.u.]:              -16.110479013542623

 STRESS| Analytical stress tensor [GPa]
 STRESS|                        x                   y                   z
 STRESS|      x       -5.27485900458E-02  -3.90900402992E-02  -2.73461494089E-02
 STRESS|      y       -3.90900402992E-02  -3.27233466287E-02  -2.79230647314E-02
 STRESS|      z       -2.73461494089E-02  -2.79230647314E-02  -5.00371205812E-02
 STRESS| 1/3 Trace                                            -4.51696857519E-02
 STRESS| Determinant                                          -4.00985122581E-06

 STRESS| Eigenvectors and eigenvalues of the analytical stress tensor [GPa]
 STRESS|                        1                   2                   3
 STRESS| Eigenvalues  -1.08744902587E-01  -2.53070960021E-02  -1.45705866685E-03
 STRESS|      x           0.641453751737     -0.547399076863     -0.537486125432
 STRESS|      y           0.532631191426     -0.186454955027      0.825553489282
 STRESS|      z           0.552124169279      0.815836258323     -0.171959592063

 Number of electrons:                                                         14
 Number of occupied orbitals:                                                  7
 Number of molecular orbitals:                                                 7

 Number of orbital functions:                                                 14
 Number of independent orbital functions:                                     14

 Extrapolation method: ASPC


 SCF WAVEFUNCTION OPTIMIZATION

  ----------------------------------- OT ---------------------------------------
  Minimizer      : CG                  : conjugate gradient
  Preconditioner : FULL_ALL            : diagonalization, state selective
  Precond_solver : DEFAULT
  Line search    : 2PNT                : 2 energies, one gradient
  stepsize       :    0.15000000                  energy_gap     :    0.08000000
  eps_taylor     :   0.10000E-15                  max_taylor     :             4
  ----------------------------------- OT ---------------------------------------

  Step     Update method      Time    Convergence         Total energy    Change
  ------------------------------------------------------------------------------
     1 OT CG       0.15E+00    0.4     0.00954531       -16.1094969903 -1.61E+01
     2 OT LS       0.18E+00    0.5                      -16.1102827000
     3 OT CG       0.18E+00    0.8     0.00125055       -16.1103073781 -8.10E-04
     4 OT LS       0.16E+00    0.4                      -16.1103195252
     5 OT CG       0.16E+00    0.7     0.00032490       -16.1103197268 -1.23E-05
     6 OT LS       0.20E+00    0.4                      -16.1103207202
     7 OT CG       0.20E+00    0.6     0.00002741       -16.1103207589 -1.03E-06

  *** SCF run converged in     7 steps ***


  Electronic density on regular grids:        -13.9999999998        0.0000000002
  Core density on regular grids:               13.9999999987       -0.0000000013
  Total charge density on r-space grids:       -0.0000000011
  Total charge density g-space grids:          -0.0000000011

  Overlap energy of the core charge distribution:               0.00000911970858
  Self energy of the core charge distribution:                -38.70122451907286
  Core Hamiltonian energy:                                     12.71858169890906
  Hartree energy:                                              15.49485558374220
  Exchange-correlation energy:                                 -5.62254264216811

  Total energy:                                               -16.11032075888113

  outer SCF iter =    1 RMS gradient =   0.27E-04 energy =        -16.1103207589
  outer SCF loop converged in   1 iterations or    7 steps


 ENERGY| Total FORCE_EVAL ( QS ) energy [a.u.]:              -16.110320764293295

 STRESS| Analytical stress tensor [GPa]
 STRESS|                        x                   y                   z
 STRESS|      x       -4.15175720802E-02  -3.57503836604E-02  -2.91927430961E-02
 STRESS|      y       -3.57503836604E-02  -3.40839370906E-02  -2.48357162988E-02
 STRESS|      z       -2.91927430961E-02  -2.48357162988E-02  -5.20309262275E-02
 STRESS| 1/3 Trace                                            -4.25441451328E-02
 STRESS| Determinant                                          -4.31206382895E-06

 STRESS| Eigenvectors and eigenvalues of the analytical stress tensor [GPa]
 STRESS|                        1                   2                   3
 STRESS| Eigenvalues  -1.02712383231E-01  -2.31028792011E-02  -1.81717296627E-03
 STRESS|      x           0.596856316980     -0.420164776942     -0.683537926598
 STRESS|      y           0.529174377799     -0.434229410504      0.728985114344
 STRESS|      z           0.603106138886      0.796810127490      0.036832132267

 Number of electrons:                                                         14
 Number of occupied orbitals:                                                  7
 Number of molecular orbitals:                                                 7

 Number of orbital functions:                                                 14
 Number of independent orbital functions:                                     14

 Extrapolation method: ASPC


 SCF WAVEFUNCTION OPTIMIZATION

  ----------------------------------- OT ---------------------------------------
  Minimizer      : CG                  : conjugate gradient
  Preconditioner : FULL_ALL            : diagonalization, state selective
  Precond_solver : DEFAULT
  Line search    : 2PNT                : 2 energies, one gradient
  stepsize       :    0.15000000                  energy_gap     :    0.08000000
  eps_taylor     :   0.10000E-15                  max_taylor     :             4
  ----------------------------------- OT ---------------------------------------

  Step     Update method      Time    Convergence         Total energy    Change
  ------------------------------------------------------------------------------
     1 OT CG       0.15E+00    0.4     0.00944176       -16.1095164368 -1.61E+01
     2 OT LS       0.18E+00    0.4                      -16.1102861586
     3 OT CG       0.18E+00    0.5     0.00116972       -16.1103099041 -7.93E-04
     4 OT LS       0.16E+00    0.3                      -16.1103208190
     5 OT CG       0.16E+00    0.5     0.00031385       -16.1103209331 -1.10E-05
     6 OT LS       0.19E+00    0.3                      -16.1103218506
     7 OT CG       0.19E+00    0.5     0.00002600       -16.1103218723 -9.39E-07

  *** SCF run converged in     7 steps ***


  Electronic density on regular grids:        -13.9999999998        0.0000000002
  Core density on regular grids:               13.9999999987       -0.0000000013
  Total charge density on r-space grids:       -0.0000000011
  Total charge density g-space grids:          -0.0000000011

  Overlap energy of the core charge distribution:               0.00000911970858
  Self energy of the core charge distribution:                -38.70122451907286
  Core Hamiltonian energy:                                     12.71849551777606
  Hartree energy:                                              15.49493592038221
  Exchange-correlation energy:                                 -5.62253791108790

  Total energy:                                               -16.11032187229390

  outer SCF iter =    1 RMS gradient =   0.26E-04 energy =        -16.1103218723
  outer SCF loop converged in   1 iterations or    7 steps


 ENERGY| Total FORCE_EVAL ( QS ) energy [a.u.]:              -16.110321877266379

 STRESS| Analytical stress tensor [GPa]
 STRESS|                        x                   y                   z
 STRESS|      x       -4.14692510460E-02  -3.57037915044E-02  -2.91971270900E-02
 STRESS|      y       -3.57037915044E-02  -3.40535795718E-02  -2.48369183967E-02
 STRESS|      z       -2.91971270900E-02  -2.48369183967E-02  -5.19785841636E-02
 STRESS| 1/3 Trace                                            -4.25004715938E-02
 STRESS| Determinant                                          -4.31410072310E-06

 STRESS| Eigenvectors and eigenvalues of the analytical stress tensor [GPa]
 STRESS|                        1                   2                   3
 STRESS| Eigenvalues  -1.02642125812E-01  -2.30346222633E-02  -1.82466670567E-03
 STRESS|      x           0.596748398450     -0.420066159522     -0.683692745736
 STRESS|      y           0.529095031900     -0.434591356186      0.728827003031
 STRESS|      z           0.603282517703      0.796664781921      0.037086777712

 Number of electrons:                                                         14
 Number of occupied orbitals:                                                  7
 Number of molecular orbitals:                                                 7

 Number of orbital functions:                                                 14
 Number of independent orbital functions:                                     14

 Extrapolation method: ASPC


 SCF WAVEFUNCTION OPTIMIZATION

  ----------------------------------- OT ---------------------------------------
  Minimizer      : CG                  : conjugate gradient
  Preconditioner : FULL_ALL            : diagonalization, state selective
  Precond_solver : DEFAULT
  Line search    : 2PNT                : 2 energies, one gradient
  stepsize       :    0.15000000                  energy_gap     :    0.08000000
  eps_taylor     :   0.10000E-15                  max_taylor     :             4
  ----------------------------------- OT ---------------------------------------

  Step     Update method      Time    Convergence         Total energy    Change
  ------------------------------------------------------------------------------
     1 OT CG       0.15E+00    0.4     0.00931313       -16.1084756548 -1.61E+01
     2 OT LS       0.18E+00    0.4                      -16.1092259428
     3 OT CG       0.18E+00    0.6     0.00112176       -16.1092505999 -7.75E-04
     4 OT LS       0.16E+00    0.4                      -16.1092603288
     5 OT CG       0.16E+00    0.6     0.00028462       -16.1092605116 -9.91E-06
     6 OT LS       0.20E+00    0.4                      -16.1092612795
     7 OT CG       0.20E+00    0.6     0.00002613       -16.1092613134 -8.02E-07

  *** SCF run converged in     7 steps ***


  Electronic density on regular grids:        -13.9999999998        0.0000000002
  Core density on regular grids:               13.9999999987       -0.0000000013
  Total charge density on r-space grids:       -0.0000000011
  Total charge density g-space grids:          -0.0000000011

  Overlap energy of the core charge distribution:               0.00000731794456
  Self energy of the core charge distribution:                -38.70122451907286
  Core Hamiltonian energy:                                     12.72162137978998
  Hartree energy:                                              15.49345694905342
  Exchange-correlation energy:                                 -5.62312244112906

  Total energy:                                               -16.10926131341396

  outer SCF iter =    1 RMS gradient =   0.26E-04 energy =        -16.1092613134
  outer SCF loop converged in   1 iterations or    7 steps


 ENERGY| Total FORCE_EVAL ( QS ) energy [a.u.]:              -16.109261318181979

 STRESS| Analytical stress tensor [GPa]
 STRESS|                        x                   y                   z
 STRESS|      x       -2.81016331785E-02  -3.01001293143E-02  -3.10928943886E-02
 STRESS|      y       -3.01001293143E-02  -3.30647071040E-02  -2.16750933118E-02
 STRESS|      z       -3.10928943886E-02  -2.16750933118E-02  -5.27173842457E-02
 STRESS| 1/3 Trace                                            -3.79612415094E-02
 STRESS| Determinant                                           3.37623274621E-06

 STRESS| Eigenvectors and eigenvalues of the analytical stress tensor [GPa]
 STRESS|                        1                   2                   3
 STRESS| Eigenvalues  -9.42977926918E-02  -2.12692947720E-02   1.68336293568E-03
 STRESS|      x           0.544257628760     -0.242863292701      0.802995052659
 STRESS|      y           0.504736256886     -0.669758987478     -0.544668899128
 STRESS|      z           0.670093235692      0.701740920676     -0.241939529073

 Number of electrons:                                                         14
 Number of occupied orbitals:                                                  7
 Number of molecular orbitals:                                                 7

 Number of orbital functions:                                                 14
 Number of independent orbital functions:                                     14

 Extrapolation method: ASPC


 SCF WAVEFUNCTION OPTIMIZATION

  ----------------------------------- OT ---------------------------------------
  Minimizer      : CG                  : conjugate gradient
  Preconditioner : FULL_ALL            : diagonalization, state selective
  Precond_solver : DEFAULT
  Line search    : 2PNT                : 2 energies, one gradient
  stepsize       :    0.15000000                  energy_gap     :    0.08000000
  eps_taylor     :   0.10000E-15                  max_taylor     :             4
  ----------------------------------- OT ---------------------------------------

  Step     Update method      Time    Convergence         Total energy    Change
  ------------------------------------------------------------------------------
     1 OT CG       0.15E+00    0.3     0.00915153       -16.1085066668 -1.61E+01
     2 OT LS       0.18E+00    0.3                      -16.1092337033
     3 OT CG       0.18E+00    0.6     0.00099841       -16.1092578222 -7.51E-04
     4 OT LS       0.17E+00    0.3                      -16.1092657855
     5 OT CG       0.17E+00    0.6     0.00026678       -16.1092658778 -8.06E-06
     6 OT LS       0.20E+00    0.3                      -16.1092665447
     7 OT CG       0.20E+00    0.6     0.00002423       -16.1092665613 -6.84E-07

  *** SCF run converged in     7 steps ***


  Electronic density on regular grids:        -13.9999999997        0.0000000003
  Core density on regular grids:               13.9999999987       -0.0000000013
  Total charge density on r-space grids:       -0.0000000011
  Total charge density g-space grids:          -0.0000000011

  Overlap energy of the core charge distribution:               0.00000731794456
  Self energy of the core charge distribution:                -38.70122451907286
  Core Hamiltonian energy:                                     12.72152492348654
  Hartree energy:                                              15.49354478402665
  Exchange-correlation energy:                                 -5.62311906765846

  Total energy:                                               -16.10926656127357

  outer SCF iter =    1 RMS gradient =   0.24E-04 energy =        -16.1092665613
  outer SCF loop converged in   1 iterations or    7 steps


 ENERGY| Total FORCE_EVAL ( QS ) energy [a.u.]:              -16.109266565482663

 STRESS| Analytical stress tensor [GPa]
 STRESS|                        x                   y                   z
 STRESS|      x       -2.80278745348E-02  -3.00699054432E-02  -3.11004540590E-02
 STRESS|      y       -3.00699054432E-02  -3.30147002784E-02  -2.16737859916E-02
 STRESS|      z       -3.11004540590E-02  -2.16737859916E-02  -5.26464415222E-02
 STRESS| 1/3 Trace                                            -3.78963387785E-02
 STRESS| Determinant                                           3.44858255450E-06

 STRESS| Eigenvectors and eigenvalues of the analytical stress tensor [GPa]
 STRESS|                        1                   2                   3
 STRESS| Eigenvalues  -9.42193755707E-02  -2.11964239387E-02   1.72678317401E-03
 STRESS|      x           0.544170107947     -0.242045091274      0.803301355287
 STRESS|      y           0.504683666831     -0.670430615423     -0.543890785303
 STRESS|      z           0.670203916768      0.701382180907     -0.242672096163

 Number of electrons:                                                         14
 Number of occupied orbitals:                                                  7
 Number of molecular orbitals:                                                 7

 Number of orbital functions:                                                 14
 Number of independent orbital functions:                                     14

 Extrapolation method: ASPC


 SCF WAVEFUNCTION OPTIMIZATION

  ----------------------------------- OT ---------------------------------------
  Minimizer      : CG                  : conjugate gradient
  Preconditioner : FULL_ALL            : diagonalization, state selective
  Precond_solver : DEFAULT
  Line search    : 2PNT                : 2 energies, one gradient
  stepsize       :    0.15000000                  energy_gap     :    0.08000000
  eps_taylor     :   0.10000E-15                  max_taylor     :             4
  ----------------------------------- OT ---------------------------------------

  Step     Update method      Time    Convergence         Total energy    Change
  ------------------------------------------------------------------------------
     1 OT CG       0.15E+00    0.3     0.00899311       -16.1069377012 -1.61E+01
     2 OT LS       0.18E+00    0.3                      -16.1076418970
     3 OT CG       0.18E+00    0.5     0.00090161       -16.1076671800 -7.29E-04
     4 OT LS       0.16E+00    0.3                      -16.1076735971
     5 OT CG       0.16E+00    0.5     0.00023641       -16.1076737003 -6.52E-06
     6 OT LS       0.20E+00    0.3                      -16.1076742287
     7 OT CG       0.20E+00    0.5     0.00002295       -16.1076742465 -5.46E-07

  *** SCF run converged in     7 steps ***


  Electronic density on regular grids:        -13.9999999997        0.0000000003
  Core density on regular grids:               13.9999999987       -0.0000000013
  Total charge density on r-space grids:       -0.0000000010
  Total charge density g-space grids:          -0.0000000010

  Overlap energy of the core charge distribution:               0.00000609680622
  Self energy of the core charge distribution:                -38.70122451907286
  Core Hamiltonian energy:                                     12.72271943426150
  Hartree energy:                                              15.49395743624797
  Exchange-correlation energy:                                 -5.62313269473204

  Total energy:                                               -16.10767424648921

  outer SCF iter =    1 RMS gradient =   0.23E-04 energy =        -16.1076742465
  outer SCF loop converged in   1 iterations or    7 steps


 ENERGY| Total FORCE_EVAL ( QS ) energy [a.u.]:              -16.107674250145465

 STRESS| Analytical stress tensor [GPa]
 STRESS|                        x                   y                   z
 STRESS|      x       -1.69833647235E-02  -2.49781833705E-02  -3.28636425673E-02
 STRESS|      y       -2.49781833705E-02  -3.10722952717E-02  -1.91505362352E-02
 STRESS|      z       -3.28636425673E-02  -1.91505362352E-02  -5.76027811978E-02
 STRESS| 1/3 Trace                                            -3.52194803976E-02
 STRESS| Determinant                                           1.38880868685E-05

 STRESS| Eigenvectors and eigenvalues of the analytical stress tensor [GPa]
 STRESS|                        1                   2                   3
 STRESS| Eigenvalues  -9.04075384587E-02  -2.21775638594E-02   6.92666112520E-03
 STRESS|      x           0.487721401969      0.161268499542      0.857974536403
 STRESS|      y           0.447284499203      0.797833274318     -0.404225980317
 STRESS|      z           0.749709550982     -0.580908372677     -0.316987463033

 Number of electrons:                                                         14
 Number of occupied orbitals:                                                  7
 Number of molecular orbitals:                                                 7

 Number of orbital functions:                                                 14
 Number of independent orbital functions:                                     14

 Extrapolation method: ASPC


 SCF WAVEFUNCTION OPTIMIZATION

  ----------------------------------- OT ---------------------------------------
  Minimizer      : CG                  : conjugate gradient
  Preconditioner : FULL_ALL            : diagonalization, state selective
  Precond_solver : DEFAULT
  Line search    : 2PNT                : 2 energies, one gradient
  stepsize       :    0.15000000                  energy_gap     :    0.08000000
  eps_taylor     :   0.10000E-15                  max_taylor     :             4
  ----------------------------------- OT ---------------------------------------

  Step     Update method      Time    Convergence         Total energy    Change
  ------------------------------------------------------------------------------
     1 OT CG       0.15E+00    0.3     0.00882007       -16.1069679629 -1.61E+01
     2 OT LS       0.19E+00    0.3                      -16.1076490708
     3 OT CG       0.19E+00    0.6     0.00074818       -16.1076743832 -7.06E-04
     4 OT LS       0.17E+00    0.4                      -16.1076791221
     5 OT CG       0.17E+00    0.6     0.00021180       -16.1076791422 -4.76E-06
     6 OT LS       0.19E+00    0.4                      -16.1076795542
     7 OT CG       0.19E+00    0.6     0.00002048       -16.1076795566 -4.14E-07

  *** SCF run converged in     7 steps ***


  Electronic density on regular grids:        -13.9999999997        0.0000000003
  Core density on regular grids:               13.9999999987       -0.0000000013
  Total charge density on r-space grids:       -0.0000000010
  Total charge density g-space grids:          -0.0000000010

  Overlap energy of the core charge distribution:               0.00000609680622
  Self energy of the core charge distribution:                -38.70122451907286
  Core Hamiltonian energy:                                     12.72261113388145
  Hartree energy:                                              15.49405315482533
  Exchange-correlation energy:                                 -5.62312542307100

  Total energy:                                               -16.10767955663087

  outer SCF iter =    1 RMS gradient =   0.20E-04 energy =        -16.1076795566
  outer SCF loop converged in   1 iterations or    7 steps


 ENERGY| Total FORCE_EVAL ( QS ) energy [a.u.]:              -16.107679559647401

 STRESS| Analytical stress tensor [GPa]
 STRESS|                        x                   y                   z
 STRESS|      x       -1.69318524593E-02  -2.49617008103E-02  -3.28633983125E-02
 STRESS|      y       -2.49617008103E-02  -3.10201108187E-02  -1.91495025272E-02
 STRESS|      z       -3.28633983125E-02  -1.91495025272E-02  -5.75147017670E-02
 STRESS| 1/3 Trace                                            -3.51555550150E-02
 STRESS| Determinant                                           1.39214044155E-05

 STRESS| Eigenvectors and eigenvalues of the analytical stress tensor [GPa]
 STRESS|                        1                   2                   3
 STRESS| Eigenvalues  -9.03272766308E-02  -2.21100550004E-02   6.97066658622E-03
 STRESS|      x           0.487793335607      0.160723977605      0.858035817877
 STRESS|      y           0.447350154711      0.798012559490     -0.403799200070
 STRESS|      z           0.749623572747     -0.580813014592     -0.317365312003

 Number of electrons:                                                         14
 Number of occupied orbitals:                                                  7
 Number of molecular orbitals:                                                 7

 Number of orbital functions:                                                 14
 Number of independent orbital functions:                                     14

 Extrapolation method: ASPC


 SCF WAVEFUNCTION OPTIMIZATION

  ----------------------------------- OT ---------------------------------------
  Minimizer      : CG                  : conjugate gradient
  Preconditioner : FULL_ALL            : diagonalization, state selective
  Precond_solver : DEFAULT
  Line search    : 2PNT                : 2 energies, one gradient
  stepsize       :    0.15000000                  energy_gap     :    0.08000000
  eps_taylor     :   0.10000E-15                  max_taylor     :             4
  ----------------------------------- OT ---------------------------------------

  Step     Update method      Time    Convergence         Total energy    Change
  ------------------------------------------------------------------------------
     1 OT CG       0.15E+00    0.3     0.00870840       -16.1053741951 -1.61E+01
     2 OT LS       0.19E+00    0.3                      -16.1060401966
     3 OT CG       0.19E+00    0.6     0.00063716       -16.1060668854 -6.93E-04
     4 OT LS       0.18E+00    0.3                      -16.1060705440
     5 OT CG       0.18E+00    0.6     0.00018552       -16.1060705447 -3.66E-06
     6 OT LS       0.18E+00    0.3                      -16.1060708493
     7 OT CG       0.18E+00    0.6     0.00001778       -16.1060708494 -3.05E-07

  *** SCF run converged in     7 steps ***


  Electronic density on regular grids:        -13.9999999997        0.0000000003
  Core density on regular grids:               13.9999999987       -0.0000000013
  Total charge density on r-space grids:       -0.0000000010
  Total charge density g-space grids:          -0.0000000010

  Overlap energy of the core charge distribution:               0.00000531670817
  Self energy of the core charge distribution:                -38.70122451907286
  Core Hamiltonian energy:                                     12.72031055029422
  Hartree energy:                                              15.49698236116824
  Exchange-correlation energy:                                 -5.62214455846340

  Total energy:                                               -16.10607084936564

  outer SCF iter =    1 RMS gradient =   0.18E-04 energy =        -16.1060708494
  outer SCF loop converged in   1 iterations or    7 steps


 ENERGY| Total FORCE_EVAL ( QS ) energy [a.u.]:              -16.106070851652490

 STRESS| Analytical stress tensor [GPa]
 STRESS|                        x                   y                   z
 STRESS|      x       -1.24020325163E-02  -2.31631527681E-02  -3.35912131992E-02
 STRESS|      y       -2.31631527681E-02  -2.99666231690E-02  -1.71285038626E-02
 STRESS|      z       -3.35912131992E-02  -1.71285038626E-02  -7.16939627081E-02
 STRESS| 1/3 Trace                                            -3.80208727978E-02
 STRESS| Determinant                                           2.26185983331E-05

 STRESS| Eigenvectors and eigenvalues of the analytical stress tensor [GPa]
 STRESS|                        1                   2                   3
 STRESS| Eigenvalues  -9.66235216522E-02  -2.63297870014E-02   8.89069026026E-03
 STRESS|      x           0.429520058884      0.227736489348      0.873869904755
 STRESS|      y           0.361866489873      0.843187063090     -0.397603093732
 STRESS|      z           0.827384531233     -0.487002739271     -0.279755552972

 Number of electrons:                                                         14
 Number of occupied orbitals:                                                  7
 Number of molecular orbitals:                                                 7

 Number of orbital functions:                                                 14
 Number of independent orbital functions:                                     14

 Extrapolation method: ASPC


 SCF WAVEFUNCTION OPTIMIZATION

  ----------------------------------- OT ---------------------------------------
  Minimizer      : CG                  : conjugate gradient
  Preconditioner : FULL_ALL            : diagonalization, state selective
  Precond_solver : DEFAULT
  Line search    : 2PNT                : 2 energies, one gradient
  stepsize       :    0.15000000                  energy_gap     :    0.08000000
  eps_taylor     :   0.10000E-15                  max_taylor     :             4
  ----------------------------------- OT ---------------------------------------

  Step     Update method      Time    Convergence         Total energy    Change
  ------------------------------------------------------------------------------
     1 OT CG       0.15E+00    0.3     0.00858906       -16.1053880302 -1.61E+01
     2 OT LS       0.19E+00    0.4                      -16.1060397058
     3 OT CG       0.19E+00    0.6     0.00053296       -16.1060668982 -6.79E-04
     4 OT LS       0.21E+00    0.4                      -16.1060697943
     5 OT CG       0.21E+00    0.6     0.00013314       -16.1060698310 -2.93E-06
     6 OT LS       0.17E+00    0.4                      -16.1060699682
     7 OT CG       0.17E+00    0.6     0.00000977       -16.1060699776 -1.47E-07

  *** SCF run converged in     7 steps ***


  Electronic density on regular grids:        -13.9999999997        0.0000000003
  Core density on regular grids:               13.9999999987       -0.0000000013
  Total charge density on r-space grids:       -0.0000000010
  Total charge density g-space grids:          -0.0000000010

  Overlap energy of the core charge distribution:               0.00000531670817
  Self energy of the core charge distribution:                -38.70122451907286
  Core Hamiltonian energy:                                     12.72021565619183
  Hartree energy:                                              15.49706213991240
  Exchange-correlation energy:                                 -5.62212857135309

  Total energy:                                               -16.10606997761355

  outer SCF iter =    1 RMS gradient =   0.98E-05 energy =        -16.1060699776
  outer SCF loop converged in   1 iterations or    7 steps


 ENERGY| Total FORCE_EVAL ( QS ) energy [a.u.]:              -16.106069978372442

 STRESS| Analytical stress tensor [GPa]
 STRESS|                        x                   y                   z
 STRESS|      x       -1.24147829514E-02  -2.31422290091E-02  -3.35953062545E-02
 STRESS|      y       -2.31422290091E-02  -2.99526935760E-02  -1.71350952431E-02
 STRESS|      z       -3.35953062545E-02  -1.71350952431E-02  -7.16372932798E-02
 STRESS| 1/3 Trace                                            -3.80015899357E-02
 STRESS| Determinant                                           2.25345104044E-05

 STRESS| Eigenvectors and eigenvalues of the analytical stress tensor [GPa]
 STRESS|                        1                   2                   3
 STRESS| Eigenvalues  -9.65856131144E-02  -2.62927523441E-02   8.87359565140E-03
 STRESS|      x           0.429701670597      0.227246130445      0.873908273496
 STRESS|      y           0.361970774912      0.843300061554     -0.397268378168
 STRESS|      z           0.827244602518     -0.487036140733     -0.280110987331

 Number of electrons:                                                         14
 Number of occupied orbitals:                                                  7
 Number of molecular orbitals:                                                 7

 Number of orbital functions:                                                 14
 Number of independent orbital functions:                                     14

 Extrapolation method: ASPC


 SCF WAVEFUNCTION OPTIMIZATION

  ----------------------------------- OT ---------------------------------------
  Minimizer      : CG                  : conjugate gradient
  Preconditioner : FULL_ALL            : diagonalization, state selective
  Precond_solver : DEFAULT
  Line search    : 2PNT                : 2 energies, one gradient
  stepsize       :    0.15000000                  energy_gap     :    0.08000000
  eps_taylor     :   0.10000E-15                  max_taylor     :             4
  ----------------------------------- OT ---------------------------------------

  Step     Update method      Time    Convergence         Total energy    Change
  ------------------------------------------------------------------------------
     1 OT CG       0.15E+00    0.3     0.00860796       -16.1042208840 -1.61E+01
     2 OT LS       0.19E+00    0.3                      -16.1048759218
     3 OT CG       0.19E+00    0.6     0.00055295       -16.1049043378 -6.83E-04
     4 OT LS       0.22E+00    0.3                      -16.1049075323
     5 OT CG       0.22E+00    0.6     0.00013533       -16.1049075891 -3.25E-06
     6 OT LS       0.16E+00    0.3                      -16.1049077145
     7 OT CG       0.16E+00    0.6     0.00001130       -16.1049077326 -1.44E-07

  *** SCF run converged in     7 steps ***


  Electronic density on regular grids:        -13.9999999997        0.0000000003
  Core density on regular grids:               13.9999999987       -0.0000000013
  Total charge density on r-space grids:       -0.0000000010
  Total charge density g-space grids:          -0.0000000010

  Overlap energy of the core charge distribution:               0.00000486312525
  Self energy of the core charge distribution:                -38.70122451907286
  Core Hamiltonian energy:                                     12.71329278274288
  Hartree energy:                                              15.50292052545082
  Exchange-correlation energy:                                 -5.61990138488208

  Total energy:                                               -16.10490773263599

  outer SCF iter =    1 RMS gradient =   0.11E-04 energy =        -16.1049077326
  outer SCF loop converged in   1 iterations or    7 steps


 ENERGY| Total FORCE_EVAL ( QS ) energy [a.u.]:              -16.104907733617434

 STRESS| Analytical stress tensor [GPa]
 STRESS|                        x                   y                   z
 STRESS|      x       -1.68553362141E-02  -2.64788980511E-02  -3.19433071139E-02
 STRESS|      y       -2.64788980511E-02  -3.15382645291E-02  -1.46333961199E-02
 STRESS|      z       -3.19433071139E-02  -1.46333961199E-02  -9.76277770014E-02
 STRESS| 1/3 Trace                                            -4.86737925815E-02
 STRESS| Determinant                                           2.75878516340E-05

 STRESS| Eigenvectors and eigenvalues of the analytical stress tensor [GPa]
 STRESS|                        1                   2                   3
 STRESS| Eigenvalues  -1.15086112904E-01  -3.73528446506E-02   6.41757980966E-03
 STRESS|      x           0.362989476197      0.407361824089      0.838030419762
 STRESS|      y           0.271181543905      0.814258510033     -0.513267619361
 STRESS|      z           0.891459034626     -0.413569127370     -0.185098261661

 Number of electrons:                                                         14
 Number of occupied orbitals:                                                  7
 Number of molecular orbitals:                                                 7

 Number of orbital functions:                                                 14
 Number of independent orbital functions:                                     14

 Extrapolation method: ASPC


 SCF WAVEFUNCTION OPTIMIZATION

  ----------------------------------- OT ---------------------------------------
  Minimizer      : CG                  : conjugate gradient
  Preconditioner : FULL_ALL            : diagonalization, state selective
  Precond_solver : DEFAULT
  Line search    : 2PNT                : 2 energies, one gradient
  stepsize       :    0.15000000                  energy_gap     :    0.08000000
  eps_taylor     :   0.10000E-15                  max_taylor     :             4
  ----------------------------------- OT ---------------------------------------

  Step     Update method      Time    Convergence         Total energy    Change
  ------------------------------------------------------------------------------
     1 OT CG       0.15E+00    0.3     0.00859934       -16.1042137199 -1.61E+01
     2 OT LS       0.19E+00    0.3                      -16.1048697463
     3 OT CG       0.19E+00    0.6     0.00068296       -16.1048987276 -6.85E-04
     4 OT LS       0.18E+00    0.3                      -16.1049028700
     5 OT CG       0.18E+00    0.6     0.00020776       -16.1049028765 -4.15E-06
     6 OT LS       0.18E+00    0.3                      -16.1049032535
     7 OT CG       0.18E+00    0.6     0.00001360       -16.1049032536 -3.77E-07

  *** SCF run converged in     7 steps ***


  Electronic density on regular grids:        -13.9999999997        0.0000000003
  Core density on regular grids:               13.9999999987       -0.0000000013
  Total charge density on r-space grids:       -0.0000000010
  Total charge density g-space grids:          -0.0000000010

  Overlap energy of the core charge distribution:               0.00000486312525
  Self energy of the core charge distribution:                -38.70122451907286
  Core Hamiltonian energy:                                     12.71334468808645
  Hartree energy:                                              15.50288212758420
  Exchange-correlation energy:                                 -5.61991041336168

  Total energy:                                               -16.10490325363864

  outer SCF iter =    1 RMS gradient =   0.14E-04 energy =        -16.1049032536
  outer SCF loop converged in   1 iterations or    7 steps


 ENERGY| Total FORCE_EVAL ( QS ) energy [a.u.]:              -16.104903255073324

 STRESS| Analytical stress tensor [GPa]
 STRESS|                        x                   y                   z
 STRESS|      x       -1.69082270153E-02  -2.64764371734E-02  -3.19637080621E-02
 STRESS|      y       -2.64764371734E-02  -3.15654123611E-02  -1.46475699138E-02
 STRESS|      z       -3.19637080621E-02  -1.46475699138E-02  -9.76300280464E-02
 STRESS| 1/3 Trace                                            -4.87012224743E-02
 STRESS| Determinant                                           2.74175411952E-05

 STRESS| Eigenvectors and eigenvalues of the analytical stress tensor [GPa]
 STRESS|                        1                   2                   3
 STRESS| Eigenvalues  -1.15116449655E-01  -3.73619454327E-02   6.37472766438E-03
 STRESS|      x           0.363248278255      0.407206154470      0.837993935603
 STRESS|      y           0.271365448437      0.814194932091     -0.513271279104
 STRESS|      z           0.891297639254     -0.413847508534     -0.185253226532

 Number of electrons:                                                         14
 Number of occupied orbitals:                                                  7
 Number of molecular orbitals:                                                 7

 Number of orbital functions:                                                 14
 Number of independent orbital functions:                                     14

 Extrapolation method: ASPC


 SCF WAVEFUNCTION OPTIMIZATION

  ----------------------------------- OT ---------------------------------------
  Minimizer      : CG                  : conjugate gradient
  Preconditioner : FULL_ALL            : diagonalization, state selective
  Precond_solver : DEFAULT
  Line search    : 2PNT                : 2 energies, one gradient
  stepsize       :    0.15000000                  energy_gap     :    0.08000000
  eps_taylor     :   0.10000E-15                  max_taylor     :             4
  ----------------------------------- OT ---------------------------------------

  Step     Update method      Time    Convergence         Total energy    Change
  ------------------------------------------------------------------------------
     1 OT CG       0.15E+00    0.3     0.00878235       -16.1036993111 -1.61E+01
     2 OT LS       0.19E+00    0.3                      -16.1043812873
     3 OT CG       0.19E+00    0.6     0.00088037       -16.1044107952 -7.11E-04
     4 OT LS       0.17E+00    0.3                      -16.1044172651
     5 OT CG       0.17E+00    0.5     0.00025662       -16.1044173247 -6.53E-06
     6 OT LS       0.19E+00    0.3                      -16.1044179261
     7 OT CG       0.19E+00    0.5     0.00001142       -16.1044179305 -6.06E-07

  *** SCF run converged in     7 steps ***


  Electronic density on regular grids:        -13.9999999997        0.0000000003
  Core density on regular grids:               13.9999999987       -0.0000000013
  Total charge density on r-space grids:       -0.0000000010
  Total charge density g-space grids:          -0.0000000010

  Overlap energy of the core charge distribution:               0.00000467393629
  Self energy of the core charge distribution:                -38.70122451907286
  Core Hamiltonian energy:                                     12.70185235140817
  Hartree energy:                                              15.51145754974518
  Exchange-correlation energy:                                 -5.61650798649190

  Total energy:                                               -16.10441793047512

  outer SCF iter =    1 RMS gradient =   0.11E-04 energy =        -16.1044179305
  outer SCF loop converged in   1 iterations or    7 steps


 ENERGY| Total FORCE_EVAL ( QS ) energy [a.u.]:              -16.104417931521457

 STRESS| Analytical stress tensor [GPa]
 STRESS|                        x                   y                   z
 STRESS|      x       -3.01302913150E-02  -3.51671650959E-02  -2.67433400640E-02
 STRESS|      y       -3.51671650959E-02  -3.68424158915E-02  -1.03130777880E-02
 STRESS|      z       -2.67433400640E-02  -1.03130777880E-02  -1.34405203577E-01
 STRESS| 1/3 Trace                                            -6.71259702612E-02
 STRESS| Determinant                                           2.71792599640E-05

 STRESS| Eigenvectors and eigenvalues of the analytical stress tensor [GPa]
 STRESS|                        1                   2                   3
 STRESS| Eigenvalues  -1.44238644250E-01  -6.02659504923E-02   3.12668395837E-03
 STRESS|      x           0.277031987504      0.588396197579      0.759633590999
 STRESS|      y           0.181326769592      0.744357297761     -0.642691851434
 STRESS|      z           0.943596248683     -0.315788106085     -0.099518799864

 Number of electrons:                                                         14
 Number of occupied orbitals:                                                  7
 Number of molecular orbitals:                                                 7

 Number of orbital functions:                                                 14
 Number of independent orbital functions:                                     14

 Extrapolation method: ASPC


 SCF WAVEFUNCTION OPTIMIZATION

  ----------------------------------- OT ---------------------------------------
  Minimizer      : CG                  : conjugate gradient
  Preconditioner : FULL_ALL            : diagonalization, state selective
  Precond_solver : DEFAULT
  Line search    : 2PNT                : 2 energies, one gradient
  stepsize       :    0.15000000                  energy_gap     :    0.08000000
  eps_taylor     :   0.10000E-15                  max_taylor     :             4
  ----------------------------------- OT ---------------------------------------

  Step     Update method      Time    Convergence         Total energy    Change
  ------------------------------------------------------------------------------
     1 OT CG       0.15E+00    0.3     0.00890178       -16.1036734734 -1.61E+01
     2 OT LS       0.19E+00    0.3                      -16.1043739398
     3 OT CG       0.19E+00    0.5     0.00114171       -16.1044037167 -7.30E-04
     4 OT LS       0.16E+00    0.3                      -16.1044133826
     5 OT CG       0.16E+00    0.6     0.00028522       -16.1044137638 -1.00E-05
     6 OT LS       0.21E+00    0.3                      -16.1044145383
     7 OT CG       0.21E+00    0.6     0.00001074       -16.1044145832 -8.19E-07

  *** SCF run converged in     7 steps ***


  Electronic density on regular grids:        -13.9999999997        0.0000000003
  Core density on regular grids:               13.9999999987       -0.0000000013
  Total charge density on r-space grids:       -0.0000000010
  Total charge density g-space grids:          -0.0000000010

  Overlap energy of the core charge distribution:               0.00000467393629
  Self energy of the core charge distribution:                -38.70122451907286
  Core Hamiltonian energy:                                     12.70184638815938
  Hartree energy:                                              15.51146598790221
  Exchange-correlation energy:                                 -5.61650711412646

  Total energy:                                               -16.10441458320145

  outer SCF iter =    1 RMS gradient =   0.11E-04 energy =        -16.1044145832
  outer SCF loop converged in   1 iterations or    7 steps


 ENERGY| Total FORCE_EVAL ( QS ) energy [a.u.]:              -16.104414584144664

 STRESS| Analytical stress tensor [GPa]
 STRESS|                        x                   y                   z
 STRESS|      x       -3.01508513703E-02  -3.51765541828E-02  -2.67605702906E-02
 STRESS|      y       -3.51765541828E-02  -3.68701809035E-02  -1.03255767324E-02
 STRESS|      z       -2.67605702906E-02  -1.03255767324E-02  -1.34391062641E-01
 STRESS| 1/3 Trace                                            -6.71373649716E-02
 STRESS| Determinant                                           2.70745264864E-05

 STRESS| Eigenvectors and eigenvalues of the analytical stress tensor [GPa]
 STRESS|                        1                   2                   3
 STRESS| Eigenvalues  -1.44242784175E-01  -6.02829771458E-02   3.11366640602E-03
 STRESS|      x           0.277276309217      0.588220303281      0.759680671832
 STRESS|      y           0.181569387314      0.744355645202     -0.642625264868
 STRESS|      z           0.943477824825     -0.316119515791     -0.099589385975

 Number of electrons:                                                         14
 Number of occupied orbitals:                                                  7
 Number of molecular orbitals:                                                 7

 Number of orbital functions:                                                 14
 Number of independent orbital functions:                                     14

 Extrapolation method: ASPC


 SCF WAVEFUNCTION OPTIMIZATION

  ----------------------------------- OT ---------------------------------------
  Minimizer      : CG                  : conjugate gradient
  Preconditioner : FULL_ALL            : diagonalization, state selective
  Precond_solver : DEFAULT
  Line search    : 2PNT                : 2 energies, one gradient
  stepsize       :    0.15000000                  energy_gap     :    0.08000000
  eps_taylor     :   0.10000E-15                  max_taylor     :             4
  ----------------------------------- OT ---------------------------------------

  Step     Update method      Time    Convergence         Total energy    Change
  ------------------------------------------------------------------------------
     1 OT CG       0.15E+00    0.4     0.00921767       -16.1037387612 -1.61E+01
     2 OT LS       0.19E+00    0.4                      -16.1044849414
     3 OT CG       0.19E+00    0.7     0.00136670       -16.1045144299 -7.76E-04
     4 OT LS       0.16E+00    0.4                      -16.1045284832
     5 OT CG       0.16E+00    0.7     0.00033204       -16.1045289315 -1.45E-05
     6 OT LS       0.20E+00    0.4                      -16.1045299806
     7 OT CG       0.20E+00    0.7     0.00000918       -16.1045300369 -1.11E-06

  *** SCF run converged in     7 steps ***


  Electronic density on regular grids:        -13.9999999997        0.0000000003
  Core density on regular grids:               13.9999999987       -0.0000000013
  Total charge density on r-space grids:       -0.0000000010
  Total charge density g-space grids:          -0.0000000010

  Overlap energy of the core charge distribution:               0.00000474723808
  Self energy of the core charge distribution:                -38.70122451907286
  Core Hamiltonian energy:                                     12.68683840822917
  Hartree energy:                                              15.52216036146734
  Exchange-correlation energy:                                 -5.61230903477349

  Total energy:                                               -16.10453003691175

  outer SCF iter =    1 RMS gradient =   0.92E-05 energy =        -16.1045300369
  outer SCF loop converged in   1 iterations or    7 steps


 ENERGY| Total FORCE_EVAL ( QS ) energy [a.u.]:              -16.104530037647709

 STRESS| Analytical stress tensor [GPa]
 STRESS|                        x                   y                   z
 STRESS|      x       -4.92296140372E-02  -4.74916452033E-02  -1.75796462546E-02
 STRESS|      y       -4.74916452033E-02  -4.56395921391E-02  -3.16802704469E-03
 STRESS|      z       -1.75796462546E-02  -3.16802704469E-03  -1.77038414024E-01
 STRESS| 1/3 Trace                                            -9.06358734001E-02
 STRESS| Determinant                                           1.08378990629E-05

 STRESS| Eigenvectors and eigenvalues of the analytical stress tensor [GPa]
 STRESS|                        1                   2                   3
 STRESS| Eigenvalues  -1.80174956762E-01  -9.23837743510E-02   6.51110912375E-04
 STRESS|      x           0.161087100335      0.696932721261     -0.698810223266
 STRESS|      y           0.080028389507      0.696501791573      0.713078334552
 STRESS|      z           0.983690196647     -0.170792377964      0.056423050705

 Number of electrons:                                                         14
 Number of occupied orbitals:                                                  7
 Number of molecular orbitals:                                                 7

 Number of orbital functions:                                                 14
 Number of independent orbital functions:                                     14

 Extrapolation method: ASPC


 SCF WAVEFUNCTION OPTIMIZATION

  ----------------------------------- OT ---------------------------------------
  Minimizer      : CG                  : conjugate gradient
  Preconditioner : FULL_ALL            : diagonalization, state selective
  Precond_solver : DEFAULT
  Line search    : 2PNT                : 2 energies, one gradient
  stepsize       :    0.15000000                  energy_gap     :    0.08000000
  eps_taylor     :   0.10000E-15                  max_taylor     :             4
  ----------------------------------- OT ---------------------------------------

  Step     Update method      Time    Convergence         Total energy    Change
  ------------------------------------------------------------------------------
     1 OT CG       0.15E+00    0.3     0.00941602       -16.1037000368 -1.61E+01
     2 OT LS       0.19E+00    0.3                      -16.1044764710
     3 OT CG       0.19E+00    0.6     0.00164434       -16.1045059529 -8.06E-04
     4 OT LS       0.15E+00    0.3                      -16.1045253874
     5 OT CG       0.15E+00    0.6     0.00035073       -16.1045262780 -2.03E-05
     6 OT LS       0.21E+00    0.3                      -16.1045274620
     7 OT CG       0.21E+00    0.6     0.00001016       -16.1045275629 -1.28E-06

  *** SCF run converged in     7 steps ***


  Electronic density on regular grids:        -13.9999999997        0.0000000003
  Core density on regular grids:               13.9999999987       -0.0000000013
  Total charge density on r-space grids:       -0.0000000011
  Total charge density g-space grids:          -0.0000000011

  Overlap energy of the core charge distribution:               0.00000474723808
  Self energy of the core charge distribution:                -38.70122451907286
  Core Hamiltonian energy:                                     12.68682928679650
  Hartree energy:                                              15.52216810146613
  Exchange-correlation energy:                                 -5.61230517935910

  Total energy:                                               -16.10452756293125

  outer SCF iter =    1 RMS gradient =   0.10E-04 energy =        -16.1045275629
  outer SCF loop converged in   1 iterations or    7 steps


 ENERGY| Total FORCE_EVAL ( QS ) energy [a.u.]:              -16.104527563796374

 STRESS| Analytical stress tensor [GPa]
 STRESS|                        x                   y                   z
 STRESS|      x       -4.92358452343E-02  -4.75126383449E-02  -1.75869704102E-02
 STRESS|      y       -4.75126383449E-02  -4.56746424333E-02  -3.17389113428E-03
 STRESS|      z       -1.75869704102E-02  -3.17389113428E-03  -1.77035645290E-01
 STRESS| 1/3 Trace                                            -9.06487109858E-02
 STRESS| Determinant                                           1.08452454987E-05

 STRESS| Eigenvectors and eigenvalues of the analytical stress tensor [GPa]
 STRESS|                        1                   2                   3
 STRESS| Eigenvalues  -1.80176452213E-01  -9.24209654141E-02   6.51284669458E-04
 STRESS|      x           0.161203400947      0.696789602543     -0.698926114343
 STRESS|      y           0.080156771525      0.696604895663      0.712963190717
 STRESS|      z           0.983660691246     -0.170955751954      0.056442673325

 Number of electrons:                                                         14
 Number of occupied orbitals:                                                  7
 Number of molecular orbitals:                                                 7

 Number of orbital functions:                                                 14
 Number of independent orbital functions:                                     14

 Extrapolation method: ASPC


 SCF WAVEFUNCTION OPTIMIZATION

  ----------------------------------- OT ---------------------------------------
  Minimizer      : CG                  : conjugate gradient
  Preconditioner : FULL_ALL            : diagonalization, state selective
  Precond_solver : DEFAULT
  Line search    : 2PNT                : 2 energies, one gradient
  stepsize       :    0.15000000                  energy_gap     :    0.08000000
  eps_taylor     :   0.10000E-15                  max_taylor     :             4
  ----------------------------------- OT ---------------------------------------

  Step     Update method      Time    Convergence         Total energy    Change
  ------------------------------------------------------------------------------
     1 OT CG       0.15E+00    0.3     0.00976664       -16.1040549610 -1.61E+01
     2 OT LS       0.18E+00    0.3                      -16.1048847711
     3 OT CG       0.18E+00    0.5     0.00182780       -16.1049136191 -8.59E-04
     4 OT LS       0.16E+00    0.3                      -16.1049383961
     5 OT CG       0.16E+00    0.5     0.00039459       -16.1049391844 -2.56E-05
     6 OT LS       0.21E+00    0.3                      -16.1049406771
     7 OT CG       0.21E+00    0.6     0.00001141       -16.1049407783 -1.59E-06

  *** SCF run converged in     7 steps ***


  Electronic density on regular grids:        -13.9999999997        0.0000000003
  Core density on regular grids:               13.9999999987       -0.0000000013
  Total charge density on r-space grids:       -0.0000000011
  Total charge density g-space grids:          -0.0000000011

  Overlap energy of the core charge distribution:               0.00000513133754
  Self energy of the core charge distribution:                -38.70122451907286
  Core Hamiltonian energy:                                     12.67012240285781
  Hartree energy:                                              15.53406529356397
  Exchange-correlation energy:                                 -5.60790908695036

  Total energy:                                               -16.10494077826391

  outer SCF iter =    1 RMS gradient =   0.11E-04 energy =        -16.1049407783
  outer SCF loop converged in   1 iterations or    7 steps


 ENERGY| Total FORCE_EVAL ( QS ) energy [a.u.]:              -16.104940779271772

 STRESS| Analytical stress tensor [GPa]
 STRESS|                        x                   y                   z
 STRESS|      x       -6.94305274005E-02  -6.02342438639E-02  -5.06497454278E-03
 STRESS|      y       -6.02342438639E-02  -5.63778628796E-02   6.93142112050E-03
 STRESS|      z       -5.06497454278E-03   6.93142112050E-03  -2.18030185560E-01
 STRESS| 1/3 Trace                                            -1.14612858613E-01
 STRESS| Determinant                                          -5.33845919187E-05

 STRESS| Eigenvectors and eigenvalues of the analytical stress tensor [GPa]
 STRESS|                        1                   2                   3
 STRESS| Eigenvalues  -2.18375665422E-01  -1.23483190077E-01  -1.97972034097E-03
 STRESS|      x           0.019642075693      0.744612448188     -0.667207981716
 STRESS|      y          -0.035448635552      0.667435806206      0.743823123351
 STRESS|      z           0.999178454081      0.009041382490      0.039505319929

 Number of electrons:                                                         14
 Number of occupied orbitals:                                                  7
 Number of molecular orbitals:                                                 7

 Number of orbital functions:                                                 14
 Number of independent orbital functions:                                     14

 Extrapolation method: ASPC


 SCF WAVEFUNCTION OPTIMIZATION

  ----------------------------------- OT ---------------------------------------
  Minimizer      : CG                  : conjugate gradient
  Preconditioner : FULL_ALL            : diagonalization, state selective
  Precond_solver : DEFAULT
  Line search    : 2PNT                : 2 energies, one gradient
  stepsize       :    0.15000000                  energy_gap     :    0.08000000
  eps_taylor     :   0.10000E-15                  max_taylor     :             4
  ----------------------------------- OT ---------------------------------------

  Step     Update method      Time    Convergence         Total energy    Change
  ------------------------------------------------------------------------------
     1 OT CG       0.15E+00    0.3     0.00996217       -16.1040159854 -1.61E+01
     2 OT LS       0.18E+00    0.3                      -16.1048767081
     3 OT CG       0.18E+00    0.6     0.00208244       -16.1049055718 -8.90E-04
     4 OT LS       0.15E+00    0.4                      -16.1049370306
     5 OT CG       0.15E+00    0.6     0.00040587       -16.1049382243 -3.27E-05
     6 OT LS       0.21E+00    0.4                      -16.1049398158
     7 OT CG       0.21E+00    0.6     0.00001496       -16.1049399552 -1.73E-06

  *** SCF run converged in     7 steps ***


  Electronic density on regular grids:        -13.9999999997        0.0000000003
  Core density on regular grids:               13.9999999987       -0.0000000013
  Total charge density on r-space grids:       -0.0000000011
  Total charge density g-space grids:          -0.0000000011

  Overlap energy of the core charge distribution:               0.00000513133754
  Self energy of the core charge distribution:                -38.70122451907286
  Core Hamiltonian energy:                                     12.67012669306153
  Hartree energy:                                              15.53405814259258
  Exchange-correlation energy:                                 -5.60790540315902

  Total energy:                                               -16.10493995524023

  outer SCF iter =    1 RMS gradient =   0.15E-04 energy =        -16.1049399552
  outer SCF loop converged in   1 iterations or    7 steps


 ENERGY| Total FORCE_EVAL ( QS ) energy [a.u.]:              -16.104939956791672

 STRESS| Analytical stress tensor [GPa]
 STRESS|                        x                   y                   z
 STRESS|      x       -6.94401357314E-02  -6.02486696182E-02  -5.06088497105E-03
 STRESS|      y       -6.02486696182E-02  -5.63947504212E-02   6.93420474425E-03
 STRESS|      z       -5.06088497105E-03   6.93420474425E-03  -2.18050759542E-01
 STRESS| 1/3 Trace                                            -1.14628548565E-01
 STRESS| Determinant                                          -5.33847804937E-05

 STRESS| Eigenvectors and eigenvalues of the analytical stress tensor [GPa]
 STRESS|                        1                   2                   3
 STRESS| Eigenvalues  -2.18396247409E-01  -1.23510291894E-01  -1.97910639177E-03
 STRESS|      x           0.019597081461      0.744586088143     -0.667238721705
 STRESS|      y          -0.035479970317      0.667464452243      0.743795924093
 STRESS|      z           0.999178225396      0.009097380726      0.039498247549

 Number of electrons:                                                         14
 Number of occupied orbitals:                                                  7
 Number of molecular orbitals:                                                 7

 Number of orbital functions:                                                 14
 Number of independent orbital functions:                                     14

 Extrapolation method: ASPC


 SCF WAVEFUNCTION OPTIMIZATION

  ----------------------------------- OT ---------------------------------------
  Minimizer      : CG                  : conjugate gradient
  Preconditioner : FULL_ALL            : diagonalization, state selective
  Precond_solver : DEFAULT
  Line search    : 2PNT                : 2 energies, one gradient
  stepsize       :    0.15000000                  energy_gap     :    0.08000000
  eps_taylor     :   0.10000E-15                  max_taylor     :             4
  ----------------------------------- OT ---------------------------------------

  Step     Update method      Time    Convergence         Total energy    Change
  ------------------------------------------------------------------------------
     1 OT CG       0.15E+00    0.3     0.01024608       -16.1043175169 -1.61E+01
     2 OT LS       0.18E+00    0.3                      -16.1052242179
     3 OT CG       0.18E+00    0.6     0.00219933       -16.1052527015 -9.35E-04
     4 OT LS       0.16E+00    0.3                      -16.1052886671
     5 OT CG       0.16E+00    0.6     0.00044332       -16.1052896667 -3.70E-05
     6 OT LS       0.21E+00    0.3                      -16.1052915525
     7 OT CG       0.21E+00    0.6     0.00001853       -16.1052916827 -2.02E-06

  *** SCF run converged in     7 steps ***


  Electronic density on regular grids:        -13.9999999998        0.0000000002
  Core density on regular grids:               13.9999999987       -0.0000000013
  Total charge density on r-space grids:       -0.0000000011
  Total charge density g-space grids:          -0.0000000011

  Overlap energy of the core charge distribution:               0.00000590850719
  Self energy of the core charge distribution:                -38.70122451907286
  Core Hamiltonian energy:                                     12.65391917439716
  Hartree energy:                                              15.54602287337821
  Exchange-correlation energy:                                 -5.60401511992929

  Total energy:                                               -16.10529168271959

  outer SCF iter =    1 RMS gradient =   0.19E-04 energy =        -16.1052916827
  outer SCF loop converged in   1 iterations or    7 steps


 ENERGY| Total FORCE_EVAL ( QS ) energy [a.u.]:              -16.105291685018123

 STRESS| Analytical stress tensor [GPa]
 STRESS|                        x                   y                   z
 STRESS|      x       -8.55797873572E-02  -6.96131084602E-02   9.38561708556E-03
 STRESS|      y       -6.96131084602E-02  -6.64932088258E-02   1.91706461905E-02
 STRESS|      z        9.38561708556E-03   1.91706461905E-02  -2.49239157608E-01
 STRESS| 1/3 Trace                                            -1.33770717930E-01
 STRESS| Determinant                                          -1.98221553507E-04

 STRESS| Eigenvectors and eigenvalues of the analytical stress tensor [GPa]
 STRESS|                        1                   2                   3
 STRESS| Eigenvalues  -2.53139244129E-01  -1.42684919528E-01  -5.48799013293E-03
 STRESS|      x          -0.114787348731      0.748323832835     -0.653326339421
 STRESS|      y          -0.143770173804      0.638234810738      0.756297866906
 STRESS|      z           0.982931331119      0.180742268362      0.034325365716

 Number of electrons:                                                         14
 Number of occupied orbitals:                                                  7
 Number of molecular orbitals:                                                 7

 Number of orbital functions:                                                 14
 Number of independent orbital functions:                                     14

 Extrapolation method: ASPC


 SCF WAVEFUNCTION OPTIMIZATION

  ----------------------------------- OT ---------------------------------------
  Minimizer      : CG                  : conjugate gradient
  Preconditioner : FULL_ALL            : diagonalization, state selective
  Precond_solver : DEFAULT
  Line search    : 2PNT                : 2 energies, one gradient
  stepsize       :    0.15000000                  energy_gap     :    0.08000000
  eps_taylor     :   0.10000E-15                  max_taylor     :             4
  ----------------------------------- OT ---------------------------------------

  Step     Update method      Time    Convergence         Total energy    Change
  ------------------------------------------------------------------------------
     1 OT CG       0.15E+00    0.3     0.01036925       -16.1042923663 -1.61E+01
     2 OT LS       0.18E+00    0.4                      -16.1052193375
     3 OT CG       0.18E+00    0.5     0.00241856       -16.1052480476 -9.56E-04
     4 OT LS       0.15E+00    0.4                      -16.1052907750
     5 OT CG       0.15E+00    0.7     0.00044674       -16.1052921892 -4.41E-05
     6 OT LS       0.21E+00    0.4                      -16.1052941152
     7 OT CG       0.21E+00    0.8     0.00002372       -16.1052942791 -2.09E-06

  *** SCF run converged in     7 steps ***


  Electronic density on regular grids:        -13.9999999998        0.0000000002
  Core density on regular grids:               13.9999999987       -0.0000000013
  Total charge density on r-space grids:       -0.0000000011
  Total charge density g-space grids:          -0.0000000011

  Overlap energy of the core charge distribution:               0.00000590850719
  Self energy of the core charge distribution:                -38.70122451907286
  Core Hamiltonian energy:                                     12.65394552197536
  Hartree energy:                                              15.54599312896925
  Exchange-correlation energy:                                 -5.60401431948352

  Total energy:                                               -16.10529427910458

  outer SCF iter =    1 RMS gradient =   0.24E-04 energy =        -16.1052942791
  outer SCF loop converged in   1 iterations or    7 steps


 ENERGY| Total FORCE_EVAL ( QS ) energy [a.u.]:              -16.105294282658136

 STRESS| Analytical stress tensor [GPa]
 STRESS|                        x                   y                   z
 STRESS|      x       -8.55990407131E-02  -6.96176879446E-02   9.39560622781E-03
 STRESS|      y       -6.96176879446E-02  -6.64628039221E-02   1.91777866912E-02
 STRESS|      z        9.39560622781E-03   1.91777866912E-02  -2.49287841843E-01
 STRESS| 1/3 Trace                                            -1.33783228826E-01
 STRESS| Determinant                                          -1.97771404774E-04

 STRESS| Eigenvectors and eigenvalues of the analytical stress tensor [GPa]
 STRESS|                        1                   2                   3
 STRESS| Eigenvalues  -2.53190329506E-01  -1.42684935098E-01  -5.47442187467E-03
 STRESS|      x          -0.114824191122      0.748432258267     -0.653195652097
 STRESS|      y          -0.143761261211      0.638103069160      0.756410717073
 STRESS|      z           0.982928331522      0.180758479507      0.034325896611

 Number of electrons:                                                         14
 Number of occupied orbitals:                                                  7
 Number of molecular orbitals:                                                 7

 Number of orbital functions:                                                 14
 Number of independent orbital functions:                                     14

 Extrapolation method: ASPC


 SCF WAVEFUNCTION OPTIMIZATION

  ----------------------------------- OT ---------------------------------------
  Minimizer      : CG                  : conjugate gradient
  Preconditioner : FULL_ALL            : diagonalization, state selective
  Precond_solver : DEFAULT
  Line search    : 2PNT                : 2 energies, one gradient
  stepsize       :    0.15000000                  energy_gap     :    0.08000000
  eps_taylor     :   0.10000E-15                  max_taylor     :             4
  ----------------------------------- OT ---------------------------------------

  Step     Update method      Time    Convergence         Total energy    Change
  ------------------------------------------------------------------------------
     1 OT CG       0.15E+00    0.4     0.01051856       -16.1042890159 -1.61E+01
     2 OT LS       0.18E+00    0.4                      -16.1052425789
     3 OT CG       0.18E+00    0.8     0.00245621       -16.1052716427 -9.83E-04
     4 OT LS       0.16E+00    0.4                      -16.1053163350
     5 OT CG       0.16E+00    0.8     0.00047610       -16.1053175837 -4.59E-05
     6 OT LS       0.21E+00    0.4                      -16.1053197505
     7 OT CG       0.21E+00    0.8     0.00002769       -16.1053198995 -2.32E-06

  *** SCF run converged in     7 steps ***


  Electronic density on regular grids:        -13.9999999998        0.0000000002
  Core density on regular grids:               13.9999999987       -0.0000000013
  Total charge density on r-space grids:       -0.0000000011
  Total charge density g-space grids:          -0.0000000011

  Overlap energy of the core charge distribution:               0.00000718345519
  Self energy of the core charge distribution:                -38.70122451907286
  Core Hamiltonian energy:                                     12.64030069745595
  Hartree energy:                                              15.55688463601555
  Exchange-correlation energy:                                 -5.60128789733622

  Total energy:                                               -16.10531989948240

  outer SCF iter =    1 RMS gradient =   0.28E-04 energy =        -16.1053198995
  outer SCF loop converged in   1 iterations or    7 steps


 ENERGY| Total FORCE_EVAL ( QS ) energy [a.u.]:              -16.105319904472609

 STRESS| Analytical stress tensor [GPa]
 STRESS|                        x                   y                   z
 STRESS|      x       -9.33311029748E-02  -7.23081071871E-02   2.39992488265E-02
 STRESS|      y       -7.23081071871E-02  -7.31709549868E-02   3.20984199556E-02
 STRESS|      z        2.39992488265E-02   3.20984199556E-02  -2.63818723088E-01
 STRESS| 1/3 Trace                                            -1.43440260350E-01
 STRESS| Determinant                                          -3.95384713195E-04

 STRESS| Eigenvectors and eigenvalues of the analytical stress tensor [GPa]
 STRESS|                        1                   2                   3
 STRESS| Eigenvalues  -2.76817233768E-01  -1.43553799839E-01  -9.94974744176E-03
 STRESS|      x          -0.213217792814      0.730263829917     -0.649039992252
 STRESS|      y          -0.225541182042      0.609582083621      0.759961090143
 STRESS|      z           0.950615247106      0.308422473309      0.034730820993

 Number of electrons:                                                         14
 Number of occupied orbitals:                                                  7
 Number of molecular orbitals:                                                 7

 Number of orbital functions:                                                 14
 Number of independent orbital functions:                                     14

 Extrapolation method: ASPC


 SCF WAVEFUNCTION OPTIMIZATION

  ----------------------------------- OT ---------------------------------------
  Minimizer      : CG                  : conjugate gradient
  Preconditioner : FULL_ALL            : diagonalization, state selective
  Precond_solver : DEFAULT
  Line search    : 2PNT                : 2 energies, one gradient
  stepsize       :    0.15000000                  energy_gap     :    0.08000000
  eps_taylor     :   0.10000E-15                  max_taylor     :             4
  ----------------------------------- OT ---------------------------------------

  Step     Update method      Time    Convergence         Total energy    Change
  ------------------------------------------------------------------------------
     1 OT CG       0.15E+00    0.3     0.01052820       -16.1042834315 -1.61E+01
     2 OT LS       0.18E+00    0.3                      -16.1052388701
     3 OT CG       0.18E+00    0.6     0.00263404       -16.1052684044 -9.85E-04
     4 OT LS       0.15E+00    0.3                      -16.1053187731
     5 OT CG       0.15E+00    0.6     0.00047144       -16.1053205372 -5.21E-05
     6 OT LS       0.21E+00    0.3                      -16.1053226695
     7 OT CG       0.21E+00    0.6     0.00003367       -16.1053228484 -2.31E-06

  *** SCF run converged in     7 steps ***


  Electronic density on regular grids:        -13.9999999998        0.0000000002
  Core density on regular grids:               13.9999999987       -0.0000000013
  Total charge density on r-space grids:       -0.0000000011
  Total charge density g-space grids:          -0.0000000011

  Overlap energy of the core charge distribution:               0.00000718345519
  Self energy of the core charge distribution:                -38.70122451907286
  Core Hamiltonian energy:                                     12.64035056901870
  Hartree energy:                                              15.55683084541351
  Exchange-correlation energy:                                 -5.60128692723421

  Total energy:                                               -16.10532284841966

  outer SCF iter =    1 RMS gradient =   0.34E-04 energy =        -16.1053228484
  outer SCF loop converged in   1 iterations or    7 steps


 ENERGY| Total FORCE_EVAL ( QS ) energy [a.u.]:              -16.105322855589563

 STRESS| Analytical stress tensor [GPa]
 STRESS|                        x                   y                   z
 STRESS|      x       -9.33610118423E-02  -7.23170109173E-02   2.40069711925E-02
 STRESS|      y       -7.23170109173E-02  -7.31339072927E-02   3.21036529822E-02
 STRESS|      z        2.40069711925E-02   3.21036529822E-02  -2.63899460128E-01
 STRESS| 1/3 Trace                                            -1.43464793088E-01
 STRESS| Determinant                                          -3.94838660390E-04

 STRESS| Eigenvectors and eigenvalues of the analytical stress tensor [GPa]
 STRESS|                        1                   2                   3
 STRESS| Eigenvalues  -2.76895901468E-01  -1.43566148917E-01  -9.93232887838E-03
 STRESS|      x          -0.213175590396      0.730427195011     -0.648870002734
 STRESS|      y          -0.225437227188      0.609440510300      0.760105467026
 STRESS|      z           0.950649369777      0.308315385918      0.034747640912

 Number of electrons:                                                         14
 Number of occupied orbitals:                                                  7
 Number of molecular orbitals:                                                 7

 Number of orbital functions:                                                 14
 Number of independent orbital functions:                                     14

 Extrapolation method: ASPC


 SCF WAVEFUNCTION OPTIMIZATION

  ----------------------------------- OT ---------------------------------------
  Minimizer      : CG                  : conjugate gradient
  Preconditioner : FULL_ALL            : diagonalization, state selective
  Precond_solver : DEFAULT
  Line search    : 2PNT                : 2 energies, one gradient
  stepsize       :    0.15000000                  energy_gap     :    0.08000000
  eps_taylor     :   0.10000E-15                  max_taylor     :             4
  ----------------------------------- OT ---------------------------------------

  Step     Update method      Time    Convergence         Total energy    Change
  ------------------------------------------------------------------------------
     1 OT CG       0.15E+00    0.3     0.01051422       -16.1038774543 -1.61E+01
     2 OT LS       0.18E+00    0.3                      -16.1048341926
     3 OT CG       0.18E+00    0.6     0.00258337       -16.1048651167 -9.88E-04
     4 OT LS       0.15E+00    0.3                      -16.1049137813
     5 OT CG       0.15E+00    0.5     0.00049173       -16.1049154650 -5.03E-05
     6 OT LS       0.21E+00    0.3                      -16.1049177585
     7 OT CG       0.21E+00    0.5     0.00003667       -16.1049179189 -2.45E-06

  *** SCF run converged in     7 steps ***


  Electronic density on regular grids:        -13.9999999998        0.0000000002
  Core density on regular grids:               13.9999999987       -0.0000000013
  Total charge density on r-space grids:       -0.0000000011
  Total charge density g-space grids:          -0.0000000011

  Overlap energy of the core charge distribution:               0.00000907175612
  Self energy of the core charge distribution:                -38.70122451907286
  Core Hamiltonian energy:                                     12.63081153980060
  Hartree energy:                                              15.56570060956942
  Exchange-correlation energy:                                 -5.60021462099068

  Total energy:                                               -16.10491791893739

  outer SCF iter =    1 RMS gradient =   0.37E-04 energy =        -16.1049179189
  outer SCF loop converged in   1 iterations or    7 steps


 ENERGY| Total FORCE_EVAL ( QS ) energy [a.u.]:              -16.104917927870158

 STRESS| Analytical stress tensor [GPa]
 STRESS|                        x                   y                   z
 STRESS|      x       -8.99053738080E-02  -6.61553908507E-02   3.70545959774E-02
 STRESS|      y       -6.61553908507E-02  -7.41346742453E-02   4.40694627586E-02
 STRESS|      z        3.70545959774E-02   4.40694627586E-02  -2.57527511032E-01
 STRESS| 1/3 Trace                                            -1.40522519695E-01
 STRESS| Determinant                                          -5.29033143712E-04

 STRESS| Eigenvectors and eigenvalues of the analytical stress tensor [GPa]
 STRESS|                        1                   2                   3
 STRESS| Eigenvalues  -2.82106048415E-01  -1.24384935463E-01  -1.50765752076E-02
 STRESS|      x          -0.274329091689      0.707617176542     -0.651169318162
 STRESS|      y          -0.282072435965      0.588149552461      0.757967838901
 STRESS|      z           0.919336005126      0.391609544575      0.038252768214

 Number of electrons:                                                         14
 Number of occupied orbitals:                                                  7
 Number of molecular orbitals:                                                 7

 Number of orbital functions:                                                 14
 Number of independent orbital functions:                                     14

 Extrapolation method: ASPC


 SCF WAVEFUNCTION OPTIMIZATION

  ----------------------------------- OT ---------------------------------------
  Minimizer      : CG                  : conjugate gradient
  Preconditioner : FULL_ALL            : diagonalization, state selective
  Precond_solver : DEFAULT
  Line search    : 2PNT                : 2 energies, one gradient
  stepsize       :    0.15000000                  energy_gap     :    0.08000000
  eps_taylor     :   0.10000E-15                  max_taylor     :             4
  ----------------------------------- OT ---------------------------------------

  Step     Update method      Time    Convergence         Total energy    Change
  ------------------------------------------------------------------------------
     1 OT CG       0.15E+00    0.3     0.01039595       -16.1038901788 -1.61E+01
     2 OT LS       0.18E+00    0.3                      -16.1048276316
     3 OT CG       0.18E+00    0.6     0.00271475       -16.1048591839 -9.69E-04
     4 OT LS       0.15E+00    0.3                      -16.1049115309
     5 OT CG       0.15E+00    0.6     0.00047917       -16.1049139128 -5.47E-05
     6 OT LS       0.21E+00    0.3                      -16.1049160933
     7 OT CG       0.21E+00    0.6     0.00004260       -16.1049162789 -2.37E-06

  *** SCF run converged in     7 steps ***


  Electronic density on regular grids:        -13.9999999998        0.0000000002
  Core density on regular grids:               13.9999999987       -0.0000000013
  Total charge density on r-space grids:       -0.0000000011
  Total charge density g-space grids:          -0.0000000011

  Overlap energy of the core charge distribution:               0.00000907175612
  Self energy of the core charge distribution:                -38.70122451907286
  Core Hamiltonian energy:                                     12.63087891320954
  Hartree energy:                                              15.56562841041905
  Exchange-correlation energy:                                 -5.60020815518775

  Total energy:                                               -16.10491627887590

  outer SCF iter =    1 RMS gradient =   0.43E-04 energy =        -16.1049162789
  outer SCF loop converged in   1 iterations or    7 steps


 ENERGY| Total FORCE_EVAL ( QS ) energy [a.u.]:              -16.104916290784406

 STRESS| Analytical stress tensor [GPa]
 STRESS|                        x                   y                   z
 STRESS|      x       -8.99433553727E-02  -6.61884745948E-02   3.70633697376E-02
 STRESS|      y       -6.61884745948E-02  -7.41599606684E-02   4.40753795475E-02
 STRESS|      z        3.70633697376E-02   4.40753795475E-02  -2.57640122999E-01
 STRESS| 1/3 Trace                                            -1.40581146347E-01
 STRESS| Determinant                                          -5.29458863394E-04

 STRESS| Eigenvectors and eigenvalues of the analytical stress tensor [GPa]
 STRESS|                        1                   2                   3
 STRESS| Eigenvalues  -2.82218710900E-01  -1.24449919844E-01  -1.50748082958E-02
 STRESS|      x          -0.274299674876      0.707630255260     -0.651167497810
 STRESS|      y          -0.282019673147      0.588171386741      0.757970529623
 STRESS|      z           0.919360969544      0.391553114738      0.038230433143

 Number of electrons:                                                         14
 Number of occupied orbitals:                                                  7
 Number of molecular orbitals:                                                 7

 Number of orbital functions:                                                 14
 Number of independent orbital functions:                                     14

 Extrapolation method: ASPC


 SCF WAVEFUNCTION OPTIMIZATION

  ----------------------------------- OT ---------------------------------------
  Minimizer      : CG                  : conjugate gradient
  Preconditioner : FULL_ALL            : diagonalization, state selective
  Precond_solver : DEFAULT
  Line search    : 2PNT                : 2 energies, one gradient
  stepsize       :    0.15000000                  energy_gap     :    0.08000000
  eps_taylor     :   0.10000E-15                  max_taylor     :             4
  ----------------------------------- OT ---------------------------------------

  Step     Update method      Time    Convergence         Total energy    Change
  ------------------------------------------------------------------------------
     1 OT CG       0.15E+00    0.4     0.01022056       -16.1031240481 -1.61E+01
     2 OT LS       0.19E+00    0.4                      -16.1040375336
     3 OT CG       0.19E+00    0.7     0.00257022       -16.1040715539 -9.48E-04
     4 OT LS       0.15E+00    0.4                      -16.1041183150
     5 OT CG       0.15E+00    0.7     0.00048971       -16.1041206688 -4.91E-05
     6 OT LS       0.21E+00    0.4                      -16.1041229181
     7 OT CG       0.21E+00    0.7     0.00004372       -16.1041230817 -2.41E-06

  *** SCF run converged in     7 steps ***


  Electronic density on regular grids:        -13.9999999998        0.0000000002
  Core density on regular grids:               13.9999999987       -0.0000000013
  Total charge density on r-space grids:       -0.0000000011
  Total charge density g-space grids:          -0.0000000011

  Overlap energy of the core charge distribution:               0.00001167180931
  Self energy of the core charge distribution:                -38.70122451907286
  Core Hamiltonian energy:                                     12.62627397647581
  Hartree energy:                                              15.57185877980213
  Exchange-correlation energy:                                 -5.60104299068064

  Total energy:                                               -16.10412308166624

  outer SCF iter =    1 RMS gradient =   0.44E-04 energy =        -16.1041230817
  outer SCF loop converged in   1 iterations or    7 steps


 ENERGY| Total FORCE_EVAL ( QS ) energy [a.u.]:              -16.104123094849641

 STRESS| Analytical stress tensor [GPa]
 STRESS|                        x                   y                   z
 STRESS|      x       -7.43244039545E-02  -5.04149633457E-02   4.71407101177E-02
 STRESS|      y       -5.04149633457E-02  -6.80429455527E-02   5.36115419422E-02
 STRESS|      z        4.71407101177E-02   5.36115419422E-02  -2.29250103851E-01
 STRESS| 1/3 Trace                                            -1.23872484453E-01
 STRESS| Determinant                                          -4.66692494038E-04

 STRESS| Eigenvectors and eigenvalues of the analytical stress tensor [GPa]
 STRESS|                        1                   2                   3
 STRESS| Eigenvalues  -2.64744265622E-01  -8.64920721427E-02  -2.03811155930E-02
 STRESS|      x          -0.307083290664      0.683661565260     -0.662047367476
 STRESS|      y          -0.322721128919      0.579634045692      0.748248251601
 STRESS|      z           0.895293764942      0.443431209165      0.042636102008

 Number of electrons:                                                         14
 Number of occupied orbitals:                                                  7
 Number of molecular orbitals:                                                 7

 Number of orbital functions:                                                 14
 Number of independent orbital functions:                                     14

 Extrapolation method: ASPC


 SCF WAVEFUNCTION OPTIMIZATION

  ----------------------------------- OT ---------------------------------------
  Minimizer      : CG                  : conjugate gradient
  Preconditioner : FULL_ALL            : diagonalization, state selective
  Precond_solver : DEFAULT
  Line search    : 2PNT                : 2 energies, one gradient
  stepsize       :    0.15000000                  energy_gap     :    0.08000000
  eps_taylor     :   0.10000E-15                  max_taylor     :             4
  ----------------------------------- OT ---------------------------------------

  Step     Update method      Time    Convergence         Total energy    Change
  ------------------------------------------------------------------------------
     1 OT CG       0.15E+00    0.3     0.00998205       -16.1031550715 -1.61E+01
     2 OT LS       0.19E+00    0.3                      -16.1040302914
     3 OT CG       0.19E+00    0.6     0.00265071       -16.1040649369 -9.10E-04
     4 OT LS       0.15E+00    0.3                      -16.1041129154
     5 OT CG       0.15E+00    0.6     0.00046998       -16.1041161897 -5.13E-05
     6 OT LS       0.21E+00    0.3                      -16.1041182587
     7 OT CG       0.21E+00    0.5     0.00004874       -16.1041184415 -2.25E-06

  *** SCF run converged in     7 steps ***


  Electronic density on regular grids:        -13.9999999998        0.0000000002
  Core density on regular grids:               13.9999999987       -0.0000000013
  Total charge density on r-space grids:       -0.0000000011
  Total charge density g-space grids:          -0.0000000011

  Overlap energy of the core charge distribution:               0.00001167180931
  Self energy of the core charge distribution:                -38.70122451907286
  Core Hamiltonian energy:                                     12.62635512683747
  Hartree energy:                                              15.57177267965852
  Exchange-correlation energy:                                 -5.60103340075583

  Total energy:                                               -16.10411844152339

  outer SCF iter =    1 RMS gradient =   0.49E-04 energy =        -16.1041184415
  outer SCF loop converged in   1 iterations or    7 steps


 ENERGY| Total FORCE_EVAL ( QS ) energy [a.u.]:              -16.104118457884482

 STRESS| Analytical stress tensor [GPa]
 STRESS|                        x                   y                   z
 STRESS|      x       -7.43624930965E-02  -5.04656926175E-02   4.71602591121E-02
 STRESS|      y       -5.04656926175E-02  -6.81146220938E-02   5.36251228076E-02
 STRESS|      z        4.71602591121E-02   5.36251228076E-02  -2.29383951508E-01
 STRESS| 1/3 Trace                                            -1.23953688899E-01
 STRESS| Determinant                                          -4.67596638012E-04

 STRESS| Eigenvectors and eigenvalues of the analytical stress tensor [GPa]
 STRESS|                        1                   2                   3
 STRESS| Eigenvalues  -2.64891260069E-01  -8.65816542130E-02  -2.03881524167E-02
 STRESS|      x          -0.307088057760      0.683424609564     -0.662289761226
 STRESS|      y          -0.322737709526      0.579890887633      0.748042063851
 STRESS|      z           0.895286152932      0.443460665091      0.042489326729

 -------------------------------------------------------------------------------
 -                                                                             -
 -                         MESSAGE PASSING PERFORMANCE                         -
 -                                                                             -
 -------------------------------------------------------------------------------

 ROUTINE             CALLS      AVE VOLUME [Bytes]
 MP_Group                3
 MP_Bcast             7372                  56291.
 MP_Allreduce        40224                     43.
 MP_Sync               646
 MP_Alltoall         10646               61981762.
 MP_SendRecv          5020                5996543.
 MP_ISendRecv         3217                6172858.
 MP_Wait              3217
 MP_comm_split         643
 -------------------------------------------------------------------------------


 -------------------------------------------------------------------------------
 -                                                                             -
 -                           R E F E R E N C E S                               -
 -                                                                             -
 -------------------------------------------------------------------------------
 
 CP2K version 2023.2, the CP2K developers group (2023).
 CP2K is freely available from https://www.cp2k.org/ .

 Kuehne,Thomas D.; Iannuzzi,Marcella; Del Ben,Mauro;
 Rybkin,Vladimir V.; Seewald,Patrick; Stein,Frederick; Laino,Teodoro;
 Khaliullin,Rustam Z.; Schuett,Ole; Schiffmann,Florian; Golze,Dorothea;
 Wilhelm,Jan; Chulkov,Sergey; Bani-Hashemian,Mohammad Hossein;
 Weber,Valery; Borstnik,Urban; Taillefumier,Mathieu;
 Jakobovits,Alice Shoshana; Lazzaro,Alfio; Pabst,Hans; Mueller,Tiziano;
 Schade,Robert; Guidon,Manuel; Andermatt,Samuel; Holmberg,Nico;
 Schenter,Gregory K.; Hehn,Anna; Bussy,Augustin; Belleflamme,Fabian;
 Tabacchi,Gloria; Gloess,Andreas; Lass,Michael; Bethune,Iain;
 Mundy,Christopher J.; Plessl,Christian; Watkins,Matt;
 VandeVondele,Joost; Krack,Matthias; Hutter,Juerg. 
 The Journal of Chemical Physics, 152 (19), (2020). 
 CP2K: An electronic structure and molecular dynamics software package -
 Quickstep: Efficient and accurate electronic structure calculations.
 https://doi.org/10.1063/5.0007045

 Marek, A; Blum, V; Johanni, R; Havu, V; Lang, B; Auckenthaler, T;
 Heinecke, A; Bungartz, H; Lederer, H. 
 Journal of Physics: Condensed Matter, 26 (21), (2014). 
 The ELPA library: scalable parallel eigenvalue solutions for
 electronic structure
 theory and computational science.
 https://doi.org/10.1088/0953-8984/26/21/213201

 VandeVondele, J; Hutter, J. 
 JOURNAL OF CHEMICAL PHYSICS, 127 (11), 114105 (2007). 
 Gaussian basis sets for accurate calculations on molecular systems in
 gas and condensed phases.
 https://doi.org/10.1063/1.2770708

 Kuhne, TD; Krack, M; Mohamed, FR; Parrinello, M. 
 PHYSICAL REVIEW LETTERS, 98 (6), 066401 (2007). 
 Efficient and accurate Car-Parrinello-like approach to
 Born-Oppenheimer molecular dynamics.
 https://doi.org/10.1103/PhysRevLett.98.066401

 Krack, M. 
 THEORETICAL CHEMISTRY ACCOUNTS, 114 (1-3), 145-152 (2005). 
 Pseudopotentials for H to Kr optimized for gradient-corrected
 exchange-correlation functionals.
 https://doi.org/10.1007/s00214-005-0655-y

 VandeVondele, J; Krack, M; Mohamed, F; Parrinello, M; Chassaing, T;
 Hutter, J. COMPUTER PHYSICS COMMUNICATIONS, 167 (2), 103-128 (2005). 
 QUICKSTEP: Fast and accurate density functional calculations using a
 mixed Gaussian and plane waves approach.
 https://doi.org/10.1016/j.cpc.2004.12.014

 Frigo, M; Johnson, SG. 
 PROCEEDINGS OF THE IEEE, 93 (2), 216-231 (2005). 
 The design and implementation of FFTW3.
 https://doi.org/10.1109/JPROC.2004.840301

 Kolafa, J. 
 JOURNAL OF COMPUTATIONAL CHEMISTRY, 25 (3), 335-342 (2004). 
 Time-reversible always stable predictor-corrector method for
 molecular dynamics of polarizable molecules.
 https://doi.org/10.1002/jcc.10385

 VandeVondele, J; Hutter, J. 
 JOURNAL OF CHEMICAL PHYSICS, 118 (10), 4365-4369 (2003). 
 An efficient orbital transformation method for electronic structure
 calculations.
 https://doi.org/10.1063/1.1543154

 Hartwigsen, C; Goedecker, S; Hutter, J. 
 PHYSICAL REVIEW B, 58 (7), 3641-3662 (1998). 
 Relativistic separable dual-space Gaussian pseudopotentials from H to Rn.
 https://doi.org/10.1103/PhysRevB.58.3641

 Lippert, G; Hutter, J; Parrinello, M. 
 MOLECULAR PHYSICS, 92 (3), 477-487 (1997). 
 A hybrid Gaussian and plane wave density functional scheme.
 https://doi.org/10.1080/002689797170220

 Goedecker, S; Teter, M; Hutter, J. 
 PHYSICAL REVIEW B, 54 (3), 1703-1710 (1996). 
 Separable dual-space Gaussian pseudopotentials.
 https://doi.org/10.1103/PhysRevB.54.1703


 -------------------------------------------------------------------------------
 -                                                                             -
 -                                T I M I N G                                  -
 -                                                                             -
 -------------------------------------------------------------------------------
 SUBROUTINE                       CALLS  ASD         SELF TIME        TOTAL TIME
                                MAXIMUM       AVERAGE  MAXIMUM  AVERAGE  MAXIMUM
 CP2K                                 1  1.0    4.040    4.042  790.923  790.924
 qs_forces                          202  2.0    0.011    0.011  786.517  786.523
 qs_energies                        202  3.0    0.007    0.007  698.108  698.114
 scf_env_do_scf                     202  4.0    0.007    0.010  616.866  616.887
 scf_env_do_scf_inner_loop         1404  5.0    0.063    0.105  555.988  555.990
 pw_transfer                      13858  9.7    0.561    0.594  546.230  546.238
 fft_wrap_pw1pw2                  10646 10.7    0.102    0.128  533.049  533.386
 fft_wrap_pw1pw2_200               5424 11.3   92.897   94.679  473.327  474.215
 qs_rho_update_rho_low             1606  6.1    0.005    0.005  396.219  396.276
 calculate_rho_elec                1606  7.1    5.883    5.921  396.214  396.271
 density_rs2pw                     1606  8.1    0.055    0.056  369.152  369.438
 rebuild_ks_matrix                 1606  6.6    0.004    0.004  352.949  352.971
 qs_ks_build_kohn_sham_matrix      1606  7.6    0.141    0.143  352.945  352.967
 fft3d_ps                         10646 12.7  223.524  225.059  299.848  306.755
 qs_ks_update_qs_env               1606  6.0    0.009    0.009  265.038  265.047
 sum_up_and_integrate              1005  8.4    4.937    5.041  146.905  147.278
 integrate_v_rspace                1005  9.4    0.029    0.029  141.967  142.444
 potential_pw2rs                   1005 10.4    0.377    0.400  135.500  135.686
 pw_gather_p                       6025 12.4   88.867   89.471   88.867   89.471
 qs_ks_update_qs_env_forces         202  3.0    0.001    0.001   87.981   87.982
 rs_pw_transfer                    8237  9.9    0.077    0.078   66.617   66.755
 init_scf_loop                      202  5.0    0.003    0.003   60.838   60.857
 pw_poisson_solve                  1606  8.6    7.894    8.214   60.682   60.710
 fft_wrap_pw1pw2_70                2611 12.0    6.676    6.857   52.706   53.761
 init_scf_run                       202  4.0    0.004    0.006   53.478   53.497
 scf_env_initial_rho_setup          202  5.0    0.002    0.003   53.473   53.490
 wfi_extrapolate                    202  6.0    0.007    0.007   52.890   52.932
 pw_scatter_p                      4621 13.0   43.479   47.841   43.479   47.841
 mp_alltoall_z22v                 10646 14.7   38.016   43.601   38.016   43.601
 qs_vxc_create                     1606  8.6    0.019    0.019   41.948   42.262
 yz_to_x                           6025 13.4   21.053   21.095   40.518   40.973
 x_to_yz                           4621 14.0   17.107   17.267   35.658   40.586
 rs_pw_transfer_RS2PW_200          1808  9.9   30.348   30.527   39.651   39.844
 pw_integral_ab                    2818  8.5   29.791   30.676   32.179   33.150
 xc_rho_set_and_dset_create        1606 10.6    0.058    0.059   32.418   32.552
 pw_copy                          11050 10.6   30.161   30.723   30.161   30.723
 xc_functional_eval                1606 11.6   29.057   29.122   29.057   29.122
 xc_vxc_pw_create                  1005  9.4    3.714    3.775   28.011   28.302
 qs_energies_init_hamiltonians      202  4.0    0.002    0.003   27.549   27.556
 qs_env_update_s_mstruct            202  5.0    0.002    0.002   26.577   26.626
 calculate_rho_core                 202  6.0    0.783    0.802   26.472   26.517
 grid_collocate_task_list          1606  8.1   20.224   20.430   20.224   20.430
 rs_pw_transfer_PW2RS_200          1207 11.7   12.968   13.151   16.722   16.735
 -------------------------------------------------------------------------------

 The number of warnings for this run is : 1
 
 -------------------------------------------------------------------------------
  **** **** ******  **  PROGRAM ENDED AT                 2026-04-15 15:21:29.240
 ***** ** ***  *** **   PROGRAM RAN ON                   cbe-dt-319.che.ncsu.edu
 **    ****   ******    PROGRAM RAN BY                                   rverma7
 ***** **    ** ** **   PROGRAM PROCESS ID                               3122061
  **** **  *******  **  PROGRAM STOPPED IN /home/rverma7/My_Program/0.3_sparc/ex
                                           amples/CP2K/MD/NVE
