B  H  N 
 1.0000000000000000
    12.0000000000000000    0.0000000000000000    0.0000000000000000
     0.0000000000000000   12.0000000000000000    0.0000000000000000
     0.0000000000000000    0.0000000000000000   12.0000000000000000
 B   H   N  
   1   6   1
Cartesian
  5.4452521234928559  5.0845550217570441  4.0143369453202062
  7.2233455449566737  6.0685662492116794  8.7959406790134373
  7.1333300343899468  7.4894924117547363  8.0615299498688984
  7.1004496209274537  6.0994900237429919  7.0048348496329158
  6.3202243776926439  4.7178577360980167  3.2040593209865618
  5.3136782732671151  6.2720946930382420  3.7915381454378099
  4.7766544550433254  4.5105075882452592  4.8889294541741197
  7.0415182284310598  6.5073863306629871  7.9305885169646064
