8
Lattice="12.0 0.0 0.0 0.0 12.0 0.0 0.0 0.0 12.0" Properties=species:S:1:pos:R:3:momenta:R:3:forces:R:3 energy=-439.99383000118 free_energy=-439.99383000118 stress="-0.001881553668765 0.00114316149313 -5.8410690772103e-05 0.00114316149313 -0.0010281233532629 -2.2936681891609e-06 -5.8410690772103e-05 -2.2936681891609e-06 0.0026050612911773" pbc="T T T"
B        5.92726146       6.12796642       4.93800919      -0.76286052      -0.15243908      -0.67093027      -0.59829055       0.03554001       1.10733918
H        5.78654866       6.96581259       7.42811203       0.10200452       0.03449200       0.26788623      -0.64257140       1.99343206       0.36235998
H        6.94142007       5.83995607       7.24384167       0.07128843       0.15694773       0.20882510       2.98584182      -0.85681711       0.43029825
H        5.35993308       5.35034670       7.33462920       0.16765012      -0.23212314       0.14476500      -0.20470573      -0.12183409      -0.26416726
H        5.03873201       6.86505241       4.79972198      -0.26681900       0.34164586      -0.02903054      -0.23918397       0.31551155       0.18928012
H        5.61527908       5.03418741       4.57188797      -0.07602222      -0.14369708      -0.26160091       0.67539885       0.31287002       0.64240465
H        6.96126799       6.61196612       4.67312572       0.26136637       0.01700830      -0.19353061       0.18778055      -0.39028048       0.15855860
N        6.01519175       6.08739642       6.98458899      -0.67587043      -0.13015027       1.24986322      -2.16990917      -1.29087642      -2.64598646
8
Lattice="12.0 0.0 0.0 0.0 12.0 0.0 0.0 0.0 12.0" Properties=species:S:1:pos:R:3:momenta:R:3:forces:R:3 energy=-440.09902668483 free_energy=-440.09902668483 stress="0.0016157304511816 -0.00027202800002881 0.0001438124507091 -0.00027202800002881 0.0016422377690049 0.00010283176159762 0.0001438124507091 0.00010283176159762 5.6243576937159e-05" pbc="T T T"
B        5.84647318       5.79752685       6.92915717      -0.24120521       0.19946409      -0.26886795       0.05691242       1.52332813      -2.82018631
H        5.11590983       7.31794793       5.18972519       0.06382170      -0.28378317       0.27968662       1.02094001      -1.15946483      -0.24746826
H        4.98471321       5.62930115       4.72117667       0.20394849       0.19960877       0.05994998       1.07465056       0.85381015       0.08789277
H        6.60372744       6.43194331       4.72779291      -0.09565796       0.19683109       0.16158354      -0.30607633      -0.03342867      -0.31015137
H        5.05233368       6.62084433       7.27882333      -0.04225940      -0.07899531       0.08805388       0.54706968      -0.95203181       0.94399567
H        7.01528679       6.05229519       6.95594291       0.05429712      -0.18321055      -0.18797686      -0.69690224      -0.30081673       0.87284998
H        5.53745000       4.68205207       6.71287123      -0.10217464       0.16226430       0.16522704      -0.00143077       0.05404357       0.84770872
N        5.63887163       6.37593126       5.12934251      -0.70711844      -0.29175361       0.22853655      -1.69535533       0.01891625       0.61409196
