 Entering Gaussian System, Link 0=g16
 Input=gaussian.com
 Output=gaussian.log
 Initial command:
 /usr/local/apps/g16.a03/g16/l1.exe "/gpfs_common/share03/pfaendtnergroup/rverma7/MLP/sparc/testGaussian/gaussian/Gau-2997401.inp" -scrdir="/gpfs_common/share03/pfaendtnergroup/rverma7/MLP/sparc/testGaussian/gaussian/"
 Entering Link 1 = /usr/local/apps/g16.a03/g16/l1.exe PID=   2997402.
  
 Copyright (c) 1988,1990,1992,1993,1995,1998,2003,2009,2016,
            Gaussian, Inc.  All Rights Reserved.
  
 This is part of the Gaussian(R) 16 program.  It is based on
 the Gaussian(R) 09 system (copyright 2009, Gaussian, Inc.),
 the Gaussian(R) 03 system (copyright 2003, Gaussian, Inc.),
 the Gaussian(R) 98 system (copyright 1998, Gaussian, Inc.),
 the Gaussian(R) 94 system (copyright 1995, Gaussian, Inc.),
 the Gaussian 92(TM) system (copyright 1992, Gaussian, Inc.),
 the Gaussian 90(TM) system (copyright 1990, Gaussian, Inc.),
 the Gaussian 88(TM) system (copyright 1988, Gaussian, Inc.),
 the Gaussian 86(TM) system (copyright 1986, Carnegie Mellon
 University), and the Gaussian 82(TM) system (copyright 1983,
 Carnegie Mellon University). Gaussian is a federally registered
 trademark of Gaussian, Inc.
  
 This software contains proprietary and confidential information,
 including trade secrets, belonging to Gaussian, Inc.
  
 This software is provided under written license and may be
 used, copied, transmitted, or stored only in accord with that
 written license.
  
 The following legend is applicable only to US Government
 contracts under FAR:
  
                    RESTRICTED RIGHTS LEGEND
  
 Use, reproduction and disclosure by the US Government is
 subject to restrictions as set forth in subparagraphs (a)
 and (c) of the Commercial Computer Software - Restricted
 Rights clause in FAR 52.227-19.
  
 Gaussian, Inc.
 340 Quinnipiac St., Bldg. 40, Wallingford CT 06492
  
  
 ---------------------------------------------------------------
 Warning -- This program may not be used in any manner that
 competes with the business of Gaussian, Inc. or will provide
 assistance to any competitor of Gaussian, Inc.  The licensee
 of this program is prohibited from giving any competitor of
 Gaussian, Inc. access to this program.  By using this program,
 the user acknowledges that Gaussian, Inc. is engaged in the
 business of creating and licensing software in the field of
 computational chemistry and represents and warrants to the
 licensee that it is not a competitor of Gaussian, Inc. and that
 it will not use this program in any manner prohibited above.
 ---------------------------------------------------------------
  

 Cite this work as:
 Gaussian 16, Revision A.03,
 M. J. Frisch, G. W. Trucks, H. B. Schlegel, G. E. Scuseria, 
 M. A. Robb, J. R. Cheeseman, G. Scalmani, V. Barone, 
 G. A. Petersson, H. Nakatsuji, X. Li, M. Caricato, A. V. Marenich, 
 J. Bloino, B. G. Janesko, R. Gomperts, B. Mennucci, H. P. Hratchian, 
 J. V. Ortiz, A. F. Izmaylov, J. L. Sonnenberg, D. Williams-Young, 
 F. Ding, F. Lipparini, F. Egidi, J. Goings, B. Peng, A. Petrone, 
 T. Henderson, D. Ranasinghe, V. G. Zakrzewski, J. Gao, N. Rega, 
 G. Zheng, W. Liang, M. Hada, M. Ehara, K. Toyota, R. Fukuda, 
 J. Hasegawa, M. Ishida, T. Nakajima, Y. Honda, O. Kitao, H. Nakai, 
 T. Vreven, K. Throssell, J. A. Montgomery, Jr., J. E. Peralta, 
 F. Ogliaro, M. J. Bearpark, J. J. Heyd, E. N. Brothers, K. N. Kudin, 
 V. N. Staroverov, T. A. Keith, R. Kobayashi, J. Normand, 
 K. Raghavachari, A. P. Rendell, J. C. Burant, S. S. Iyengar, 
 J. Tomasi, M. Cossi, J. M. Millam, M. Klene, C. Adamo, R. Cammi, 
 J. W. Ochterski, R. L. Martin, K. Morokuma, O. Farkas, 
 J. B. Foresman, and D. J. Fox, Gaussian, Inc., Wallingford CT, 2016.
 
 ******************************************
 Gaussian 16:  ES64L-G16RevA.03 25-Dec-2016
                20-Apr-2026 
 ******************************************
 %mem=2GB
 %nprocshared=2
 Will use up to    2 processors via shared memory.
 ---------------------------------------
 #P HF/STO-3G scf(qc,maxcycle=200) force
 ---------------------------------------
 1/10=7,30=1,38=1/1,3;
 2/12=2,17=6,18=5,40=1/2;
 3/6=3,11=9,25=1,30=1,71=1/1,2,3;
 4//1;
 5/5=2,7=200,8=3,38=5/8;
 6/7=2,8=2,9=2,10=2,28=1/1;
 7/29=1/1,2,3,16;
 1/10=7,30=1/3;
 99//99;
 Leave Link    1 at Mon Apr 20 12:50:26 2026, MaxMem=   268435456 cpu:               0.8 elap:               0.8
 (Enter /usr/local/apps/g16.a03/g16/l101.exe)
 ------------------------------
 Gaussian input prepared by ASE
 ------------------------------
 Symbolic Z-matrix:
 Charge =  0 Multiplicity = 1
 B                     6.07106   5.90507   5.15301 
 H                     6.4273    6.85632   7.07782 
 H                     6.31592   5.24394   7.16662 
 H                     4.91546   6.1084    7.15765 
 H                     5.28155   6.512     4.53845 
 H                     6.06035   4.74272   4.98503 
 H                     7.15451   6.3746    4.96836 
 N                     5.8708    6.06029   6.76028 
 
 ITRead=  0  0  0  0  0  0  0  0
 MicOpt= -1 -1 -1 -1 -1 -1 -1 -1
 NAtoms=      8 NQM=        8 NQMF=       0 NMMI=      0 NMMIF=      0
                NMic=       0 NMicF=      0.
                    Isotopes and Nuclear Properties:
 (Nuclear quadrupole moments (NQMom) in fm**2, nuclear magnetic moments (NMagM)
  in nuclear magnetons)

  Atom         1           2           3           4           5           6           7           8
 IAtWgt=          11           1           1           1           1           1           1          14
 AtmWgt=  11.0093053   1.0078250   1.0078250   1.0078250   1.0078250   1.0078250   1.0078250  14.0030740
 NucSpn=           3           1           1           1           1           1           1           2
 AtZEff=   0.0000000   0.0000000   0.0000000   0.0000000   0.0000000   0.0000000   0.0000000   0.0000000
 NQMom=    4.0590000   0.0000000   0.0000000   0.0000000   0.0000000   0.0000000   0.0000000   2.0440000
 NMagM=    2.6886370   2.7928460   2.7928460   2.7928460   2.7928460   2.7928460   2.7928460   0.4037610
 AtZNuc=   5.0000000   1.0000000   1.0000000   1.0000000   1.0000000   1.0000000   1.0000000   7.0000000
 Leave Link  101 at Mon Apr 20 12:50:27 2026, MaxMem=   268435456 cpu:               0.2 elap:               0.2
 (Enter /usr/local/apps/g16.a03/g16/l103.exe)

 GradGradGradGradGradGradGradGradGradGradGradGradGradGradGradGradGradGrad
 Berny optimization.
 Initialization pass.
 Trust Radius=3.00D-01 FncErr=1.00D-07 GrdErr=1.00D-07 EigMax=2.50D+02 EigMin=1.00D-04
 Number of steps in this run=      2 maximum allowed number of steps=      2.
 GradGradGradGradGradGradGradGradGradGradGradGradGradGradGradGradGradGrad

 Leave Link  103 at Mon Apr 20 12:50:27 2026, MaxMem=   268435456 cpu:               0.1 elap:               0.1
 (Enter /usr/local/apps/g16.a03/g16/l202.exe)
                          Input orientation:                          
 ---------------------------------------------------------------------
 Center     Atomic      Atomic             Coordinates (Angstroms)
 Number     Number       Type             X           Y           Z
 ---------------------------------------------------------------------
      1          5           0        6.071059    5.905073    5.153011
      2          1           0        6.427302    6.856321    7.077824
      3          1           0        6.315916    5.243936    7.166625
      4          1           0        4.915455    6.108399    7.157652
      5          1           0        5.281548    6.512004    4.538449
      6          1           0        6.060355    4.742719    4.985030
      7          1           0        7.154507    6.374599    4.968364
      8          7           0        5.870802    6.060286    6.760281
 ---------------------------------------------------------------------
                    Distance matrix (angstroms):
                    1          2          3          4          5
     1  B    0.000000
     2  H    2.176393   0.000000
     3  H    2.133470   1.618666   0.000000
     4  H    2.322788   1.688621   1.645802   0.000000
     5  H    1.170206   2.807086   3.096001   2.675284   0.000000
     6  H    1.174478   2.996957   2.252973   2.810011   1.984023
     7  H    1.195160   2.282696   2.610361   3.142800   1.926573
     8  N    1.627117   1.021860   1.014726   1.035812   2.342607
                    6          7          8
     6  H    0.000000
     7  H    1.964810   0.000000
     8  N    2.218880   2.226579   0.000000
 Stoichiometry    BH6N
 Framework group  C1[X(BH6N)]
 Deg. of freedom    18
 Full point group                 C1      NOp   1
 Largest Abelian subgroup         C1      NOp   1
 Largest concise Abelian subgroup C1      NOp   1
                         Standard orientation:                         
 ---------------------------------------------------------------------
 Center     Atomic      Atomic             Coordinates (Angstroms)
 Number     Number       Type             X           Y           Z
 ---------------------------------------------------------------------
      1          5           0       -0.909752   -0.018155    0.015147
      2          1           0        1.026521    0.970201   -0.088241
      3          1           0        0.994991   -0.465264   -0.835586
      4          1           0        1.234963   -0.455323    0.792597
      5          1           0       -1.367063    0.092556    1.086590
      6          1           0       -1.170621   -1.015642   -0.547318
      7          1           0       -1.190602    0.947286   -0.630961
      8          7           0        0.717224    0.002423    0.021026
 ---------------------------------------------------------------------
 Rotational constants (GHZ):          76.8542057          18.1504661          18.0941328
 Leave Link  202 at Mon Apr 20 12:50:27 2026, MaxMem=   268435456 cpu:               0.1 elap:               0.1
 (Enter /usr/local/apps/g16.a03/g16/l301.exe)
 Standard basis: STO-3G (5D, 7F)
 Ernie: Thresh=  0.10000D-02 Tol=  0.10000D-05 Strict=F.
 There are    16 symmetry adapted cartesian basis functions of A   symmetry.
 There are    16 symmetry adapted basis functions of A   symmetry.
    16 basis functions,    48 primitive gaussians,    16 cartesian basis functions
     9 alpha electrons        9 beta electrons
       nuclear repulsion energy        41.0039763178 Hartrees.
 IExCor=    0 DFT=F Ex=HF Corr=None ExCW=0 ScaHFX=  1.000000
 ScaDFX=  1.000000  1.000000  1.000000  1.000000 ScalE2=  1.000000  1.000000
 IRadAn=      5 IRanWt=     -1 IRanGd=            0 ICorTp=0 IEmpDi=  4
 NAtoms=    8 NActive=    8 NUniq=    8 SFac= 1.00D+00 NAtFMM=   60 NAOKFM=F Big=F
 Integral buffers will be    131072 words long.
 Raffenetti 1 integral format.
 Two-electron integral symmetry is turned on.
 Leave Link  301 at Mon Apr 20 12:50:27 2026, MaxMem=   268435456 cpu:               0.1 elap:               0.1
 (Enter /usr/local/apps/g16.a03/g16/l302.exe)
 NPDir=0 NMtPBC=     1 NCelOv=     1 NCel=       1 NClECP=     1 NCelD=      1
         NCelK=      1 NCelE2=     1 NClLst=     1 CellRange=     0.0.
 One-electron integrals computed using PRISM.
 One-electron integral symmetry used in STVInt
 NBasis=    16 RedAO= T EigKep=  2.12D-01  NBF=    16
 NBsUse=    16 1.00D-06 EigRej= -1.00D+00 NBFU=    16
 Leave Link  302 at Mon Apr 20 12:50:27 2026, MaxMem=   268435456 cpu:               0.2 elap:               0.2
 (Enter /usr/local/apps/g16.a03/g16/l303.exe)
 DipDrv:  MaxL=1.
 Leave Link  303 at Mon Apr 20 12:50:27 2026, MaxMem=   268435456 cpu:               0.1 elap:               0.1
 (Enter /usr/local/apps/g16.a03/g16/l401.exe)
 ExpMin= 1.69D-01 ExpMax= 9.91D+01 ExpMxC= 9.91D+01 IAcc=3 IRadAn=         5 AccDes= 0.00D+00
 Harris functional with IExCor=  205 and IRadAn=       5 diagonalized for initial guess.
 HarFok:  IExCor=  205 AccDes= 0.00D+00 IRadAn=         5 IDoV= 1 UseB2=F ITyADJ=14
 ICtDFT=  3500011 ScaDFX=  1.000000  1.000000  1.000000  1.000000
 FoFCou: FMM=F IPFlag=           0 FMFlag=      100000 FMFlg1=           0
         NFxFlg=           0 DoJE=T BraDBF=F KetDBF=T FulRan=T
         wScrn=  0.000000 ICntrl=       500 IOpCl=  0 I1Cent=   200000004 NGrid=           0
         NMat0=    1 NMatS0=      1 NMatT0=    0 NMatD0=    1 NMtDS0=    0 NMtDT0=    0
 Petite list used in FoFCou.
 Harris En= -81.8611340360798    
 JPrj=0 DoOrth=F DoCkMO=F.
 Leave Link  401 at Mon Apr 20 12:50:28 2026, MaxMem=   268435456 cpu:               0.7 elap:               0.7
 (Enter /usr/local/apps/g16.a03/g16/l508.exe)
 Keep R1 ints in memory in canonical form, NReq=818586.
 FoFCou: FMM=F IPFlag=           0 FMFlag=           0 FMFlg1=           0
         NFxFlg=           0 DoJE=F BraDBF=F KetDBF=F FulRan=T
         wScrn=  0.000000 ICntrl=       600 IOpCl=  0 I1Cent=           0 NGrid=           0
         NMat0=    1 NMatS0=    136 NMatT0=    0 NMatD0=    1 NMtDS0=    0 NMtDT0=    0
 Symmetry not used in FoFCou.
 Two-electron integral symmetry not used.
 Tight linear equation convergence will be used.
 RHF wavefunction.
 Quadratic Convergence SCF Method.
 Line search only if initial step raises energy.
 Iteration   1 EE= -81.5035698053524                                    Grad=3.668D-01 Max rot=    7.0295 deg.
 Gradient too large for Newton-Raphson -- use scaled steepest descent instead.
 Alpha Gap=     0.961 HL deriv= 8.28D-03
     ILin= 1 X=0.000D+00 Y=-8.150356980535D+01 DE= 0.00D+00 F= -1.75D-01
     ILin= 2 X=3.000D-01 Y=-8.154783222490D+01 DE=-4.43D-02 F= -1.20D-01
     ILin= 3 X=5.000D-01 Y=-8.156831802383D+01 DE=-6.47D-02 F= -8.45D-02
     ILin= 4 X=7.000D-01 Y=-8.158162954828D+01 DE=-7.81D-02 F= -4.87D-02
     ILin= 5 X=1.100D+00 Y=-8.158696818897D+01 DE=-8.34D-02 F=  2.18D-02
     Accept linear search using points  4 and  5.
     An  expanding polynomial of degree  5 produced  0.9076
 Iteration   2 EE= -81.5879186495083     Delta-E=       -0.084348844156 Grad=6.708D-02 Max rot=    1.4150 deg.
 Gradient too large for Newton-Raphson -- use scaled steepest descent instead.
 Alpha Gap=     0.949 HL deriv= 5.24D-04
     ILin= 1 X=0.000D+00 Y=-8.158791864951D+01 DE= 0.00D+00 F= -5.15D-03
     ILin= 2 X=5.000D-01 Y=-8.159004071637D+01 DE=-2.12D-03 F= -3.33D-03
     ILin= 3 X=1.000D+00 Y=-8.159125180972D+01 DE=-3.33D-03 F= -1.51D-03
     ILin= 4 X=2.100D+00 Y=-8.159070073872D+01 DE=-2.78D-03 F=  2.51D-03
     An  expanding polynomial of degree  4 produced  1.4132
 Iteration   3 EE= -81.5915638428135     Delta-E=       -0.003645193305 Grad=1.654D-02 Max rot=    0.4836 deg.
 Gradient too large for Newton-Raphson -- use scaled steepest descent instead.
 Alpha Gap=     0.954 HL deriv= 6.26D-05
     ILin= 1 X=0.000D+00 Y=-8.159156384281D+01 DE= 0.00D+00 F= -1.73D-04
     ILin= 2 X=1.100D+00 Y=-8.159165141595D+01 DE=-8.76D-05 F=  1.33D-05
     Accept linear search using points  1 and  2.
     An  expanding polynomial of degree  2 produced  1.0371
     Minimum is close to point  2 DX= -6.29D-02 DF= -3.78D-07 DXR=  6.06D-02 DFR=  4.31D-03 which will be used.
 Iteration   4 EE= -81.5916514159459     Delta-E=       -0.000087573132 Grad=2.939D-03 Max rot=    0.0431 deg.
 QCNR:  CnvC1=1.12D-09 CnvC2=1.12D-08
 LinEq1:  Iter=  0 NonCon=     1 RMS=1.99D-04 Max=7.41D-04 NDo=     1
 AX will form     1 AO Fock derivatives at one time.
 LinEq1:  Iter=  1 NonCon=     1 RMS=5.58D-05 Max=2.45D-04 NDo=     1
 LinEq1:  Iter=  2 NonCon=     1 RMS=6.19D-06 Max=2.13D-05 NDo=     1
 LinEq1:  Iter=  3 NonCon=     1 RMS=8.09D-07 Max=3.74D-06 NDo=     1
 LinEq1:  Iter=  4 NonCon=     1 RMS=4.80D-08 Max=1.80D-07 NDo=     1
 LinEq1:  Iter=  5 NonCon=     1 RMS=3.90D-09 Max=1.34D-08 NDo=     1
 LinEq1:  Iter=  6 NonCon=     0 RMS=3.32D-10 Max=1.08D-09 NDo=     1
 Linear equations converged to 1.122D-09 1.122D-08 after     6 iterations.
 Angle between quadratic step and gradient=  25.70 degrees.
     ILin= 1 X=0.000D+00 Y=-8.159165141595D+01 DE= 0.00D+00 F= -1.30D-05
     ILin= 2 X=1.000D+00 Y=-8.159165793499D+01 DE=-6.52D-06 F= -2.24D-10
     Reject lnstep minimum 1.000D+00 FVal=-8.159165793499D+01 Lims=  0.00D+00  1.00D+00
     ILin= 3 X=2.000D+00 Y=-8.159165141655D+01 DE=-6.06D-10 F=  1.30D-05
     An  expanding polynomial of degree  3 produced  1.0000
     Minimum is close to point  2 DX=  2.32D-05 DF=  0.00D+00 DXR=  2.32D-05 DFR=  0.00D+00 which will be used.
 Iteration   5 EE= -81.5916579349932     Delta-E=       -0.000006519047 Grad=6.198D-07 Max rot=    0.0000 deg.
 QCNR:  CnvC1=6.20D-12 CnvC2=6.20D-11
 LinEq1:  Iter=  0 NonCon=     1 RMS=4.85D-08 Max=2.06D-07 NDo=     1
 LinEq1:  Iter=  1 NonCon=     1 RMS=4.91D-09 Max=2.04D-08 NDo=     1
 LinEq1:  Iter=  2 NonCon=     1 RMS=7.31D-10 Max=3.10D-09 NDo=     1
 LinEq1:  Iter=  3 NonCon=     1 RMS=9.93D-11 Max=4.23D-10 NDo=     1
 LinEq1:  Iter=  4 NonCon=     1 RMS=2.13D-11 Max=6.77D-11 NDo=     1
 LinEq1:  Iter=  5 NonCon=     0 RMS=2.03D-12 Max=5.66D-12 NDo=     1
 Linear equations converged to 6.198D-12 6.198D-11 after     5 iterations.
 Angle between quadratic step and gradient=  90.00 degrees.
     ILin= 1 X=0.000D+00 Y=-8.159165793499D+01 DE= 0.00D+00 F= -8.52D-13
     ILin= 2 X=1.000D+00 Y=-8.159165793499D+01 DE=-4.83D-13
 Iteration   6 EE= -81.5916579349937     Delta-E=        0.000000000000 Grad=6.603D-11 Max rot=    0.0000 deg.
 Rotation gradient small -- convergence achieved.
 SCF Done:  E(RHF) =  -81.5916579350     a.u. after    6 cycles
            Convg  =    0.6603D-10                    25 Fock formations.
              S**2 =  0.0000                  -V/T =  2.0056
 Leave Link  508 at Mon Apr 20 12:50:32 2026, MaxMem=   268435456 cpu:               4.5 elap:               4.6
 (Enter /usr/local/apps/g16.a03/g16/l601.exe)
 Copying SCF densities to generalized density rwf, IOpCl= 0 IROHF=0.

 **********************************************************************

            Population analysis using the SCF density.

 **********************************************************************

 Orbital symmetries:
       Occupied  (A) (A) (A) (A) (A) (A) (A) (A) (A)
       Virtual   (A) (A) (A) (A) (A) (A) (A)
 The electronic state is 1-A.
 Alpha  occ. eigenvalues --  -15.50272  -7.27432  -1.22681  -0.70745  -0.69906
 Alpha  occ. eigenvalues --   -0.66316  -0.46619  -0.35650  -0.34306
 Alpha virt. eigenvalues --    0.51066   0.58118   0.58343   0.63895   0.82877
 Alpha virt. eigenvalues --    0.87187   0.92614
          Condensed to atoms (all electrons):
               1          2          3          4          5          6
     1  B    3.601267  -0.016961  -0.018227  -0.012410   0.394401   0.394986
     2  H   -0.016961   0.481579  -0.028391  -0.025130   0.000140   0.001596
     3  H   -0.018227  -0.028391   0.484003  -0.027365   0.001188  -0.004884
     4  H   -0.012410  -0.025130  -0.027365   0.483741  -0.001914   0.000418
     5  H    0.394401   0.000140   0.001188  -0.001914   0.771589  -0.011746
     6  H    0.394986   0.001596  -0.004884   0.000418  -0.011746   0.791026
     7  H    0.388961  -0.004606  -0.000030   0.001366  -0.014803  -0.012784
     8  N    0.204616   0.338331   0.338926   0.336270  -0.010960  -0.017874
               7          8
     1  B    0.388961   0.204616
     2  H   -0.004606   0.338331
     3  H   -0.000030   0.338926
     4  H    0.001366   0.336270
     5  H   -0.014803  -0.010960
     6  H   -0.012784  -0.017874
     7  H    0.802493  -0.016181
     8  N   -0.016181   6.230438
 Mulliken charges:
               1
     1  B    0.063368
     2  H    0.253442
     3  H    0.254780
     4  H    0.245024
     5  H   -0.127894
     6  H   -0.140738
     7  H   -0.144416
     8  N   -0.403566
 Sum of Mulliken charges =   0.00000
 Mulliken charges with hydrogens summed into heavy atoms:
               1
     1  B   -0.349680
     8  N    0.349680
 Electronic spatial extent (au):  <R**2>=            112.6889
 Charge=              0.0000 electrons
 Dipole moment (field-independent basis, Debye):
    X=              5.9348    Y=              0.0659    Z=             -0.0923  Tot=              5.9358
 Quadrupole moment (field-independent basis, Debye-Ang):
   XX=            -14.8845   YY=            -14.3582   ZZ=            -14.3240
   XY=             -0.0377   XZ=              0.0068   YZ=             -0.0943
 Traceless Quadrupole moment (field-independent basis, Debye-Ang):
   XX=             -0.3623   YY=              0.1640   ZZ=              0.1983
   XY=             -0.0377   XZ=              0.0068   YZ=             -0.0943
 Octapole moment (field-independent basis, Debye-Ang**2):
  XXX=             16.5328  YYY=              1.3047  ZZZ=             -0.5341  XYY=              6.5312
  XXY=             -0.2288  XXZ=              0.3201  XZZ=              6.5148  YZZ=             -0.9504
  YYZ=              0.3735  XYZ=             -0.2441
 Hexadecapole moment (field-independent basis, Debye-Ang**3):
 XXXX=            -93.0191 YYYY=            -27.7662 ZZZZ=            -27.3487 XXXY=             -0.4325
 XXXZ=              1.2757 YYYX=              0.9376 YYYZ=             -0.2036 ZZZX=              0.4964
 ZZZY=              0.0654 XXYY=            -20.2348 XXZZ=            -19.9199 YYZZ=             -9.2263
 XXYZ=             -0.4338 YYXZ=             -0.6187 ZZXY=             -0.9845
 N-N= 4.100397631778D+01 E-N=-2.718502484262D+02  KE= 8.113751843810D+01
 No NMR shielding tensors so no spin-rotation constants.
 Leave Link  601 at Mon Apr 20 12:50:33 2026, MaxMem=   268435456 cpu:               0.3 elap:               0.3
 (Enter /usr/local/apps/g16.a03/g16/l701.exe)
 ... and contract with generalized density number  0.
 Compute integral first derivatives.
 Leave Link  701 at Mon Apr 20 12:50:33 2026, MaxMem=   268435456 cpu:               0.2 elap:               0.3
 (Enter /usr/local/apps/g16.a03/g16/l702.exe)
 L702 exits ... SP integral derivatives will be done elsewhere.
 Leave Link  702 at Mon Apr 20 12:50:33 2026, MaxMem=   268435456 cpu:               0.1 elap:               0.1
 (Enter /usr/local/apps/g16.a03/g16/l703.exe)
 Integral derivatives from FoFJK, PRISM(SPDF).
 Compute integral first derivatives, UseDBF=F ICtDFT=           0.
 Calling FoFJK, ICntrl=      2127 FMM=F ISym2X=0 I1Cent= 0 IOpClX= 0 NMat=1 NMatS=1 NMatT=0.
 FoFJK:  IHMeth= 1 ICntrl=    2127 DoSepK=F KAlg= 0 I1Cent=           0 FoldK=F
 IRaf=         0 NMat=       1 IRICut=       1 DoRegI=T DoRafI=F ISym2E= 0 IDoP0=0 IntGTp=1.
 FoFCou: FMM=F IPFlag=           0 FMFlag=      100000 FMFlg1=         800
         NFxFlg=           0 DoJE=F BraDBF=F KetDBF=F FulRan=T
         wScrn=  0.000000 ICntrl=      2127 IOpCl=  0 I1Cent=           0 NGrid=           0
         NMat0=    1 NMatS0=      1 NMatT0=    0 NMatD0=    1 NMtDS0=    0 NMtDT0=    0
 Symmetry not used in FoFCou.
 Leave Link  703 at Mon Apr 20 12:50:33 2026, MaxMem=   268435456 cpu:               0.2 elap:               0.2
 (Enter /usr/local/apps/g16.a03/g16/l716.exe)
 Dipole        = 2.33491194D+00 2.59209452D-02-3.63034562D-02
 ***** Axes restored to original set *****
 -------------------------------------------------------------------
 Center     Atomic                   Forces (Hartrees/Bohr)
 Number     Number              X              Y              Z
 -------------------------------------------------------------------
      1        5           0.024686904    0.001104145   -0.030873618
      2        1          -0.003449812    0.012712455    0.007736068
      3        1           0.006273151   -0.015307709    0.010616126
      4        1           0.002901033    0.004176447   -0.005630336
      5        1          -0.004527554   -0.004814308    0.013313220
      6        1          -0.004585552    0.008220102   -0.001677480
      7        1          -0.015218044   -0.010308469    0.006491670
      8        7          -0.006080127    0.004217337    0.000024351
 -------------------------------------------------------------------
 Cartesian Forces:  Max     0.030873618 RMS     0.011158360
 Z-matrix is all fixed cartesians, so copy forces.
 Force constants in Cartesian coordinates: 
                1             2             3             4             5 
      1  0.514184D+00
      2 -0.840441D-02  0.548437D+00
      3  0.396223D-01 -0.272360D-01  0.466200D+00
      4  0.572265D-02  0.597146D-02  0.136349D-03  0.178437D+00
      5  0.210366D-02  0.392071D-02 -0.116517D-03  0.160012D+00  0.291082D+00
      6 -0.153026D-01 -0.202937D-01  0.531363D-04  0.580141D-01  0.939609D-01
      7  0.366876D-02 -0.545371D-02  0.983772D-03  0.179016D-01 -0.183957D-01
      8 -0.399671D-02  0.772041D-02 -0.124353D-02  0.153373D-01 -0.158046D-01
      9 -0.120482D-01  0.214844D-01 -0.357589D-02  0.112033D-01 -0.116008D-01
     10  0.102924D-01 -0.260881D-04  0.128489D-02 -0.781098D-02  0.328560D-02
     11  0.215765D-02  0.170318D-02  0.104357D-03 -0.287740D-01  0.128163D-01
     12  0.244834D-01 -0.268936D-03  0.307647D-02 -0.152950D-01  0.634737D-02
     13 -0.157610D+00  0.650932D-01 -0.736458D-01 -0.292291D-03  0.227634D-03
     14  0.665889D-01 -0.127950D+00  0.540288D-01 -0.379942D-03  0.295896D-03
     15 -0.782944D-01  0.564100D-01 -0.121776D+00  0.000000D+00  0.000000D+00
     16 -0.720781D-01  0.304444D-02 -0.766031D-02  0.449403D-03 -0.349992D-03
     17 -0.596890D-03 -0.261563D+00 -0.287703D-01 -0.124039D-04  0.966003D-05
     18 -0.824397D-02 -0.327037D-01 -0.666956D-01  0.571911D-04 -0.445400D-04
     19 -0.218732D+00 -0.635753D-01  0.250295D-01 -0.183833D-03  0.143168D-03
     20 -0.616184D-01 -0.963359D-01  0.166103D-01  0.400002D-03 -0.311519D-03
     21  0.280762D-01  0.182618D-01 -0.611176D-01 -0.615328D-04  0.479213D-04
     22 -0.854486D-01  0.335041D-02  0.142492D-01 -0.194224D+00 -0.147026D+00
     23  0.376616D-02 -0.759323D-01 -0.133770D-01 -0.152554D+00 -0.292009D+00
     24  0.217074D-01 -0.156538D-01 -0.216164D+00 -0.540546D-01 -0.885940D-01
                6             7             8             9            10 
      6  0.103210D+00
      7  0.147425D-01  0.141960D+00
      8  0.127410D-01 -0.137269D+00  0.314350D+00
      9  0.944772D-02  0.637376D-01 -0.125977D+00  0.128994D+00
     10  0.545237D-02 -0.631030D-02 -0.139871D-02  0.410234D-02  0.366560D+00
     11  0.182983D-01  0.296726D-01  0.714992D-02 -0.181394D-01 -0.143878D-01
     12  0.108929D-01 -0.187637D-01 -0.422843D-02  0.120590D-01 -0.124529D+00
     13 -0.584004D-04  0.321160D-03  0.186084D-03  0.220446D-04 -0.433168D-05
     14 -0.759134D-04  0.417468D-03  0.241887D-03  0.286553D-04 -0.563065D-05
     15  0.000000D+00  0.000000D+00  0.000000D+00  0.000000D+00  0.000000D+00
     16  0.897919D-04 -0.493790D-03 -0.286109D-03 -0.338941D-04  0.666004D-05
     17 -0.247832D-05  0.136290D-04  0.789681D-05  0.000000D+00  0.000000D+00
     18  0.114269D-04 -0.628397D-04 -0.364102D-04 -0.431336D-05  0.000000D+00
     19 -0.367303D-04  0.201990D-03  0.117036D-03  0.138647D-04 -0.272436D-05
     20  0.799215D-04 -0.439510D-03 -0.254658D-03 -0.301683D-04  0.592794D-05
     21 -0.122944D-04  0.676102D-04  0.391743D-04  0.464081D-05  0.000000D+00
     22 -0.629011D-01 -0.157250D+00  0.127310D+00 -0.669970D-01 -0.362731D+00
     23 -0.104708D+00  0.131455D+00 -0.313411D+00  0.134233D+00  0.125269D-01
     24 -0.123603D+00 -0.607047D-01  0.118705D+00 -0.146925D+00  0.113689D+00
               11            12            13            14            15 
     11  0.635364D-01
     12  0.845783D-02  0.118669D+00
     13 -0.402913D-03  0.383696D-04  0.150333D+00
     14 -0.523738D-03  0.498757D-04 -0.744359D-01  0.112467D+00
     15  0.000000D+00  0.000000D+00  0.798933D-01 -0.596990D-01  0.108150D+00
     16  0.619488D-03 -0.589940D-04  0.856468D-02  0.210173D-01  0.975356D-02
     17 -0.170983D-04  0.162828D-05 -0.104418D-02 -0.282202D-02 -0.144555D-02
     18  0.788360D-04 -0.750757D-05  0.667949D-02  0.181878D-01  0.938102D-02
     19 -0.253408D-03  0.241321D-04 -0.934535D-02 -0.766829D-02  0.443264D-02
     20  0.551390D-03 -0.525091D-04  0.158776D-01  0.132343D-01 -0.732756D-02
     21 -0.848209D-04  0.807752D-05 -0.144613D-01 -0.113423D-01  0.737653D-02
     22  0.113683D-01  0.134101D+00  0.803309D-02 -0.553392D-02 -0.157851D-01
     23 -0.852164D-01 -0.103068D-01 -0.550154D-02  0.505725D-02  0.120621D-01
     24 -0.871554D-02 -0.144698D+00  0.153216D-02 -0.117787D-02 -0.313158D-02
               16            17            18            19            20 
     16  0.517347D-01
     17  0.125441D-02  0.261801D+00
     18  0.499063D-02  0.307840D-01  0.529322D-01
     19  0.111087D-01  0.260377D-03 -0.250958D-02  0.215152D+00
     20 -0.283376D-01 -0.705497D-03  0.668751D-02  0.702580D-01  0.817091D-01
     21 -0.687558D-02 -0.266156D-03  0.227982D-02 -0.271088D-01 -0.162436D-01
     22  0.707705D-03  0.125249D-03 -0.911764D-03  0.180042D-02  0.385398D-02
     23  0.303808D-02  0.328922D-02 -0.229535D-01  0.718428D-03  0.211279D-02
     24 -0.205211D-03 -0.302033D-03  0.210301D-02  0.154944D-03  0.276153D-03
               21            22            23            24 
     21  0.498495D-01
     22  0.203643D-01  0.789111D+00
     23  0.958797D-02  0.655191D-02  0.756109D+00
     24  0.161137D-02 -0.221192D-01 -0.453823D-02  0.630807D+00
 Leave Link  716 at Mon Apr 20 12:50:33 2026, MaxMem=   268435456 cpu:               0.1 elap:               0.1
 (Enter /usr/local/apps/g16.a03/g16/l103.exe)

 GradGradGradGradGradGradGradGradGradGradGradGradGradGradGradGradGradGrad
 Berny optimization.
 Search for a local minimum.
 Step number   1 out of a maximum of    2
 All quantities printed in internal units (Hartrees-Bohrs-Radians)
 Second derivative matrix not updated -- first step.
 ITU=  0
     Eigenvalues ---    0.00367   0.03656   0.03837   0.04803   0.07841
     Eigenvalues ---    0.07959   0.11781   0.12015   0.14498   0.14756
     Eigenvalues ---    0.17562   0.26369   0.46466   0.63593   0.68303
     Eigenvalues ---    0.89494   0.98778   0.99922
 Quadratic step=7.821D-01 exceeds max=3.000D-01 adjusted using Lamda=-1.922D-02.
 Angle between NR and scaled steps=  39.25 degrees.
 Angle between quadratic step and forces=  53.35 degrees.
 Linear search not attempted -- first point.
 B after Tr=     0.017459   -0.004527   -0.009040
         Rot=    1.000000    0.000051    0.000153   -0.000008 Ang=   0.02 deg.
 Variable       Old X    -DE/DX   Delta X   Delta X   Delta X     New X
                                 (Linear)    (Quad)   (Total)
    X1       11.47264   0.02469   0.00000   0.04971   0.06403  11.53667
    Y1       11.15897   0.00110   0.00000  -0.01379  -0.01714  11.14183
    Z1        9.73778  -0.03087   0.00000  -0.04950  -0.05616   9.68162
    X2       12.14584  -0.00345   0.00000  -0.09956  -0.08641  12.05943
    Y2       12.95657   0.01271   0.00000   0.09206   0.08910  13.04567
    Z2       13.37515   0.00774   0.00000   0.05852   0.05183  13.42698
    X3       11.93535   0.00627   0.00000   0.02856   0.04169  11.97704
    Y3        9.90960  -0.01531   0.00000  -0.00802  -0.01095   9.89865
    Z3       13.54296   0.01062   0.00000   0.10016   0.09376  13.63672
    X4        9.28886   0.00290   0.00000  -0.00411   0.00906   9.29793
    Y4       11.54320   0.00418   0.00000   0.00216  -0.00084  11.54236
    Z4       13.52600  -0.00563   0.00000  -0.10146  -0.10884  13.41716
    X5        9.98068  -0.00453   0.00000  -0.05091  -0.03631   9.94437
    Y5       12.30590  -0.00481   0.00000   0.01130   0.00783  12.31373
    Z5        8.57643   0.01331   0.00000   0.14434   0.13707   8.71350
    X6       11.45241  -0.00459   0.00000  -0.06384  -0.04937  11.40304
    Y6        8.96244   0.00822   0.00000   0.02160   0.01821   8.98065
    Z6        9.42034  -0.00168   0.00000  -0.08378  -0.09025   9.33009
    X7       13.52006  -0.01522   0.00000  -0.00032   0.01408  13.53414
    Y7       12.04625  -0.01031   0.00000  -0.07467  -0.07802  11.96822
    Z7        9.38885   0.00649   0.00000  -0.01892  -0.02505   9.36379
    X8       11.09421  -0.00608   0.00000   0.02986   0.04323  11.13744
    Y8       11.45228   0.00422   0.00000  -0.00514  -0.00818  11.44410
    Z8       12.77508   0.00002   0.00000   0.00446  -0.00235  12.77273
         Item               Value     Threshold  Converged?
 Maximum Force            0.030874     0.000450     NO 
 RMS     Force            0.011158     0.000300     NO 
 Maximum Displacement     0.137070     0.001800     NO 
 RMS     Displacement     0.060607     0.001200     NO 
 Predicted change in Energy=-5.764798D-03
 GradGradGradGradGradGradGradGradGradGradGradGradGradGradGradGradGradGrad

 Leave Link  103 at Mon Apr 20 12:50:34 2026, MaxMem=   268435456 cpu:               0.2 elap:               0.2
 (Enter /usr/local/apps/g16.a03/g16/l9999.exe)
 1\1\GINC-GPU20\Force\RHF\STO-3G\B1H6N1\RVERMA7\20-Apr-2026\0\\#P HF/ST
 O-3G scf(qc,maxcycle=200) force\\Gaussian input prepared by ASE\\0,1\B
 ,6.0710594278,5.9050725168,5.1530113253\H,6.4273024458,6.8563210456,7.
 0778240665\H,6.3159156667,5.2439357612,7.1666249112\H,4.9154554097,6.1
 083987465,7.1576516496\H,5.2815476093,6.5120044641,4.538449177\H,6.060
 3549335,4.7427187388,4.9850299377\H,7.1545067096,6.374598894,4.9683644
 432\N,5.8708023312,6.0602861672,6.7602806699\\Version=ES64L-G16RevA.03
 \State=1-A\HF=-81.5916579\RMSD=5.883e-12\RMSF=1.116e-02\Dipole=-0.2514
 81,0.1966908,2.3134117\Quadrupole=0.2002138,0.0609512,-0.2611649,0.026
 0494,0.0388768,-0.0458846\PG=C01 [X(B1H6N1)]\\@


 IN-LAWS ARE LIKE SEEDS. YOU DON'T NEED THEM
 BUT THEY COME WITH THE TOMATO.
 Job cpu time:       0 days  0 hours  0 minutes  8.1 seconds.
 Elapsed time:       0 days  0 hours  0 minutes  8.1 seconds.
 File lengths (MBytes):  RWF=    272 Int=      0 D2E=      0 Chk=     32 Scr=     32
 Normal termination of Gaussian 16 at Mon Apr 20 12:50:34 2026.
