B  H  N 
 1.0000000000000000
    12.0000000000000000    0.0000000000000000    0.0000000000000000
     0.0000000000000000   12.0000000000000000    0.0000000000000000
     0.0000000000000000    0.0000000000000000   12.0000000000000000
 B   H   N  
   1   6   1
Cartesian
  7.3625092119797593  4.2138693085003354  4.8564734439058128
  5.3441132112637781  8.3875483339320738  6.3406864461225680
  4.4815083614072151  8.0121685105442992  7.7867527763137963
  3.7315679017630323  8.0610786684646030  6.2780672837111160
  7.3168005166992174  5.3002883155952958  4.2132472236862029
  6.3631272968346018  3.6124516660679120  4.7192488706704410
  8.2684320982369748  3.8068954066076799  5.5734062747273754
  4.5506170396138756  8.0862844329327146  6.7905939714579659
