B  H  N 
 1.0000000000000000
    12.0000000000000000    0.0000000000000000    0.0000000000000000
     0.0000000000000000   12.0000000000000000    0.0000000000000000
     0.0000000000000000    0.0000000000000000   12.0000000000000000
 B   H   N  
   1   6   1
Cartesian
  3.4095697143203907  6.2164123338118520  6.0744675665059127
  8.7728687670445105  5.9331905295447811  6.6522971525971526
  8.0319859724111247  6.9890075853904321  5.3348711945656291
  8.4787629504464128  5.2593515957635759  5.0313089120822667
  3.2550838364692396  5.0109924146095892  6.1293058065352097
  3.2271312329554931  6.7751951225292473  5.0127056559685883
  3.8654612312061367  6.8740606672186502  6.9872943440314224
  8.3779539369374696  6.0520906113658199  5.6734470580774392
