8
Lattice="12.0 0.0 0.0 0.0 12.0 0.0 0.0 0.0 12.0" Properties=species:S:1:pos:R:3 pbc="T T T"
B        4.53485912       5.52975519       4.42322380
H        7.74445881       6.96488537       8.69041989
H        7.02549567       6.32802995       7.48178501
H        8.30859742       7.27103759       7.19405918
H        4.92635579       5.81486538       3.30958011
H        3.69140258       4.72896241       4.75545432
H        5.00470173       5.93126782       5.49763666
N        7.97674083       6.50520995       7.80683447
