B  H  N 
 1.0000000000000000
    12.0000000000000000    0.0000000000000000    0.0000000000000000
     0.0000000000000000   12.0000000000000000    0.0000000000000000
     0.0000000000000000    0.0000000000000000   12.0000000000000000
 B   H   N  
   1   6   1
Cartesian
  4.1824186975136701  6.4168866774538245  4.6846123493676313
  6.8815760790336249  4.5529042309667886  6.8374357157423251
  8.4165947897000635  5.4481540344512140  7.0628197843797027
  6.9601777022659981  5.6999882028276332  8.0515461874254601
  5.0379472811675754  6.2400228067139594  3.9484538125745399
  3.8577433490327397  7.4470957690332176  5.1844335557318058
  3.5834052102999432  5.4124222912155133  4.8644401746468429
  7.4606787039779565  5.1843381759132257  7.3451013891291348
