B  H  N                                 
   1.0000000000000000     
    12.0000000000000000    0.0000000000000000    0.0000000000000000
     0.0000000000000000   12.0000000000000000    0.0000000000000000
     0.0000000000000000    0.0000000000000000   12.0000000000000000
   B    H    N 
     1     6     1
Direct
  0.3779049269710626  0.4608129327206285  0.3686019834737309
  0.6453715677372998  0.5804071143184686  0.7242016573374457
  0.5854579728428035  0.5273358295291573  0.6234820843519628
  0.6923831185069531  0.6059197989660134  0.5995049316749146
  0.4105296494597752  0.4845721146109838  0.2757983426625543
  0.3076168814930469  0.3940802010339866  0.3962878597352457
  0.4170584773274015  0.4942723187483011  0.4581363881549123
  0.6647284028152569  0.5421008292213045  0.6505695389414967
