B  H  N 
 1.0000000000000000
    12.0000000000000000    0.0000000000000000    0.0000000000000000
     0.0000000000000000   12.0000000000000000    0.0000000000000000
     0.0000000000000000    0.0000000000000000   12.0000000000000000
 B   H   N  
   1   6   1
Cartesian
  7.3743884727667677  4.3742928120380924  4.8953123214546324
  5.5272598069629204  8.1959048294583994  6.4465648674712952
  4.4487736495578005  8.0322761673898384  7.7931170879980769
  3.7540208089250022  8.1261999281000357  6.2067057719678322
  7.4983625362918351  5.2933598252204916  4.2068829120019231
  6.2757577699507321  3.8040951705415864  4.8622087690578226
  8.2459791910749907  3.9825949872823401  5.6099012573052391
  4.5652752360412983  8.1429089423724577  6.7930259778778392
