B  H  N 
 1.0000000000000000
    12.0000000000000000    0.0000000000000000    0.0000000000000000
     0.0000000000000000   12.0000000000000000    0.0000000000000000
     0.0000000000000000    0.0000000000000000   12.0000000000000000
 B   H   N  
   1   6   1
Cartesian
  6.2123443971884882  3.8325856180754485  5.0040063709585318
  6.2858251844133219  7.4094059305250530  6.2670859801424283
  6.5021111018734192  8.7107664583272779  7.4382054912501827
  6.1032388556347223  6.9580133031769762  7.9124411374824097
  5.0731388600516389  3.7175625108180341  5.1294315348688571
  6.9268611399483619  3.2892335416727150  5.6958668397329362
  6.7822645815028864  4.3540782383397030  4.0875588625175894
  6.2074203548411777  7.7281567491100631  7.2308253027209268
