B  H  N 
 1.0000000000000000
    12.0000000000000000    0.0000000000000000    0.0000000000000000
     0.0000000000000000   12.0000000000000000    0.0000000000000000
     0.0000000000000000    0.0000000000000000   12.0000000000000000
 B   H   N  
   1   6   1
Cartesian
  3.3738381240278947  5.7368097930399440  5.4209412847322458
  8.9132526293486229  5.4676335215601206  7.5018878065475754
  8.7464047201492647  7.3010966101391732  7.7001520813433491
  7.4424566840840818  6.4298800612071219  7.1029330865134828
  3.9914803659994660  6.4364878400425454  6.0873482672865054
  3.2502524397262453  5.9437900815846980  4.2998479186566509
  3.0867473706513779  4.6989033898608259  5.8253410418762108
  8.3803958701573826  6.3635840708399734  7.5412598468503829
