B  H  N 
 1.0000000000000000
    12.0000000000000000    0.0000000000000000    0.0000000000000000
     0.0000000000000000   12.0000000000000000    0.0000000000000000
     0.0000000000000000    0.0000000000000000   12.0000000000000000
 B   H   N  
   1   6   1
Cartesian
  5.5947282120857125  6.1652647960524360  6.5921426713453286
  7.1929294245602833  6.9876235002289233  4.9295327972490384
  5.3600508589790152  6.8087231649967954  4.8559006178751645
  6.5140756455104016  5.5315928109263135  4.4359958630539893
  6.0351343111354154  6.8097041336696336  7.5640041369460960
  4.8070705754397096  6.7898621871278539  5.8817235363834470
  5.2463721705229247  5.0123764997710758  6.7226749863358464
  6.4287901690098002  6.3227982741303403  5.1024499139558372
