B  H  N 
 1.0000000000000000
    12.0000000000000000    0.0000000000000000    0.0000000000000000
     0.0000000000000000   12.0000000000000000    0.0000000000000000
     0.0000000000000000    0.0000000000000000   12.0000000000000000
 B   H   N  
   1   6   1
Cartesian
  5.9533382716896170  5.5437389808207627  6.7086480446549004
  5.9884358113116107  7.4588035031390234  5.5538115289291383
  5.4592592951448680  6.2069652028355051  4.6805792447857471
  7.0722686695486692  6.5111131731690364  4.9276037525583973
  6.0796793432237237  4.5411964968610050  6.3683668053770424
  4.9277313304513299  5.8583317975071907  7.1700071178857518
  6.8177308408993502  5.8520137396512268  7.3194207552142592
  6.1563837380960393  6.4667742675758575  5.3561130853706160
