B  H  N 
 1.0000000000000000
    12.0000000000000000    0.0000000000000000    0.0000000000000000
     0.0000000000000000   12.0000000000000000    0.0000000000000000
     0.0000000000000000    0.0000000000000000   12.0000000000000000
 B   H   N  
   1   6   1
Cartesian
  3.7786875889822795  6.8147469372435188  5.1303287022434247
  7.0107013168874390  5.6315153086872272  6.4936976074316775
  8.5180606106462911  4.8264087529684474  7.1421237043359715
  6.9363147479478791  4.4211420979757321  7.8621914761281957
  4.1602700318828809  7.2411923337117443  4.1378085238718043
  3.6049235084684561  7.5788579020242679  6.0075464297301124
  3.4819393893537089  5.6542214639227240  5.2147641556456144
  7.4978284058725340  5.0579617442121290  7.2683721157255334
