B  H  N 
 1.0000000000000000
    12.0000000000000000    0.0000000000000000    0.0000000000000000
     0.0000000000000000   12.0000000000000000    0.0000000000000000
     0.0000000000000000    0.0000000000000000   12.0000000000000000
 B   H   N  
   1   6   1
Cartesian
  4.6540745398944861  7.9564181967213052  6.1916295085610233
  6.7715270573790551  3.5450246675719543  4.7564121031594038
  7.8945177246221432  3.8517728688370911  6.1718095338239261
  6.2760097144155313  4.4364434576100571  6.1886709010028413
  5.7439029998777063  8.4549753324280452  6.0391761671783915
  4.1460537294287807  7.9773368196630763  7.2435878968405962
  4.1054822753778577  7.2843986653420982  5.4197657761689850
  6.9842258897199674  3.9655106273824816  5.6715748628144613
