B  H  N 
 1.0000000000000000
    12.0000000000000000    0.0000000000000000    0.0000000000000000
     0.0000000000000000   12.0000000000000000    0.0000000000000000
     0.0000000000000000    0.0000000000000000   12.0000000000000000
 B   H   N  
   1   6   1
Cartesian
  7.0042927569871605  5.5227699170444886  7.7498589653370882
  4.7663220388908840  5.9466268962821545  5.2306923904197404
  4.1620885128156431  7.6309774613579826  5.1632700859897618
  4.9706162744967983  7.0011770305557190  3.7096046369805200
  6.4114859520483112  6.4147411302744040  8.2903953630194778
  7.8379114871843552  5.9174730329013485  7.0215987897727370
  6.6258526272976148  4.3690225386420245  7.8458974877055478
  4.5783892233327013  6.8204359267513182  4.6196350564252171
