B  H  N 
 1.0000000000000000
    12.0000000000000000    0.0000000000000000    0.0000000000000000
     0.0000000000000000   12.0000000000000000    0.0000000000000000
     0.0000000000000000    0.0000000000000000   12.0000000000000000
 B   H   N  
   1   6   1
Cartesian
  8.0667257278058990  4.5992229987457662  5.8052138810972060
  4.3972801386235751  8.2376734483644469  6.8869824995842848
  3.4495892388956797  8.3317152166159758  5.4194703474330446
  3.2761363880873269  7.0311705845124086  6.4371457093008955
  7.3481319712709015  3.6682847833840384  5.5255543044630997
  8.7238636119126767  4.4123346056875832  6.8798000903890779
  8.3648831260391052  5.4894298455927100  5.1130175004157152
  3.7810265612706324  7.8460950303271693  6.2389349035052630
