B  H  N 
 1.0000000000000000
    12.0000000000000000    0.0000000000000000    0.0000000000000000
     0.0000000000000000   12.0000000000000000    0.0000000000000000
     0.0000000000000000    0.0000000000000000   12.0000000000000000
 B   H   N  
   1   6   1
Cartesian
  5.8349399801444228  5.4056602557849729  3.5327074401917189
  5.7494495667939187  7.3868302660606089  7.4966927029358796
  6.8692507444390030  7.2372687849581290  8.7197259723595657
  5.3018254652123975  6.5103456813389959  9.0361301095873650
  5.1307492555609961  6.3509646300583205  3.3476290457939730
  5.4199518202424466  4.6131697339393902  4.3637118461279218
  6.7767698584056966  5.3190281639300423  2.9638698904126342
  5.8962154737878780  7.0890212176521032  8.4305023956334608
