B  H  N 
 1.0000000000000000
    12.0000000000000000    0.0000000000000000    0.0000000000000000
     0.0000000000000000   12.0000000000000000    0.0000000000000000
     0.0000000000000000    0.0000000000000000   12.0000000000000000
 B   H   N  
   1   6   1
Cartesian
  4.1656920532927479  4.8068666220524179  5.7278750757025705
  8.5768499898640655  6.4293746090584918  6.9210361126810938
  7.9895919257960770  8.0732987505320537  7.3216098032840549
  7.3335659737824521  7.2374418912745213  5.8578926726404674
  5.0323067087832705  3.9267012494679463  5.8473939446072905
  4.1065030326771890  5.4597660262881575  4.6783901967159416
  3.4231500101359345  4.9628648276388603  6.6683483494779594
  7.9193188233541312  7.2630102392958866  6.7070165552383756
