8
Lattice="12.0 0.0 0.0 0.0 12.0 0.0 0.0 0.0 12.0" Properties=species:S:1:pos:R:3:momenta:R:3:forces:R:3 energy=-439.9185255363277 pbc="T T T"
B        6.47472182       6.46854458       6.72029438       0.01878091       0.02625626      -1.26173311      -0.42284871      -0.61117446      -1.21167588
H        4.40148321       5.55062799       5.33062959      -0.00138977      -0.11380144       0.01880833      -0.94962013       0.35823161       0.24072315
H        5.64146299       4.41135472       5.27999419      -0.02523642       0.21571784       0.09435004       0.35041893      -0.71442216       0.32000501
H        5.73308348       5.76153531       4.28658040       0.01152371      -0.03249221       0.07130017       0.29880270       0.52676938      -0.57216764
H        6.01755324       7.58864528       6.54230925      -0.13745320      -0.05869362      -0.08610320       0.73247839      -1.08280893      -0.14969674
H        7.59851679       6.13911331       6.30008096      -0.12311365       0.05433382       0.04354578      -1.56676211       0.69889700       0.80031406
H        6.01936496       5.94792093       7.71341960      -0.09818703       0.08259368      -0.08463439       0.49787803       0.05618177      -0.84661980
N        5.40987989       5.41321887       5.20151132      -0.85931877       0.04667796       0.01697842       1.05965289       0.76832579       1.41911784
8
Lattice="12.0 0.0 0.0 0.0 12.0 0.0 0.0 0.0 12.0" Properties=species:S:1:pos:R:3:momenta:R:3:forces:R:3 energy=-439.9892795719119 pbc="T T T"
B        6.46900308       6.51818597       5.41580585      -0.26578429       0.07482938      -0.68611180      -0.29053539      -1.26975675       1.02498786
H        4.80514523       6.10981766       7.08888700       0.15030170       0.04097779      -0.03257993       0.29073197      -0.37987434      -0.10987010
H        6.21663676       5.06335845       7.29152448      -0.21861501       0.13761172      -0.10095747      -0.26655570       0.15508656      -0.04067187
H        5.03459212       4.68799547       6.05718847       0.05852526       0.07452152       0.10354918       0.26187831       0.64198559       0.43923868
H        5.79497314       7.00144048       4.70847552      -0.07005275      -0.30067615      -0.15292034      -2.62141386       0.77975197      -1.30928620
H        7.19485477       5.92253158       4.81754145      -0.12916061       0.16874798      -0.40936849       0.90889895      -2.07088065      -0.46062967
H        7.05498488       7.31200453       5.91206387      -0.18747711      -0.14080209      -0.05438231       0.74533517       1.27230722       2.15030532
N        5.50110328       5.46042755       6.62629598      -0.59308062       0.17282049       0.10524125       0.97166056       0.87138040      -1.69407401
