8
Lattice="12.0 0.0 0.0 0.0 12.0 0.0 0.0 0.0 12.0" Properties=species:S:1:pos:R:3:momenta:R:3:forces:R:3 energy=-439.67471846971506 free_energy=-439.67471846971506 stress="0.0003679388216611081 -1.2335811384723955e-17 1.8503717077085932e-17 -1.2335811384723955e-17 0.0003793304598529261 4.9013266574526845e-06 1.8503717077085932e-17 4.9013266574526845e-06 -0.006413301667520156" pbc="T T T"
B        6.00000000       6.10750000       5.29150000      -0.74407678      -0.41055846       0.11244644       0.00000000      -0.00410405      -9.74123643
H        6.00000000       7.05450000       7.10750000      -0.22645232       0.03835981      -0.00059653      -0.00000000       1.26455530       0.43764784
H        6.82000000       5.63450000       7.10750000      -0.22352403       0.51515364      -0.02687007       1.10601180      -0.64170468       0.44522093
H        5.18000000       5.63450000       7.10750000      -0.22139013      -0.21724941       0.14692744      -1.10601180      -0.64170468       0.44522093
H        4.99400000       6.68850000       4.89250000       0.20086042       0.11757684      -0.02199434       1.21752367      -0.70449766       0.58278900
H        6.00000000       4.94550000       4.89250000       0.10940047       0.20060002       0.02483882      -0.00000000       1.41260176       0.58428899
H        7.00600000       6.68850000       4.89250000      -0.05237240       0.12603968      -0.13450497      -1.21752367      -0.70449766       0.58278900
N        6.00000000       6.10750000       6.69750000       0.49174834      -0.40037137       0.13785122       0.00000000       0.01935168       6.66327976
8
Lattice="12.0 0.0 0.0 0.0 12.0 0.0 0.0 0.0 12.0" Properties=species:S:1:pos:R:3:momenta:R:3:forces:R:3 energy=-439.8434542193712 free_energy=-439.8434542193712 stress="-0.001823263424711404 0.000751073370213881 -0.0007071848797638772 0.000751073370213881 0.000643285489959811 0.00011445276083818429 -0.0007071848797638772 0.00011445276083818429 0.0023771914089324945" pbc="T T T"
B        6.06147072       6.12031675       4.89843975      -0.37112231      -0.22389895      -0.97968095      -1.57609040      -1.58358555       1.27639264
H        5.72345231       7.06162090       7.27014421      -0.17349420       0.00140340       0.27953899      -0.20711042       0.27324801       0.01608479
H        6.99413286       5.99070212       7.29075032       0.18438736       0.24137698       0.08256711       4.37372343      -0.72900364       1.14228740
H        5.41833599       5.33504294       7.35991017      -0.01867711      -0.12574451       0.15555191       0.80979101       1.02488222      -0.57814937
H        4.97038035       6.57682385       4.73719310      -0.27939025       0.13921172      -0.16933243       0.71810360       0.26086300       0.14682727
H        6.04308370       4.93837910       4.64008983       0.06773751      -0.24655639      -0.12247306       0.40147232       0.88749539       0.49892289
H        7.02961965       6.71005087       4.68600502       0.30864657       0.27703497      -0.28865521       0.38958564       0.45676191      -0.00806430
N        6.07452478       6.11688477       7.02516148      -0.35479306      -0.09194559       1.27017492      -4.90947519      -0.59066134      -2.49430132
8
Lattice="12.0 0.0 0.0 0.0 12.0 0.0 0.0 0.0 12.0" Properties=species:S:1:pos:R:3:momenta:R:3:forces:R:3 energy=-440.0858224450157 free_energy=-440.0858224450157 stress="-0.0011111834607112408 -0.00030814212424761607 0.0004848363510466923 -0.00030814212424761607 -0.001831316189557762 0.0002674670855023105 0.0004848363510466923 0.0002674670855023105 0.00202812706326231" pbc="T T T"
B        5.99819771       6.16010937       4.91017133       0.09324305       0.40759517       1.84623307      -0.89366468      -1.40431004       2.62570769
H        5.46601999       6.97141784       7.31349767      -0.15807110       0.00855119      -0.10958466      -0.25880417       0.36120516       0.06271961
H        7.05872059       6.25438828       7.22052169       0.50116651       0.23783771      -0.02105213      -0.98546399      -0.05487515      -0.29817223
H        5.64420312       5.25536027       7.21778403       0.01940009       0.08458709      -0.22800373      -0.49036550      -0.90632962       0.28220371
H        4.94127941       6.51156591       4.68650233      -0.02650825      -0.29901494       0.11917067      -1.01107553       0.70639940      -0.14322198
H        6.13183696       5.02858216       4.77069931      -0.07594872       0.05270854       0.06996120       0.33211693      -0.74973676      -0.16570331
H        6.87569373       6.80680880       4.74944028      -0.30543019      -0.20975598       0.20577281       1.70692012       1.47397723      -0.53363011
N        6.02512446       6.17196594       6.96415410      -0.63351713      -0.30929295      -1.67305821       1.60033681       0.57366977      -1.82990340
8
Lattice="12.0 0.0 0.0 0.0 12.0 0.0 0.0 0.0 12.0" Properties=species:S:1:pos:R:3:momenta:R:3:forces:R:3 energy=-440.0025746860172 free_energy=-440.0025746860172 stress="0.002110215824052915 0.00024184345711056822 0.00024780034231257906 0.00024184345711056822 0.00038903976735406125 -1.3210019318835743e-05 0.00024780034231257906 -1.3210019318835743e-05 -0.004767673724167496" pbc="T T T"
B        6.04082312       6.08439622       5.23794933      -0.11761969       0.39098922      -1.69196275       0.31809305       1.11070352      -5.39768412
H        5.40900666       6.84474140       7.06350985      -0.12330640       0.13601363       0.02438794       0.08315717       0.06698855       0.21276490
H        7.09024421       6.34833051       7.12787928       0.09051776       0.14508689       0.02495850      -2.32457821      -0.54877443      -0.88371021
H        5.79702452       5.21734933       7.14595418      -0.16268684      -0.21107814       0.12078380      -0.47081667      -1.25060348       0.55135600
H        4.90975579       6.36997692       4.98800232      -0.04663444      -0.34917796       0.05313858       0.53427799      -0.52051411      -0.37521240
H        6.41475122       5.01043511       4.91161145      -0.02079435       0.02513995       0.00196276      -0.27999177       0.41557140      -0.22142180
H        6.77929934       6.98956489       4.85404582      -0.21353913      -0.14794553       0.26658586      -0.87432285      -1.22414596       0.35648292
N        6.06916644       6.10506917       6.70372602       0.06974007      -0.01300686       1.38764766       3.01418128       1.95077451       5.75742472
8
Lattice="12.0 0.0 0.0 0.0 12.0 0.0 0.0 0.0 12.0" Properties=species:S:1:pos:R:3:momenta:R:3:forces:R:3 energy=-439.97954276809253 free_energy=-439.97954276809253 stress="0.0010444892365675874 3.9452584170871e-05 -0.00018209906227836947 3.9452584170871e-05 0.002265722314818918 -0.0006043538964949591 -0.00018209906227836947 -0.0006043538964949591 0.003372591157477523" pbc="T T T"
B        6.03778615       5.91082528       4.95335076      -0.14227842       0.00033535      -0.65850333       0.55794326       2.26678433       0.53139970
H        5.46935218       6.74558969       7.40435749      -0.00383853       0.07531788       0.21809571       0.66373057      -0.82410632      -0.59799035
H        7.11803825       6.11682597       7.29595170      -0.26925103      -0.03024339      -0.02364052      -0.63019336       0.03591703      -0.29700603
H        5.78409456       4.98750668       7.39451592      -0.17357185      -0.21688137       0.14358870       0.38206985       1.66474970      -0.79482266
H        4.88196175       5.91942087       4.69758951      -0.20218636      -0.17731560       0.02791484       0.18469634      -0.60577985       0.45715200
H        6.74298982       4.99811985       4.71221284       0.23943133      -0.08219871       0.05441357      -0.32728146      -0.08819094       0.25165265
H        6.50759728       7.01249332       4.59564251      -0.11577075       0.20968559      -0.04849449      -0.37678462      -1.56531480       1.02388997
N        6.10075793       5.96553442       7.01201590       0.20190653       0.20000890       0.45311340      -0.45418058      -0.88405915      -0.57427529
8
Lattice="12.0 0.0 0.0 0.0 12.0 0.0 0.0 0.0 12.0" Properties=species:S:1:pos:R:3:momenta:R:3:forces:R:3 energy=-440.4896211516872 free_energy=-440.4896211516872 stress="-0.0012557492115969403 0.00015211656288049673 -0.0002987274139042879 0.00015211656288049673 0.0012019607617477818 -0.00038116246059610704 -0.0002987274139042879 -0.00038116246059610704 0.0008799575340655908" pbc="T T T"
B        5.99685730       5.91263941       5.13517637      -0.04902399      -0.50114540       2.78390180       0.05844741       1.59697895       0.99063001
H        5.46090257       6.80346713       7.21161722       0.06669628      -0.08761183      -0.16540272       0.77977646      -1.13877225      -0.09641703
H        7.05249318       6.03595026       7.17178358       0.04732383       0.04445588      -0.00550302       1.00855251       0.25494595       0.47441797
H        5.64131778       4.98564594       7.21444728      -0.00874634       0.23205424      -0.10403461       0.83558771       2.23548200      -0.34010958
H        4.94750682       5.56536580       4.88480617       0.01717545       0.11641623      -0.02785067      -1.08522515      -0.57821937      -0.07427530
H        6.83790298       5.22885225       4.83041881       0.11646982       0.25799168      -0.02377868       1.00119617      -1.04459911      -0.24824361
H        6.16725719       7.01435406       4.78555272      -0.26311621       0.16509558      -0.08844524       0.12464929       0.12350898       0.20039894
N        6.06361997       5.96290703       6.90433923      -0.36118708      -0.24712311      -2.21353880      -2.72298441      -1.44932515      -0.90640140
8
Lattice="12.0 0.0 0.0 0.0 12.0 0.0 0.0 0.0 12.0" Properties=species:S:1:pos:R:3:momenta:R:3:forces:R:3 energy=-440.6238046062367 free_energy=-440.6238046062367 stress="0.0005279786127670929 9.997816176205642e-05 -5.417564854791897e-07 9.997816176205642e-05 -0.00031233556366955776 0.00012813552674422602 -5.417564854791897e-07 0.00012813552674422602 -0.00042786197643211374" pbc="T T T"
B        5.93080144       5.88203600       5.10105349      -0.15705872      -0.55749967      -1.73005109       0.20448129      -1.46393028       0.88259490
H        5.40149140       6.72996789       7.09567128       0.05922831      -0.20901390       0.12587243       0.12312983      -0.17604694       0.27962443
H        7.02840639       6.05535365       7.06709106       0.14544433       0.10136646       0.03783735      -1.09054088      -0.04147893       0.01757091
H        5.63269977       5.00654465       7.19065709       0.14215609       0.28276032      -0.14291765       0.02261486       0.04830658       0.10938487
H        4.97159361       5.24132576       4.91542571       0.15981448       0.23065483      -0.30594069      -0.21834876       0.35017984      -0.34004679
H        6.89952598       5.29630964       4.80934291      -0.18785481       0.27986582      -0.13588931       0.08093601       0.11225923      -0.15281609
H        5.93564437       6.99345535       4.85933994      -0.15162298      -0.10288361      -0.37894160      -0.17370603       0.91852299      -0.60029143
N        5.99694552       5.91266984       6.80655208      -0.41884784      -0.04394315       2.67619985       1.05143367       0.25218752      -0.19602080
8
Lattice="12.0 0.0 0.0 0.0 12.0 0.0 0.0 0.0 12.0" Properties=species:S:1:pos:R:3:momenta:R:3:forces:R:3 energy=-440.0173754969916 free_energy=-440.0173754969916 stress="0.0017214267009854078 0.0003254493173551978 0.00039302496990170405 0.0003254493173551978 -0.00039608039295809054 0.0004816249343148304 0.00039302496990170405 0.0004816249343148304 0.0018070221683945758" pbc="T T T"
B        5.93515900       5.86017443       4.87130420      -0.14798360       0.02318207       0.43902072       0.66650120      -2.26658863       2.32286397
H        5.33984661       6.55014590       7.30773451      -0.07661010      -0.12073846      -0.16576382      -0.76100471       0.75864690       0.04962727
H        7.02010377       6.19350420       7.18918791      -0.28763112       0.10273733      -0.14931345      -1.29147523      -0.19832664      -0.67097318
H        5.86020066       4.97777145       7.23393457       0.03490698      -0.01902952      -0.08257259      -0.47240406      -2.31337152       0.49390762
H        4.97989623       5.08301602       4.81152732       0.05514464       0.01482646       0.16497192       0.88688925       1.40605375      -0.30675182
H        7.00961771       5.26146947       4.71469861      -0.06601971       0.02211053       0.06298967      -1.34176719       1.04187914      -0.06381202
H        5.88892349       7.02222855       4.69226549      -0.00844187      -0.04827285       0.14587912      -0.21791512      -0.15177357      -0.35859384
N        6.02085756       5.90580201       6.88162100       0.11099810       0.00754817      -0.27730462       2.53117585       1.72348057      -1.46626799
8
Lattice="12.0 0.0 0.0 0.0 12.0 0.0 0.0 0.0 12.0" Properties=species:S:1:pos:R:3:momenta:R:3:forces:R:3 energy=-440.35140077117364 free_energy=-440.35140077117364 stress="-0.0007133766308337389 -0.00044422474003698184 -0.00031881264117597285 -0.00044422474003698184 -0.0005901186091280467 -0.00011116408186136332 -0.00031881264117597285 -0.00011116408186136332 -0.003355147389138705" pbc="T T T"
B        5.98924416       5.89626083       5.21896782      -0.22887300       0.38086672       0.65581505       0.09676250      -1.22372965      -4.13611084
H        5.21172612       6.40688218       7.08473171      -0.04999419      -0.13224893       0.15493066      -0.46804716       0.25618203       0.31208553
H        6.86125759       6.45220251       7.09239686      -0.37079211       0.01180312      -0.07675019       1.81506714       1.34618902       0.50819998
H        6.12467036       4.99975067       7.20548847       0.09389877      -0.08526725       0.13866166      -0.14134252      -0.19256329      -0.26923648
H        5.03426807       5.25308626       4.92687598      -0.20767576      -0.31043952       0.16574758       0.28611027       0.39379179       0.24206746
H        6.96573193       5.36695051       4.79451153       0.24940728      -0.25122276       0.10697391      -0.33857902       0.34796084       0.33626721
H        5.90620049       7.00024933       4.88860933       0.08518431       0.18683523       0.27172189      -0.06672411       0.41944593      -0.26983138
N        6.07081294       5.93911167       6.72130009       0.06015464       0.18281214      -1.28525388      -1.18324711      -1.34727668       3.27655853
8
Lattice="12.0 0.0 0.0 0.0 12.0 0.0 0.0 0.0 12.0" Properties=species:S:1:pos:R:3:momenta:R:3:forces:R:3 energy=-440.23355191568254 free_energy=-440.23355191568254 stress="-0.002188668154571606 -0.0010087814717437348 3.752263963488179e-05 -0.0010087814717437348 -0.0016469429686633821 -0.0003751952461487031 3.752263963488179e-05 -0.0003751952461487031 0.002303461026718309" pbc="T T T"
B        5.98357235       5.92069943       5.06429258      -0.34801069       0.25039785      -1.15408200      -0.12009586       0.96105317       1.23412870
H        5.13806679       6.21742163       7.35737416      -0.02062846      -0.10861761       0.21300062      -0.06704563       0.02759703      -0.00149877
H        6.77983313       6.67186571       7.15828914       0.05629394       0.29012029       0.27652152       1.79681005       1.95384524       0.59065182
H        6.41887219       5.01650031       7.21261414       0.01418850       0.05076401       0.13741036      -0.42749068       0.67390545      -0.05979242
H        5.05861674       5.35527708       4.77333538       0.01095183      -0.14112920      -0.11932567      -1.32450132      -1.13897168       0.27791917
H        6.94138326       5.43171567       4.74499162       0.00965298      -0.09316098      -0.09142740       1.45407621      -0.83386241       0.02263415
H        5.90268501       6.98349969       4.64262584       0.02545339      -0.14863953       0.04602928       0.08263115       1.05274679       0.46941611
N        6.07713539       5.99160882       6.95865400      -0.09686766      -0.11569404       0.81666654      -1.39438392      -2.69631359      -2.53345876
8
Lattice="12.0 0.0 0.0 0.0 12.0 0.0 0.0 0.0 12.0" Properties=species:S:1:pos:R:3:momenta:R:3:forces:R:3 energy=-440.5157042802058 free_energy=-440.5157042802058 stress="0.0004904348212508536 0.00044868123813693295 0.00017211403055107853 0.00044868123813693295 0.0011356659948822687 9.955915296452586e-07 0.00017211403055107853 9.955915296452586e-07 0.0007753051476763962" pbc="T T T"
B        5.97720968       5.80780930       5.10751987       0.04058467       0.10380197       2.07845621      -0.50155749       1.88037933       0.46907250
H        5.07619722       5.97477407       7.17155475      -0.09728169      -0.05516722      -0.20675695      -0.22268260       0.06976098       0.43645603
H        6.67208534       6.74152290       7.14907130       0.10518164       0.36164048      -0.15486214      -0.83314378      -1.12688846      -0.12959166
H        6.51083522       5.00459551       7.22791952      -0.05583355       0.01064788      -0.13730776       0.32006040      -0.89127135       0.49505853
H        4.98767807       5.18487601       4.96025546       0.18838600       0.12780363      -0.06396331       0.41680596      -0.17186982      -0.11477584
H        7.01232193       5.36312270       4.77208048      -0.23490722       0.16170838      -0.08894831      -0.22977233      -0.09229835       0.03856865
H        5.80374648       6.99540449       4.80430364      -0.07332259      -0.28331578      -0.06331074       0.34177534      -1.61589724       0.42114688
N        6.07543778       5.87616141       6.90338906      -0.20515697      -0.44231864      -1.24445592       0.70851451       1.94808490      -1.61593509
8
Lattice="12.0 0.0 0.0 0.0 12.0 0.0 0.0 0.0 12.0" Properties=species:S:1:pos:R:3:momenta:R:3:forces:R:3 energy=-440.42979555930066 free_energy=-440.42979555930066 stress="0.0011876368945318494 0.0006814045716479032 8.375814231204958e-05 0.0006814045716479032 0.0018062601294495106 0.00039521890799523295 8.375814231204958e-05 0.00039521890799523295 -0.0012961152786833637" pbc="T T T"
B        5.86274591       5.82547246       5.04615008      -0.06347871      -0.39879208      -1.10605838      -0.21949468       1.06776578       0.48572185
H        5.01817750       5.97323469       7.16926686      -0.15069392       0.00772693       0.08972160       0.04785836       0.03083295      -0.14999720
H        6.57543455       6.75967134       7.01865792       0.03824367       0.04463483      -0.08755609      -1.31066885      -1.70037200      -0.71083455
H        6.43712640       5.04200387       7.03640533       0.04967259      -0.27604599      -0.10121056       0.16608232      -0.57470677       0.27237899
H        5.00775646       5.00403674       4.91767288      -0.02057958      -0.02935029      -0.22193115       0.52188997       0.43009919      -0.59083438
H        6.99224354       5.51275417       4.83073314       0.03640893       0.16229065      -0.12336205      -0.67439439       0.10210291      -0.66867489
H        5.56547593       6.99596326       4.83636165      -0.20436250       0.13805027      -0.28675218       0.25924335      -1.49651499      -0.52035836
N        5.95525644       5.89522828       6.68699591      -0.00276300       0.33696308       1.95070828       1.20948392       2.14079292       1.88259854
8
Lattice="12.0 0.0 0.0 0.0 12.0 0.0 0.0 0.0 12.0" Properties=species:S:1:pos:R:3:momenta:R:3:forces:R:3 energy=-440.3447702579678 free_energy=-440.3447702579678 stress="0.0004167288901335335 -0.00046075336932350873 -1.5450468833352464e-05 -0.00046075336932350873 0.0003273007707626598 -0.00025886938902702604 -1.5450468833352464e-05 -0.00025886938902702604 0.002077764050676581" pbc="T T T"
B        5.84955998       5.98816077       4.93489836       0.02729455      -0.34462709      -0.09632004       0.69455343      -0.66490781       2.70761095
H        5.01046450       6.22211639       7.30450582      -0.04002988       0.04230914      -0.00646264       0.84945401      -0.25390301      -0.73593853
H        6.60492998       6.83489212       7.17733757      -0.18242626      -0.19758931       0.00382281       0.02830792       0.21005623      -0.36248589
H        6.39431930       5.14344042       7.27702942      -0.05697721      -0.10502298       0.17148631      -0.77835493       1.23493994      -1.01806646
H        5.24218891       4.99346555       4.88040524      -0.00972916      -0.06813389       0.26053669      -0.30684257       0.02485030      -0.45331929
H        6.98953550       5.88101887       4.69549418       0.09712932       0.17562449       0.18536727       0.03624998       0.13115607      -0.30198757
H        5.34092347       7.00653445       4.76416180      -0.27216571       0.21384516       0.30494544      -0.36751010       0.47127475      -0.45234847
N        5.97353070       6.05926731       6.84326370       0.13338817       0.26971382      -0.71483589      -0.15585774      -1.15346646       0.61653525
8
Lattice="12.0 0.0 0.0 0.0 12.0 0.0 0.0 0.0 12.0" Properties=species:S:1:pos:R:3:momenta:R:3:forces:R:3 energy=-440.3631095220702 free_energy=-440.3631095220702 stress="-0.00040795469527266586 -0.0004791890830767903 -0.0004444248995443779 -0.0004791890830767903 -0.000528646823794637 -0.00019081448591668957 -0.0004444248995443779 -0.00019081448591668957 -0.0022244261290744758" pbc="T T T"
B        5.91857343       6.09523202       5.27184072      -0.20739477       0.05139708      -0.23152010       0.96428459      -1.54515887      -2.71022817
H        5.03940697       6.37439286       7.17617231       0.19350570      -0.05604924       0.22391417       1.08542589      -0.32740476       0.12952893
H        6.68279649       6.90906364       7.08657590      -0.00097485      -0.00078423       0.09114394       0.64632897       0.96729927       0.52767407
H        6.40766291       5.21377398       7.21867767      -0.09865866       0.20887231       0.01009536      -0.73807451       1.47612079      -0.41350947
H        5.49200427       5.06751648       4.94952214       0.12752215      -0.08643139       0.32686990      -0.41320575      -0.30373357       0.31778462
H        6.96059303       6.19080769       4.78132233       0.07242072       0.07178980       0.32238825       0.58453845       0.20018872       0.27228407
H        5.26806369       6.93248352       4.94481023      -0.05895464      -0.00350199       0.24474468      -1.28552723       1.57999767      -0.41991648
N        6.03157647       6.16132863       6.81481189      -0.32044848      -0.19869128      -0.88286306      -0.84377040      -2.04730926       2.29638242
8
Lattice="12.0 0.0 0.0 0.0 12.0 0.0 0.0 0.0 12.0" Properties=species:S:1:pos:R:3:momenta:R:3:forces:R:3 energy=-440.3517698609766 free_energy=-440.3517698609766 stress="0.0005384973636161718 0.0005486804202051743 3.844244269891676e-05 0.0005486804202051743 0.00028815598990626645 0.0004018805498185575 3.844244269891676e-05 0.0004018805498185575 0.00226402378095324" pbc="T T T"
B        5.87264766       6.08692450       5.13227341      -0.38479306       0.07216766      -0.83351185       0.40883661      -0.47175553      -1.30230938
H        5.03574646       6.28208668       7.33618218       0.13823287      -0.11704563      -0.06366790      -0.07548047      -0.03294347       0.28502753
H        6.64752398       7.00280428       7.11802901      -0.03510244       0.18636390       0.09690648      -0.63911416      -0.52155487       0.15964329
H        6.47157272       5.27522156       7.15938151      -0.14268990       0.27323988       0.04253097       0.11026942      -0.51294965       0.51618042
H        5.49906634       4.99719572       4.78786371       0.09975620       0.07248639      -0.07157265       0.18664483       0.55632659       1.04983979
H        6.96425354       6.27755326       4.66381782      -0.14246436      -0.05937880      -0.09667932      -0.51752448      -0.06721567       1.01111729
H        5.12759753       6.89787161       4.71434838       0.18373525      -0.18020113       0.08987889      -0.00310978       0.13476219       0.86118818
N        6.00077576       6.17387443       6.95683523      -0.00081606      -0.26062686       0.93772679       0.52947804       0.91533041      -2.58068712
8
Lattice="12.0 0.0 0.0 0.0 12.0 0.0 0.0 0.0 12.0" Properties=species:S:1:pos:R:3:momenta:R:3:forces:R:3 energy=-440.5713995970586 free_energy=-440.5713995970586 stress="0.00036916828195339765 0.0006897543749164172 0.00010281304952021088 0.0006897543749164172 0.0007650307194419613 0.00040000986380844177 0.00010281304952021088 0.00040000986380844177 0.00022917860742777298" pbc="T T T"
B        5.86910207       6.03377429       5.16842597      -0.09617353       0.26488148       2.12112475      -0.57957374       0.31044996      -0.55818912
H        5.02904241       6.03928766       7.20533661      -0.01166860      -0.15959746      -0.17663667      -1.01162247      -0.10994308       0.54253591
H        6.41104516       7.06108579       7.17582843      -0.19575127      -0.05101366      -0.29106781      -0.50466680      -0.91615100      -0.40363189
H        6.57042453       5.38014458       7.27252629       0.08788643      -0.04971822      -0.21869541       1.11537413      -1.64352368       0.62173153
H        5.40419298       4.93891421       4.97094000      -0.07088966      -0.15440962      -0.22504922       0.57396905       0.78354765       0.11211910
H        6.97095759       6.24751167       4.72747371       0.10469923      -0.03570017      -0.24684003      -0.87879102      -0.29304418       0.42350399
H        5.05098789       6.90566841       4.91640151       0.03168625      -0.02013303      -0.16951581       0.97884799      -0.85687169       0.27314243
N        5.99789852       6.11198296       6.87066663      -0.12871777       0.19293446      -0.69357245       0.30646285       2.72553601      -1.01121196
8
Lattice="12.0 0.0 0.0 0.0 12.0 0.0 0.0 0.0 12.0" Properties=species:S:1:pos:R:3:momenta:R:3:forces:R:3 energy=-440.3958796107773 free_energy=-440.3958796107773 stress="-0.0018222411521457336 -0.0006423335627464079 0.0002864084335666144 -0.0006423335627464079 -0.0021514782105477334 -0.00015919341139873275 0.0002864084335666144 -0.00015919341139873275 -0.0006762694699516505" pbc="T T T"
B        5.81863201       5.99423572       4.97094711      -0.14856426      -0.06100402      -0.91043676      -1.03514886       1.49857227       2.28990259
H        5.11503658       5.80326667       7.22940251      -0.04800082      -0.15847702       0.11550449      -0.71651739      -0.28574037      -0.15099051
H        6.19417753       7.02743393       6.98787786      -0.17692852      -0.14008587      -0.05563551       0.21360984       1.38847499      -0.01720050
H        6.73740131       5.48395986       6.96942991       0.20494232      -0.10201002       0.05844388       0.10789286      -0.38638392      -0.15456247
H        5.39131692       4.97256607       4.87918795      -0.10619409      -0.07296608      -0.16652999      -0.63397015      -1.85714989      -0.87142045
H        6.89893630       6.16197243       4.77384776       0.06872668       0.01051695      -0.14867250       1.83992830       0.16300013      -1.28178614
H        5.10106370       6.87933907       4.77059749      -0.08409094       0.01840238      -0.22104342      -0.21463890       0.19650661      -0.64136812
N        5.93881120       6.08793546       6.65337480       0.01424105       0.49300743       1.42702275       0.43884430      -0.71727981       0.82742560
8
Lattice="12.0 0.0 0.0 0.0 12.0 0.0 0.0 0.0 12.0" Properties=species:S:1:pos:R:3:momenta:R:3:forces:R:3 energy=-440.5143579154636 free_energy=-440.5143579154636 stress="0.0008578817564085314 -0.0004127538641753458 0.00019162050620251305 -0.0004127538641753458 -0.0007328586352599839 -0.0003228402743265491 0.00019162050620251305 -0.0003228402743265491 0.0012509579301308586" pbc="T T T"
B        5.83381535       6.00997490       5.07220250       0.09560840      -0.24660668      -0.15168920      -0.09919892       0.55697689       1.66961263
H        5.10345024       5.68620853       7.28843429       0.01346822      -0.07698768       0.06039894       0.26279500       0.01677628      -0.07526164
H        6.03925080       7.08275278       7.20845105      -0.07951325       0.17264438       0.15230113       0.10701073       2.09630208       0.37485498
H        6.85274145       5.59943270       7.27483332      -0.07236388       0.03279324       0.16605733      -0.86890883       0.29342282      -0.50797842
H        5.41689910       4.91724722       4.97331958       0.04372094       0.29899729       0.34425771       0.00771230       0.09840900      -0.21935914
H        6.93905524       6.18883302       4.71156571      -0.25046718       0.06691140       0.35994755      -0.18804103       0.01648944      -0.05848745
H        5.06094476       6.90244334       4.90887643       0.00171835      -0.10566489       0.34028929       0.36235364      -0.53080705      -0.22618521
N        5.98752306       6.11920812       6.90722745      -0.02795548      -0.15469945      -1.17294010       0.41627711      -2.54756946      -0.95719574
8
Lattice="12.0 0.0 0.0 0.0 12.0 0.0 0.0 0.0 12.0" Properties=species:S:1:pos:R:3:momenta:R:3:forces:R:3 energy=-440.37129104371775 free_energy=-440.37129104371775 stress="0.0007030129622552083 0.0001873221392179331 -0.0004958479170510141 0.0001873221392179331 0.0013447521434738292 0.00011074640107122406 -0.0004958479170510141 0.00011074640107122406 -0.0015982923421935485" pbc="T T T"
B        5.88793136       5.99954776       5.27634053      -0.01153162      -0.21895882      -0.68246455       0.29349436      -0.74228016      -4.98320129
H        5.17758044       5.63243566       7.26555216       0.06808289      -0.00833620       0.21316725       0.31262233       0.14043716       0.33682864
H        6.09219685       7.13165506       7.07399008       0.06275115       0.31514687       0.12417381      -0.14855901      -1.09510974       0.19314358
H        6.92148812       5.60563268       7.06504476      -0.10956059      -0.00716854      -0.05851557       0.00059325      -0.19963287       0.54748916
H        5.64303148       4.86834494       4.91986916       0.06346139      -0.11650918       0.18122684      -0.00472144       0.88239762       0.88095930
H        6.93944549       6.27261142       4.73444784       0.12389678       0.16020688       0.23598619      -0.76844872      -0.00442040       1.06406891
H        5.06055451       6.74870114       4.86299861      -0.27454598       0.13000154       0.08693863       0.20639501      -0.30091480       0.70325972
N        6.02272951       6.08577352       6.82443918      -0.20343852      -0.26722822      -0.00006592       0.10862423       1.31952319       1.25745199
8
Lattice="12.0 0.0 0.0 0.0 12.0 0.0 0.0 0.0 12.0" Properties=species:S:1:pos:R:3:momenta:R:3:forces:R:3 energy=-440.2601841699091 free_energy=-440.2601841699091 stress="-0.0009192976240606412 0.0007885392692676786 -0.00011505615908063077 0.0007885392692676786 0.000981186370718217 0.0006935044571672236 -0.00011505615908063077 0.0006935044571672236 0.0025714115448671397" pbc="T T T"
B        5.95202193       5.97242270       5.15391815      -0.14912974       0.03299981       0.25893378       1.38121345      -0.87127355      -0.35955029
H        5.22553521       5.68398753       7.38146433      -0.11841185      -0.01075396      -0.15793742       0.25008301       0.08087654       0.15798007
H        6.26067157       7.15512718       7.21923071      -0.04406689       0.02731285      -0.07855432      -0.44627582      -2.39046904      -0.35623576
H        6.96833532       5.53750885       7.22071486       0.00786336      -0.15258223       0.07940640       0.49739436      -0.49499120       0.34605662
H        5.91098756       4.84487282       4.81543572       0.14180418      -0.02939791      -0.20226425      -0.11452407      -0.08667221       0.91880173
H        6.89193109       6.43608772       4.61853567      -0.10902075       0.04975195      -0.28693215       0.24723012       0.24222528       0.92285610
H        5.03166468       6.52132122       4.79736299      -0.13615572      -0.08024489      -0.16546329      -1.35018191       0.80914688       0.44822865
N        6.11819501       6.07776493       6.98724284       0.11564091       0.14958434       0.65704571      -0.46493915       2.71115729      -2.07813713
8
Lattice="12.0 0.0 0.0 0.0 12.0 0.0 0.0 0.0 12.0" Properties=species:S:1:pos:R:3:momenta:R:3:forces:R:3 energy=-440.6209276688093 free_energy=-440.6209276688093 stress="0.0003376596924313623 9.73192417781592e-05 -3.650872256182174e-05 9.73192417781592e-05 0.0004128548421613506 9.109835443344588e-06 -3.650872256182174e-05 9.109835443344588e-06 -0.0008082512597698128" pbc="T T T"
B        6.05429938       6.01971689       5.16525853      -0.22560245       0.13320591       2.13378423       0.46321617      -0.26414605       0.11133867
H        5.29111278       5.79537370       7.23549819      -0.02566810      -0.02712646      -0.00623153       0.62214248       0.09896706      -0.21270846
H        6.36940111       7.12664499       7.13084911      -0.07482786      -0.25433894      -0.26513105      -0.22054418      -0.35094799      -0.38322127
H        7.01561214       5.55261644       7.20903561       0.12191026      -0.14986514      -0.17031189      -0.83896832       0.38465455      -0.60985624
H        6.17728742       4.87335501       4.95167779       0.13893156       0.06156813      -0.36710731       0.01874189       0.12992779      -0.24013051
H        6.89777506       6.71813385       4.76450181      -0.11920497      -0.03983342      -0.28793244       0.03817026      -0.07933871      -0.32601949
H        4.98438786       6.41148767       5.02613171       0.18589117      -0.14459250      -0.35120428      -0.61165351       0.25683914      -0.54676101
N        6.20257793       6.12957620       6.78650466      -0.31249174       0.40675666      -0.57462728       0.52889521      -0.17595579       2.20735831
8
Lattice="12.0 0.0 0.0 0.0 12.0 0.0 0.0 0.0 12.0" Properties=species:S:1:pos:R:3:momenta:R:3:forces:R:3 energy=-440.25359617041795 free_energy=-440.25359617041795 stress="0.0013009382346445538 -0.0005112045502329676 0.00017163851279923374 -0.0005112045502329676 -0.0013967383437768974 -0.000491861114588875 0.00017163851279923374 -0.000491861114588875 0.0004498335115720466" pbc="T T T"
B        6.04037759       6.01735587       4.89474371      -0.40682362      -0.03862475      -0.97008695      -1.08057111       0.33729447       3.09144192
H        5.39150772       5.75437244       7.28056057       0.10867957      -0.04274177       0.01875474       0.52535802       0.06132521      -0.80404408
H        6.33775954       7.10437613       6.97514476      -0.15339233      -0.08074911       0.11479616       0.06732461       2.08143952       0.23792039
H        7.11351679       5.62850961       6.98445876      -0.10442308       0.10076149       0.12569178      -1.48793300       0.55528397      -0.59048250
H        6.30885321       4.89562387       4.88044656      -0.06051337       0.09271806      -0.15710519       0.15665343      -0.50869128      -1.01901360
H        6.84861007       6.82124327       4.71943943      -0.15672044      -0.07732109      -0.18443472       0.31083477       0.21086311      -1.13107499
H        4.88648321       6.30448708       4.81750172       0.30174167      -0.12840208      -0.07587982       0.65475019      -0.07430922      -0.68721465
N        6.19482536       6.14342366       6.68320347       0.13134790       0.15880534       1.24988796       0.85358309      -2.66320579       0.90246751
8
Lattice="12.0 0.0 0.0 0.0 12.0 0.0 0.0 0.0 12.0" Properties=species:S:1:pos:R:3:momenta:R:3:forces:R:3 energy=-440.4230689801862 free_energy=-440.4230689801862 stress="0.0017308045871073246 -6.034205391134373e-05 -7.511183633302145e-05 -6.034205391134373e-05 0.001247908548889675 0.00020291249546204403 -7.511183633302145e-05 0.00020291249546204403 0.0007176308070898184" pbc="T T T"
B        6.06493637       6.01654784       5.13938490      -0.06324320       0.08798458       0.40924493      -1.26934499       0.55917926       0.85744762
H        5.45375999       5.55605712       7.25404565       0.25816711       0.00215137      -0.00889957      -0.10134786      -0.23738677       0.43609028
H        6.08668591       7.15819383       7.22019927      -0.18609858       0.13603075       0.06679216      -0.04263820      -0.16383241      -0.09323650
H        7.16793632       5.82923990       7.26828244      -0.31407308       0.21145352      -0.04850537       0.44001289      -0.33243829       0.12923371
H        6.31289578       4.84180617       4.96979709      -0.04008549      -0.08474049       0.45460347      -0.16119925       1.09582382      -0.05203578
H        6.84984174       6.85031228       4.73171756       0.08644831       0.12066779       0.42245613      -0.76340410      -0.91596743       0.20267513
H        4.83206368       6.31784063       5.08201261      -0.08054805       0.00450656       0.34507660       2.29402682      -0.55188368      -0.26282804
N        6.24106302       6.15627094       6.93398184      -0.03804172      -0.49531707      -1.50578021      -0.39610531       0.54650552      -1.21734642
8
Lattice="12.0 0.0 0.0 0.0 12.0 0.0 0.0 0.0 12.0" Properties=species:S:1:pos:R:3:momenta:R:3:forces:R:3 energy=-440.31637121809297 free_energy=-440.31637121809297 stress="-0.0025421755972113323 -0.0006192250132060969 -0.0001846369220924577 -0.0006192250132060969 -0.001091396881874447 0.00037469826036661127 -0.0001846369220924577 0.00037469826036661127 -0.0013098131102256291" pbc="T T T"
B        5.95488200       5.96125773       5.20853675      -0.01150218      -0.33225384      -1.30251497      -1.03346977       0.45465688      -1.92398177
H        5.61556566       5.34006563       7.29276399       0.17152194      -0.05369633       0.08960830      -0.64679613      -1.05609494       0.86034927
H        5.74487899       7.06725813       7.08473773      -0.13109437      -0.05700386       0.08914301       0.39680305      -1.44797730      -0.13354606
H        7.10064009       6.05525467       6.90710367      -0.04854433       0.09659522      -0.05127471       2.74523637      -0.30394613       0.91646709
H        6.21551931       4.93274187       4.84446253       0.02848719      -0.32137677       0.02008158       0.27117061      -1.70264693       0.16383043
H        6.69046669       6.65870552       4.70723601       0.24648518       0.27406049       0.08644805       0.99032683       1.05681790       0.03719489
H        4.89935991       6.26232697       4.84948580      -0.56480750       0.14719426      -0.05517892      -0.60519814       0.03323662       0.45420657
N        6.10907049       6.08319094       6.79603949      -0.10392594       0.22757577       1.27151584      -2.11807282       2.96595389      -0.37452043
8
Lattice="12.0 0.0 0.0 0.0 12.0 0.0 0.0 0.0 12.0" Properties=species:S:1:pos:R:3:momenta:R:3:forces:R:3 energy=-440.33613262043286 free_energy=-440.33613262043286 stress="-0.0014687721255494403 0.0002486710452688425 9.267331934272239e-05 0.0002486710452688425 -0.0005649162583439214 0.0002713516762595272 9.267331934272239e-05 0.0002713516762595272 0.0025026691689960254" pbc="T T T"
B        5.93963659       6.07265110       5.11973320       0.07387646      -0.01865837       0.52087793       1.82457595      -0.24444022       0.76922013
H        5.77273364       5.34410812       7.40552822      -0.03482487      -0.21216768      -0.09595736      -0.02860800      -0.49302073       0.22904106
H        5.55729986       7.03363423       7.33896534      -0.02997022      -0.29411383      -0.19797420      -0.27211685       0.29684459      -0.03287422
H        7.13695797       6.41279674       7.28319334       0.28411822       0.06757059       0.07692233       0.61373493      -0.17603655      -0.02479762
H        6.24159683       4.96636577       4.88839667      -0.08147811       0.49007824      -0.16120685      -0.01477200      -0.13041195       0.40500901
H        6.67311309       6.82602011       4.59447178      -0.45476333      -0.39758769      -0.16616380       0.09316558       0.17370259       0.65161088
H        4.86304203       6.31185111       4.90618796       0.21790985      -0.10606588      -0.17588662      -1.62821240       0.30755354       0.22498247
N        6.14790536       6.23405337       7.02665494      -0.41337357       0.45089051       0.35620187      -0.58776722       0.26580873      -2.22219171
8
Lattice="12.0 0.0 0.0 0.0 12.0 0.0 0.0 0.0 12.0" Properties=species:S:1:pos:R:3:momenta:R:3:forces:R:3 energy=-440.0653420840182 free_energy=-440.0653420840182 stress="0.0013187835281776956 0.0012561417542527303 7.01702219693164e-06 0.0012561417542527303 0.0019881103556334875 -0.0006418787926094809 7.01702219693164e-06 -0.0006418787926094809 -0.0026143045084631926" pbc="T T T"
B        6.00801938       6.08748320       5.11985415      -0.19224261       0.05972351       1.81401944       1.08960336      -0.37533192      -1.12968911
H        5.93586268       5.33099619       7.20395189       0.02934778      -0.05293266       0.10001589       0.34829290       0.47720446      -0.40490531
H        5.58229281       6.93401678       7.08793290      -0.11396553       0.09080630      -0.01013555      -1.79593804       2.03190766       0.77242597
H        7.18270094       6.54530837       6.97036589       0.11848151       0.00716202      -0.18999559      -1.25259117      -0.80250883      -0.49571584
H        6.47716250       4.92247087       4.95265373       0.14262813       0.09493100      -0.22563513      -0.78546474       2.13999705      -0.41094886
H        6.70776418       7.07752913       4.79604811      -0.10051387       0.02082579      -0.13473998      -1.24806769      -1.69426151      -0.45117382
H        4.81729906       6.19196924       5.03880996       0.06851510      -0.07851566      -0.27172283       0.67136689      -0.10952185      -0.75592163
N        6.17430223       6.23450813       6.67846259      -0.40683076      -0.16278956      -0.91924450       2.97279849      -1.66748505       2.87592861
8
Lattice="12.0 0.0 0.0 0.0 12.0 0.0 0.0 0.0 12.0" Properties=species:S:1:pos:R:3:momenta:R:3:forces:R:3 energy=-440.22730871314815 free_energy=-440.22730871314815 stress="0.000335610555532148 0.000183048076191151 0.0001506651051118301 0.000183048076191151 0.000568088664473905 0.00013007514264575144 0.0001506651051118301 0.00013007514264575144 0.0009990811246920988" pbc="T T T"
B        5.95945677       5.92591460       4.88910812      -0.59194780      -0.15943778      -1.66141957       0.46972631      -0.17848740       3.60172886
H        5.89247402       5.20936666       7.28089887      -0.03964031       0.03515020       0.02771717       0.29961045       0.30354913      -0.43118409
H        5.56490928       6.89105248       7.15208039      -0.24151892       0.29693064       0.27326393       0.15741570      -0.41642250      -0.47671087
H        7.18136048       6.37116997       6.96983390      -0.14760753      -0.12594555       0.23521887      -0.74831733      -0.52038687      -0.25813832
H        6.66896662       4.98908003       4.86059249       0.23771089      -0.18964733       0.05611919       0.01920454       0.20041353      -1.00848931
H        6.35071130       7.01091997       4.71910113      -0.12519799       0.28925575       0.02834132       0.00226840      -0.02493591      -1.05469698
H        4.81863952       5.70463022       4.94342597       0.05336053      -0.18411807       0.18597046      -0.32915936       0.06516121      -0.77452385
N        6.16517522       6.09871800       6.76664054       0.39866157       0.01694974       1.01792231       0.12925129       0.57110881       0.40201456
8
Lattice="12.0 0.0 0.0 0.0 12.0 0.0 0.0 0.0 12.0" Properties=species:S:1:pos:R:3:momenta:R:3:forces:R:3 energy=-440.3797733133998 free_energy=-440.3797733133998 stress="-0.0004201152532977588 -0.00045598273071627 5.186615315823833e-05 -0.00045598273071627 0.00028602688441927625 0.0006838504379459818 5.186615315823833e-05 0.0006838504379459818 0.0016298309671159618" pbc="T T T"
B        5.92966882       5.83376976       5.13815278      -0.29668829       0.09757557       0.59545351      -1.02102174      -0.11070747       1.32751926
H        5.75030684       5.11513807       7.31887374       0.00541807       0.04057528       0.06702306       0.22309612      -0.02989815       0.32179950
H        5.49734806       6.88486193       7.27287729       0.02120342       0.00572630      -0.05663891       1.62385979      -2.27488771      -0.70229587
H        7.12468587       6.19773795       7.20477461      -0.03179938      -0.02760955      -0.09633088       1.13837947       0.00521329       0.30268268
H        6.77616105       5.15878765       4.80741150       0.23676047      -0.06030223       0.47837337       1.05017285      -0.75107369      -0.10393725
H        5.95866707       6.88076610       4.68112626      -0.10370188       0.28871439       0.56244812       0.16904924       0.95589802       0.01665457
H        4.87531413       5.32546991       5.03289579       0.18085671      -0.16412550       0.42944790       0.08198218       0.05652497       0.28425760
N        6.14397095       6.01731573       6.96389795      -0.45919427      -0.20100349      -1.81987327      -3.26551791       2.14893074      -1.44668048
8
Lattice="12.0 0.0 0.0 0.0 12.0 0.0 0.0 0.0 12.0" Properties=species:S:1:pos:R:3:momenta:R:3:forces:R:3 energy=-440.26299399813723 free_energy=-440.26299399813723 stress="-2.2468419290571155e-05 0.0002927198307193375 -8.397145832596826e-05 0.0002927198307193375 -0.00011775220609644981 1.333830139013001e-05 -8.397145832596826e-05 1.333830139013001e-05 -0.0011041738341642385" pbc="T T T"
B        5.87915952       5.84734371       5.22985880      -0.36661939      -0.11404011      -2.03183079      -1.80888699      -0.56073224      -3.62919495
H        5.77933501       5.13898423       7.30876106       0.04464490      -0.07625309       0.03157245       0.30844978       0.33913125       0.03307318
H        5.45349478       6.86101577       7.10773641       0.10503774      -0.32609155      -0.05222920       0.64199724      -1.17609349      -0.15948786
H        7.07247273       6.27125585       6.88820471       0.14798386       0.08840894       0.12482668      -0.21416844      -0.26375917       0.53156284
H        6.80708482       5.41965448       4.73318696      -0.13611313       0.05389895       0.11095306       1.13379567      -0.82666027       0.31748719
H        5.74867708       6.85095689       4.69123894      -0.07151407      -0.13989110       0.11274163      -0.03786338       1.14453843       0.50930262
H        4.92752727       5.22339712       4.87808165       0.07478496      -0.08451586       0.02695050       0.40415520      -0.02325835       1.06405033
N        6.05214856       6.01630863       6.77767297      -0.22705993       0.57887106       1.83037786      -0.42747908       1.36683383       1.33320666
8
Lattice="12.0 0.0 0.0 0.0 12.0 0.0 0.0 0.0 12.0" Properties=species:S:1:pos:R:3:momenta:R:3:forces:R:3 energy=-440.06390841381733 free_energy=-440.06390841381733 stress="0.001588132315986212 0.001330590774539808 0.0005761264941195164 0.001330590774539808 0.0014518656160634924 -0.0002971034937055415 0.0005761264941195164 -0.0002971034937055415 0.0027199148896539316" pbc="T T T"
B        5.90304541       5.81698513       5.05570769       0.17274517       0.10417662       0.60617190      -0.52638709       0.18829710       0.14407439
H        6.00069420       5.05832644       7.39321730       0.12790654       0.02879182      -0.08653371       0.36420006       0.76324407      -0.21720946
H        5.39715272       6.64061694       7.35753605      -0.02822772      -0.21727107      -0.08348063      -1.96057121       1.48628673       0.66208610
H        7.09625267       6.48158391       7.27515874      -0.08765157       0.05481292      -0.07009485      -1.34169911      -0.86437569      -0.57052308
H        6.96421594       5.34494257       4.66610325      -0.18042658       0.11045933      -0.24126439      -1.14447817       0.36913518       0.78039937
H        5.67168049       6.94167356       4.60678270       0.00155711      -0.19958508      -0.23467859       0.36703851      -1.22114062       0.96397037
H        4.90374733       5.08169284       5.04691470      -0.19126395      -0.06398851      -0.20064353       1.50152356       0.89442682       0.12943859
N        6.13261488       6.04853583       7.01746515      -0.21781889       0.16416540       0.45470434       2.74037345      -1.61587360      -1.89223628
8
Lattice="12.0 0.0 0.0 0.0 12.0 0.0 0.0 0.0 12.0" Properties=species:S:1:pos:R:3:momenta:R:3:forces:R:3 energy=-440.4641051136804 free_energy=-440.4641051136804 stress="-0.0009445987987753742 -0.00035929137871298597 -0.00015105084829219006 -0.00035929137871298597 -0.0004936169578042093 -0.0001835332048762107 -0.00015105084829219006 -0.0001835332048762107 -0.0024511512402543368" pbc="T T T"
B        5.92903717       5.78873572       5.09318712       0.27636787       0.15145702       2.08355530       1.11367295       0.63634214       0.11090546
H        6.31881383       5.08621707       7.18436345       0.13468267       0.20444199      -0.10086777       0.25063195      -0.46756003       0.05537649
H        5.29354340       6.40318127       7.12415295      -0.26849344      -0.03656427       0.07911842      -0.49074971       0.09337084       0.02059509
H        6.90745530       6.64231332       6.82978570      -0.30593457      -0.10298471      -0.18758597       0.54029968       0.07516116       0.07450628
H        6.96941332       5.31074933       4.85387405       0.16107066       0.03027325      -0.05456800      -0.15508692      -0.00024418      -0.92827511
H        5.77397646       6.91378293       4.81563655       0.00659549       0.16915623      -0.08587632      -0.06452096      -0.17223973      -0.88690189
H        5.03058668       5.10624087       5.02658221      -0.35857332      -0.12756601      -0.04574069      -0.98662331      -0.72536186      -0.63947670
N        6.12660271       5.96995415       6.66055937      -0.02608757      -0.30560901      -1.55201065      -0.20762369       0.56053165       2.19327038
8
Lattice="12.0 0.0 0.0 0.0 12.0 0.0 0.0 0.0 12.0" Properties=species:S:1:pos:R:3:momenta:R:3:forces:R:3 energy=-440.35486533882965 free_energy=-440.35486533882965 stress="-0.0010167712644820392 -0.0010367839276093664 -0.0004099170743124874 -0.0010367839276093664 -0.0021108053056938425 0.0005595906616464295 -0.0004099170743124874 0.0005595906616464295 0.0012038138328136709" pbc="T T T"
B        5.93698155       5.79797971       5.00552704      -0.52982765      -0.34546912      -1.99147934       1.60976003       0.71712618       2.34224281
H        6.54253877       5.15298720       7.20778112       0.09591523       0.06562019       0.09983813       0.66435357      -1.20718561       0.45726629
H        5.19263687       6.20131607       7.28978222      -0.06137338      -0.09535108       0.13559166       1.32150321      -0.27206114      -0.81598609
H        6.75275020       6.82049412       7.06254852      -0.06933554       0.01055561       0.26815915       1.54470191       1.68403030       0.22327884
H        6.93408930       5.26673111       4.74455224      -0.10545128       0.06509028       0.14698175       0.39206591       0.15261279      -0.37508638
H        5.75260775       6.89092413       4.71021778      -0.02170421      -0.12459534       0.06205752      -0.04166467       0.59187165      -0.59150022
H        5.06591070       5.10907587       5.02661406       0.20118043       0.12838869       0.10990976      -1.77375920      -1.16971014      -0.17722224
N        6.16982572       6.02950016       6.84128911       0.13404664       0.27945473       1.29644657      -3.71696075      -0.49668402      -1.06299303
8
Lattice="12.0 0.0 0.0 0.0 12.0 0.0 0.0 0.0 12.0" Properties=species:S:1:pos:R:3:momenta:R:3:forces:R:3 energy=-440.38357873432835 free_energy=-440.38357873432835 stress="0.0007893268065857454 -7.1582564132268455e-06 0.00015348666162072496 -7.1582564132268455e-06 0.0012050801190503202 0.0001690392722433166 0.00015348666162072496 0.0001690392722433166 0.002312614721697398" pbc="T T T"
B        5.92720657       5.82834308       5.10396431      -0.11177540       0.05405303       1.01339750      -0.01619081      -0.33028729      -0.60814877
H        6.67507575       5.21317557       7.27786282       0.13322235      -0.08568519       0.03783394       0.20157675       0.05695207       0.16689573
H        5.20329263       6.11275742       7.37028838       0.21960098      -0.01278664      -0.08688377      -0.29626160       0.00079214       0.13931486
H        6.66653067       6.97171846       7.06956973       0.07189582       0.24377810      -0.13974894       0.19699220      -0.22067541       0.12553481
H        6.97923260       5.37713064       4.68084948      -0.01160674      -0.01060689       0.19808568      -0.91859913       0.57996833       0.85797463
H        5.65609536       6.91258452       4.62971162      -0.06442657       0.03965881       0.34809165       0.29598276      -0.84039961       0.91716421
H        5.02076740       5.02828154       4.97144417       0.29693179       0.10196820       0.19190155       0.83733583       0.77243224       0.58803268
N        6.15720002       6.06130050       6.95399198      -0.87321862      -0.34590007      -1.44131375      -0.30083600      -0.01878247      -2.18676814
8
Lattice="12.0 0.0 0.0 0.0 12.0 0.0 0.0 0.0 12.0" Properties=species:S:1:pos:R:3:momenta:R:3:forces:R:3 energy=-440.3131309835056 free_energy=-440.3131309835056 stress="-0.00043366192115364263 0.0006683559737834899 0.00045367604906252496 0.0006683559737834899 0.0013537500856796482 -0.0004742307094176672 0.00045367604906252496 -0.0004742307094176672 -0.0027053763708504036" pbc="T T T"
B        5.87452949       5.86601047       5.27173873      -0.41133145      -0.11053605      -0.86966622      -0.99838101      -0.99805797      -4.58514618
H        6.61457255       5.24080028       7.19313667       0.00477904      -0.12698047       0.00057131      -0.29784723       0.91938687      -0.12434924
H        5.16373462       6.12449728       7.22169875      -0.13029802      -0.01372738      -0.02264943      -1.84592166       0.14953189       1.17352551
H        6.58647113       7.01626526       6.91138116       0.08487929       0.06630011       0.10303598      -0.48313921      -1.49985835       0.19065875
H        6.92001949       5.66741701       4.77830125       0.20712772      -0.02829568      -0.24942884       0.04731814      -0.26461384       0.32573179
H        5.46789554       6.84803828       4.78210534      -0.24345359       0.09449617      -0.23046672      -0.14191165       0.21596581       0.47621242
H        5.07998051       4.98373474       5.04116413       0.03615188      -0.21998658      -0.11032645       0.83476703       0.58955286       0.63989431
N        6.06785602       6.06600117       6.77126955       0.12300339       0.32367728       1.49663423       2.88511560       0.88809274       1.90347265
8
Lattice="12.0 0.0 0.0 0.0 12.0 0.0 0.0 0.0 12.0" Properties=species:S:1:pos:R:3:momenta:R:3:forces:R:3 energy=-440.2346574116325 free_energy=-440.2346574116325 stress="-0.0008063465254084324 0.0005006417309748095 0.00028035007682334354 0.0005006417309748095 -7.685849500201888e-05 0.00043882124123821614 0.00028035007682334354 0.00043882124123821614 0.0024050277860690463" pbc="T T T"
B        5.82617011       5.93676252       4.97438874      -0.06122542      -0.04043685       0.23995215      -0.83753101      -0.44248477       2.59614091
H        6.52527424       5.31849306       7.29311468      -0.06365596       0.04375069      -0.02200400      -0.01834827       0.54586327      -0.23607031
H        5.12027018       6.31263686       7.41192722      -0.31373091       0.05816672       0.11303051       0.60539543      -0.08160696      -0.61164410
H        6.65556552       7.07588718       7.16743005      -0.03943892      -0.14354050      -0.12481269      -0.13031616      -0.52615190      -0.35160255
H        6.87972982       5.96684398       4.58807278      -0.05570742       0.21276083      -0.19732149       1.61926281      -0.20930647      -0.38561877
H        5.19485712       6.82954460       4.68083952      -0.07173444      -0.10892738      -0.17353039      -0.75968089       1.10449080      -0.14674177
H        5.24518934       4.92411282       5.02107111      -0.02549875      -0.15771615      -0.21533909       0.14952566      -0.17757169      -0.08449484
N        6.07618870       6.21468778       6.94193327       0.30958544       0.12124380       0.49496263      -0.62830757      -0.21323229      -0.77996858
8
Lattice="12.0 0.0 0.0 0.0 12.0 0.0 0.0 0.0 12.0" Properties=species:S:1:pos:R:3:momenta:R:3:forces:R:3 energy=-440.5215625818089 free_energy=-440.5215625818089 stress="0.0008100589041318074 -0.0006265254893856553 -0.0007904581906609383 -0.0006265254893856553 -0.0003396303409673809 -4.847498370121716e-05 -0.0007904581906609383 -4.847498370121716e-05 -0.0010487581680925532" pbc="T T T"
B        5.86530160       6.02430386       5.12222492       0.35044524       0.29155476       1.88020048      -0.08793751      -0.10029085       0.27000290
H        6.51828058       5.43458835       7.23073126      -0.04816182       0.06261599      -0.03391570       0.28534070      -0.22131784      -0.01772725
H        5.12308736       6.46859415       7.24945027       0.10136062      -0.05192370      -0.07628816       1.86630857      -0.61888483      -1.11947098
H        6.66237207       7.08738766       6.82988783      -0.02845364      -0.02374373      -0.04895152       0.74630634       0.72318554       0.25860259
H        6.95057424       6.23678313       4.75054973      -0.34359910       0.17505648       0.12655795      -0.08138867      -0.00778627      -0.62544233
H        5.04942576       6.83884056       4.90175504       0.16617320      -0.23751832       0.10975712       0.17069481      -0.14564012      -0.53300680
H        5.51826424       4.91261234       5.03809612      -0.00396977       0.07653175       0.14050942      -0.10323093      -0.00163328      -0.35996830
N        6.08131425       6.24181012       6.72500808      -0.51414498      -0.30722376      -1.98330963      -2.79609330       0.37236765       2.12701018
8
Lattice="12.0 0.0 0.0 0.0 12.0 0.0 0.0 0.0 12.0" Properties=species:S:1:pos:R:3:momenta:R:3:forces:R:3 energy=-440.4829050744944 free_energy=-440.4829050744944 stress="0.00175042518488514 -0.00039130802177186566 -0.0001617265046278563 -0.00039130802177186566 0.0010221330749049958 0.00020424552860553142 -0.0001617265046278563 0.00020424552860553142 0.0010795896733877396" pbc="T T T"
B        5.91143874       6.00148112       5.11203677      -0.32194653      -0.18459552      -1.92109170       0.64891954       0.57651292       0.73531687
H        6.65457249       5.39984060       7.22387808       0.09169034       0.03744982       0.15384436       0.17383374       0.28503450       0.14855631
H        5.19422050       6.31476309       7.33005862       0.35998217      -0.09974747       0.03442395       0.32417109      -0.06948704      -0.10219134
H        6.67931273       7.16582917       7.11298891      -0.00564754       0.15073692       0.23778350       0.05280988      -0.34276733      -0.13428715
H        7.03178611       6.23935120       4.66994138      -0.10994234      -0.00146018      -0.03287256      -1.48887909       0.04746767       0.32896185
H        4.96821389       6.74788740       4.89198008      -0.00406522      -0.06400289      -0.11056603       1.22904347      -0.80907522      -0.02861606
H        5.69356409       4.83417083       5.10862853      -0.04247407      -0.08845951      -0.01235221      -0.21379321       0.46323542      -0.08531572
N        6.16101732       6.27010512       6.90355416      -0.28665878       0.23548722       1.76492995      -0.72610543      -0.15092093      -0.86242474
8
Lattice="12.0 0.0 0.0 0.0 12.0 0.0 0.0 0.0 12.0" Properties=species:S:1:pos:R:3:momenta:R:3:forces:R:3 energy=-440.3245420326988 free_energy=-440.3245420326988 stress="-0.0005525686543838104 -0.00045271397570828726 0.0007748155073528432 -0.00045271397570828726 0.0004787347363545123 0.000291825123702467 0.0007748155073528432 0.000291825123702467 0.0018440727120146634" pbc="T T T"
B        5.90153050       5.90462828       5.03660718      -0.02025949       0.19272474       1.19129533       0.80880328       1.23797307       1.01765486
H        6.87408485       5.48173026       7.27647074       0.03770026       0.13640578      -0.11807642      -0.21428803       0.52389524      -0.18662285
H        5.28341448       6.07195913       7.40845478      -0.01975889      -0.09926503      -0.05921055      -2.50510830      -0.40986012       1.16708464
H        6.48255513       7.21090670       7.00504239      -0.20351748      -0.06957035      -0.20448140      -0.11065122      -1.17062551       0.04159396
H        6.98321760       6.16621708       4.59154522       0.25586695      -0.05556433       0.10844144      -0.68351925       0.08066630       0.41480340
H        5.01678240       6.65970818       4.80301251      -0.19447182       0.20109143       0.19599259       0.39582214      -0.23071503       0.14286419
H        5.65465610       4.78909330       4.95586938       0.02281953      -0.16472082       0.02701256      -0.34034836      -0.82390254       0.22013974
N        6.15994786       6.18985344       6.94708684      -0.19783664      -0.15571112      -1.02673282       2.64928974       0.79256860      -2.81751793
8
Lattice="12.0 0.0 0.0 0.0 12.0 0.0 0.0 0.0 12.0" Properties=species:S:1:pos:R:3:momenta:R:3:forces:R:3 energy=-440.26566102686354 free_energy=-440.26566102686354 stress="-0.0017204181767499268 6.192046489506765e-05 -0.0005592034929057611 6.192046489506765e-05 -0.0020981458026683632 -0.0005880708521501338 -0.0005592034929057611 -0.0005880708521501338 -0.0038491667625539816" pbc="T T T"
B        5.87851723       5.90951231       5.24285224      -0.35269575      -0.13983417      -0.79681569      -0.05497728      -0.03764599      -2.96493669
H        6.91670820       5.64444084       7.07430831      -0.02825667       0.07116692      -0.14686807       0.70136272      -0.14467992       0.21139135
H        5.26776738       5.78124651       7.27454960      -0.22350415      -0.24706114       0.10102609      -0.10450537       0.02905473      -0.03442839
H        6.15834247       7.15377925       6.93047086      -0.15131254      -0.16189310       0.05516367       0.32126460       0.87159122       0.21072913
H        6.85494374       6.15799266       4.72545040       0.09490436      -0.17327191      -0.09346905       1.09655151       0.05385600      -0.51895105
H        5.08329180       6.61789307       4.89202468      -0.11340606      -0.00915415      -0.02008191      -1.24083965       0.97858633      -0.38980770
H        5.55426911       4.84622075       5.13019433       0.13061647       0.11989066       0.07743053      -0.33991890      -1.70325959      -0.30077529
N        6.08081353       6.14477047       6.70567280       0.32139285       0.52541894       0.93885786      -0.37893763      -0.04750278       3.78677864
8
Lattice="12.0 0.0 0.0 0.0 12.0 0.0 0.0 0.0 12.0" Properties=species:S:1:pos:R:3:momenta:R:3:forces:R:3 energy=-440.19032763300726 free_energy=-440.19032763300726 stress="-2.911832191825417e-05 0.0010803723139989983 -0.00012886858223092398 0.0010803723139989983 0.00013691555875172464 -0.00017097830117908735 -0.00012886858223092398 -0.00017097830117908735 0.00266060746881472" pbc="T T T"
B        5.84236259       5.92853684       4.97294215      -0.34437453      -0.30945731      -0.57582407      -0.34147967      -0.33926572       1.22194367
H        7.02247112       5.85968372       7.17881069       0.08541850       0.03798860       0.12959391       1.16781165      -0.34762413       0.10295852
H        5.34782428       5.70741848       7.47006401       0.06944878       0.01520530       0.11429402       1.03944429       0.85903617      -1.08258845
H        6.04420103       7.24394032       7.16259333      -0.10260409       0.12966175       0.01672882      -0.00550701       1.77021346       0.11969460
H        6.87842735       6.27001690       4.52993599      -0.18278962       0.02971934       0.02330594       0.05716304      -0.36256735       0.22699002
H        4.97752888       6.67164797       4.67098396       0.13664619      -0.14115099       0.00315151      -0.01349917      -0.08396453       0.41829097
H        5.51670858       4.75605968       4.96951226       0.10345163       0.28613648      -0.12094995       0.61722806       1.14206966       0.09905102
N        6.11309809       6.25981061       6.92186564      -0.08845774      -0.06288682       0.52530066      -2.52116119      -2.63789756      -1.10634037
8
Lattice="12.0 0.0 0.0 0.0 12.0 0.0 0.0 0.0 12.0" Properties=species:S:1:pos:R:3:momenta:R:3:forces:R:3 energy=-440.5628328656494 free_energy=-440.5628328656494 stress="0.0009003819617729267 -0.0004001494328796135 0.00010910168004693776 -0.0004001494328796135 0.002097362383474785 -0.00010929402251036749 0.00010910168004693776 -0.00010929402251036749 -0.000126826229628952" pbc="T T T"
B        5.88699006       5.95217201       5.13721801       0.29250860       0.21258008       2.27500153      -0.68019002      -1.23306417      -0.32451749
H        7.09530744       5.92140074       7.08217576       0.10481297      -0.11197973      -0.01936682      -0.53878281       0.37199044      -0.03058439
H        5.41150164       5.70993628       7.36413653       0.14807878       0.06639054      -0.18403698      -0.63448801      -0.44134787       0.46725092
H        5.94986694       7.27528912       6.88551043      -0.08846705       0.20712041      -0.01671240       0.45514721      -0.93719701       0.34086715
H        6.88829880       6.37253587       4.63586347      -0.04149826       0.24826153       0.00290474      -0.60792588      -0.32359493       0.23352363
H        4.90469256       6.61036931       4.91327302      -0.05320188      -0.00360986       0.02726952       0.74179960      -0.52213018       0.00867629
H        5.69232633       4.72471088       5.03932954      -0.02167272      -0.13130394       0.11794712       0.43593770       1.88964753       0.04551226
N        6.11282086       6.21936095       6.80361543      -0.67003114      -0.50252667      -2.08518518       0.82850222       1.19569618      -0.74072837
8
Lattice="12.0 0.0 0.0 0.0 12.0 0.0 0.0 0.0 12.0" Properties=species:S:1:pos:R:3:momenta:R:3:forces:R:3 energy=-440.52486589630405 free_energy=-440.52486589630405 stress="-0.0005664003562097043 -0.0010601273419384803 0.0005881880942548853 -0.0010601273419384803 0.00030346590503416235 0.0006538237791004093 0.0005881880942548853 0.0006538237791004093 -4.759613568450533e-05" pbc="T T T"
B        5.92285005       5.89514828       5.13211870      -0.28068519      -0.10592775      -1.84067400       0.26687289      -0.57162884       1.85647763
H        7.13936621       5.77543756       7.06157439      -0.00377758      -0.05391624       0.05865044      -1.05531207       0.82092825      -0.00246621
H        5.44640161       5.65855444       7.32585812      -0.12076553      -0.03558351       0.19294627      -1.25408851      -0.88071718       0.96840909
H        6.06930740       7.25442070       7.07920816       0.02451295       0.01781906       0.04092181       0.44136505      -1.68931185      -0.26222246
H        6.82663149       6.40891372       4.67414188      -0.06652459       0.18765748      -0.23304593       0.59589293       0.77650010      -0.72637747
H        4.86063379       6.28802229       4.96306131      -0.18369608      -0.11590477      -0.17603296      -0.60534100       0.37356918      -0.42524858
H        6.03909755       4.74557930       5.13450253       0.07571535      -0.35442574      -0.08148774      -0.18130516      -0.53117478      -0.28621894
N        6.16834739       6.19213415       6.85237525       0.22020713       0.44496034       2.15852579       1.79191587       1.70183512      -1.12235307
8
Lattice="12.0 0.0 0.0 0.0 12.0 0.0 0.0 0.0 12.0" Properties=species:S:1:pos:R:3:momenta:R:3:forces:R:3 energy=-440.26425389654463 free_energy=-440.26425389654463 stress="0.0004594426458703577 0.00046832924641435867 -0.0002068373465387316 0.00046832924641435867 -0.0008809036645251729 0.00023506723427450484 -0.0002068373465387316 0.00023506723427450484 0.0025609954586787794" pbc="T T T"
B        5.96745130       5.84057167       4.94225037      -0.17994056       0.28492184       0.49411020       0.24489967       1.54433106       2.03118906
H        7.16978945       5.79740105       7.19922665      -0.14800690       0.01569638      -0.07588189      -0.03013040       0.13425367      -0.24386197
H        5.45169843       5.75431776       7.48844861      -0.21820687      -0.06029156       0.02183037       1.17322168       0.51917699      -1.23131349
H        6.20546528       7.23191040       7.01129833      -0.05283323      -0.19662979      -0.18388102       0.14370005       0.17343683      -0.14419693
H        6.73262857       6.61029032       4.51155139      -0.16257013      -0.13559367       0.30571626      -0.09607711       0.25678300      -0.11261501
H        4.83021055       6.07818586       4.87607437       0.15701759      -0.16852257       0.24891790      -0.19449646       0.09350853      -0.15137067
H        6.29760904       4.76808960       4.81600961       0.13242109       0.15260679       0.06184663       0.24666011      -1.45339838       0.10352021
N        6.24700261       6.19318363       6.87955041       0.13260946       0.09228583      -0.75124696      -1.48777754      -1.26809170      -0.25135119
8
Lattice="12.0 0.0 0.0 0.0 12.0 0.0 0.0 0.0 12.0" Properties=species:S:1:pos:R:3:momenta:R:3:forces:R:3 energy=-440.10604255423334 free_energy=-440.10604255423334 stress="0.0009222327472940366 0.0005272120912402354 -0.001165597197601503 0.0005272120912402354 -4.188495833515838e-05 -0.001673196540857678 -0.001165597197601503 -0.001673196540857678 -0.0031580268954006273" pbc="T T T"
B        6.04060061       5.89392160       5.31164182      -0.22731861      -0.07297188      -0.14977367      -1.39649995       0.01073093      -6.30897112
H        7.14637625       5.78069905       7.10599897      -0.03775512      -0.00701095      -0.04197868       0.70523861      -0.03443569       0.14891471
H        5.46652860       5.68887011       7.36920350       0.22133165       0.08496930      -0.06848213       1.29052997       0.74420997      -1.08444738
H        6.20327579       7.17171010       6.98163620      -0.07794871      -0.01189768       0.20532589       0.09175204       1.07744340       0.19718562
H        6.57084641       6.76393641       4.63079650       0.07019616      -0.08696464       0.11737987      -0.32651063      -1.03318163       1.06263985
H        4.85362375       5.92898201       5.07567667      -0.00262964      -0.10138474       0.21523064       1.01087851      -0.05370237       0.43768056
H        6.47223814       4.82828990       5.08534364       0.10627390       0.17085472       0.11689814       0.04553238       0.04590923       0.01151974
N        6.24761825       6.16602695       6.74264026      -0.40134122       0.00843634      -0.26972620      -1.42092092      -0.75697384       5.53547802
8
Lattice="12.0 0.0 0.0 0.0 12.0 0.0 0.0 0.0 12.0" Properties=species:S:1:pos:R:3:momenta:R:3:forces:R:3 energy=-440.2361128150266 free_energy=-440.2361128150266 stress="2.2532109403387063e-05 -0.00042796837588273805 0.0008256934227185698 -0.00042796837588273805 0.0008242084002616296 0.0004456374420721053 0.0008256934227185698 0.0004456374420721053 0.0025230696609712653" pbc="T T T"
B        5.94460432       5.83216217       5.08061458      -0.20796898      -0.36235686      -0.62062489      -0.29064448       0.91439878      -0.14076531
H        7.22282463       5.94657012       7.15753773       0.06212008       0.12409485       0.17281062      -0.21839069       0.30492697       0.00995337
H        5.58109350       5.59779041       7.50369130       0.33887133       0.20999767       0.01890025      -0.90177855      -0.82808842       0.67202031
H        5.99550500       7.23499415       7.13063758      -0.19700815       0.05081251       0.05117687       0.27131056      -0.58085244      -0.05832574
H        6.42964735       6.77134914       4.49630870       0.07443317       0.19110965      -0.22706827       0.18230128      -0.78701249       0.89726203
H        4.77717537       5.84954972       4.84034404      -0.22605152       0.02525099      -0.14536020       0.33637832      -0.08574425       0.92111054
H        6.42191330       4.76500585       4.91797045      -0.00271543      -0.04240947      -0.10909513       0.16491710       0.34457576       0.36372971
N        6.21693472       6.20831163       6.98853335      -0.20065301      -0.21291618       0.98763236       0.45590645       0.71779609      -2.66498490
8
Lattice="12.0 0.0 0.0 0.0 12.0 0.0 0.0 0.0 12.0" Properties=species:S:1:pos:R:3:momenta:R:3:forces:R:3 energy=-440.5511721128988 free_energy=-440.5511721128988 stress="-0.0011102338761161893 -0.0008316756148117159 0.0005743909661440798 -0.0008316756148117159 -0.001212971563869913 0.0010132479653856155 0.0005743909661440798 0.0010132479653856155 0.00018957345768572613" pbc="T T T"
B        5.92713897       5.90011369       5.11179015       0.46753081       0.04904861       2.59324304       0.12032615      -0.35566622       1.72097227
H        7.20489081       6.29748515       7.05012757      -0.12077010       0.01247885      -0.22468992      -0.19179773       0.13940066       0.01166037
H        5.73472767       5.51459516       7.37805661       0.01454175      -0.31871266      -0.11086421      -1.09694371      -1.90912793       1.35635485
H        5.67088414       7.16132385       6.99574407      -0.13447325      -0.24669650      -0.11240425       0.42754843      -0.29118530       0.08922296
H        6.44502934       6.77756230       4.62194339      -0.13810559       0.14673141      -0.15355429       0.77349515       0.85641199      -0.68346114
H        4.79510919       5.96001007       5.05132836      -0.03039771       0.09435655      -0.18455755      -1.16881987      -0.02799696      -0.18316861
H        6.35708854       4.83867615       4.94447806      -0.16742763       0.04868139      -0.00205889       0.31811578      -0.26933192      -0.04077662
N        6.17351307       6.24261951       6.84898381      -0.26624234       0.19694679      -1.67088772       0.81807580       1.85749566      -2.27080409
8
Lattice="12.0 0.0 0.0 0.0 12.0 0.0 0.0 0.0 12.0" Properties=species:S:1:pos:R:3:momenta:R:3:forces:R:3 energy=-440.51936118625974 free_energy=-440.51936118625974 stress="-0.000875023445829176 -0.00015960513710524879 -3.680676785630098e-05 -0.00015960513710524879 -0.00025159493080899564 -0.0005428394943535714 -3.680676785630098e-05 -0.0005428394943535714 -0.0007273493630610244" pbc="T T T"
B        5.96161234       6.00930851       5.12652955      -0.22896828      -0.54765731      -1.75732099       0.77827916      -1.69168867       1.56873576
H        7.19322026       6.59308746       6.88619556      -0.04727928       0.02142157      -0.07545322       0.95590945       0.37868996       0.14277100
H        6.02619026       5.45245637       7.34522841       0.06157210      -0.31888735       0.22395724       0.07662554       0.63451859      -0.60177370
H        5.58876245       7.06629265       7.12586790      -0.07987508      -0.11651204      -0.01710360      -0.69149165       1.09626129       0.26932476
H        6.61079657       6.82092995       4.65477159      -0.33971115      -0.10829767      -0.06918885       0.01293346       0.72846817      -0.89967943
H        4.80677974       5.99933011       5.07148705       0.25908890      -0.01471653      -0.24256400      -0.34905301       0.12459836      -0.65222725
H        6.49021674       4.93370735       5.11418967      -0.18721797       0.10623137      -0.20079630      -0.52218833       0.55134674      -0.64544448
N        6.20488988       6.33237000       6.75677361       0.16605261       0.96029229       2.28020359      -0.26101462      -1.82219445       0.81829334
8
Lattice="12.0 0.0 0.0 0.0 12.0 0.0 0.0 0.0 12.0" Properties=species:S:1:pos:R:3:momenta:R:3:forces:R:3 energy=-440.02317411941056 free_energy=-440.02317411941056 stress="0.0013205972763961095 0.00010412672490144094 -0.00012027060967878836 0.00010412672490144094 0.0017109858751878516 -0.00024194574843592893 -0.00012027060967878836 -0.00024194574843592893 0.0024608117345878114" pbc="T T T"
B        5.99904289       6.00197452       4.92864145      -0.32458509       0.32939891      -0.04729120       0.97450507      -0.51395124       1.60191979
H        7.22869947       6.83815165       7.04809710       0.15152359       0.06884266       0.12962897       0.68123355       0.31932611      -0.19071334
H        6.20814435       5.52504104       7.51238655       0.04452995       0.15047307      -0.01739010       0.14880787       1.20249291      -1.34511302
H        5.54762438       7.05732237       7.16429008      -0.27171886       0.05005407       0.03560349      -0.61404229       0.72605434       0.01178862
H        6.60081686       6.96620951       4.48761345      -0.06093852      -0.04044601       0.19721780      -1.03221434      -0.76291502       0.20903726
H        4.77130053       5.93077866       4.99087260       0.05938703      -0.09348758       0.26385283       1.52350610       0.18232813      -0.39515710
H        6.65835267       4.94267763       4.81033483       0.16286618      -0.06661269       0.20026561      -1.19948310       1.49508330       0.23860552
N        6.30075115       6.41126787       6.87689392      -0.18186885      -0.41746703      -0.61140412      -0.48231286      -2.64841852      -0.13036774
8
Lattice="12.0 0.0 0.0 0.0 12.0 0.0 0.0 0.0 12.0" Properties=species:S:1:pos:R:3:momenta:R:3:forces:R:3 energy=-440.27144508663577 free_energy=-440.27144508663577 stress="0.0008196484412145479 -4.2194454423179644e-05 -0.0006125422794610115 -4.2194454423179644e-05 -0.0008997067365075696 -2.095984414570952e-05 -0.0006125422794610115 -2.095984414570952e-05 -0.0029518991437307803" pbc="T T T"
B        5.95383871       5.93249765       5.35190169      -0.29064042       0.37920291       1.24771383      -1.05722338       0.01084380      -4.38127935
H        7.15247090       6.70060664       6.94793496       0.15380747      -0.03437872       0.00159951      -1.31836726      -0.33636846       0.16251851
H        6.12673422       5.36975189       7.32325524       0.02257513       0.20579479      -0.05502393       0.00348620      -0.95409283       1.01852412
H        5.37548186       6.91722574       7.19123124      -0.10963782       0.07181133       0.19967020       1.45714024      -0.79955937      -0.40200843
H        6.20599510       6.84783504       4.67674476       0.14625708       0.21761448       0.14947928       0.03721919       0.42566082       0.32991597
H        4.84752910       5.63566514       5.17292274      -0.24316302      -0.28729949       0.24202777      -0.34834799      -0.10398695       0.33380987
H        6.63114073       5.08277426       5.01672846       0.47250674      -0.15562255      -0.05423906       0.75284154      -0.90728270       0.24139966
N        6.16802155       6.25975415       6.81140399      -0.60778062      -0.41798039      -1.56813115       0.47325146       2.66478568       2.69711965
8
Lattice="12.0 0.0 0.0 0.0 12.0 0.0 0.0 0.0 12.0" Properties=species:S:1:pos:R:3:momenta:R:3:forces:R:3 energy=-440.12360577015426 free_energy=-440.12360577015426 stress="0.0002932555402549872 -0.00013849202249394937 0.0007029921373031161 -0.00013849202249394937 -0.0007712446059890262 0.0007131089789398448 0.0007029921373031161 0.0007131089789398448 0.0022158602788752853" pbc="T T T"
B        5.85883172       5.75417303       5.10511695      -0.37779624      -0.36773528      -0.95428179      -1.18744849       1.49817698       0.85455619
H        7.14184604       6.55907812       6.95395263      -0.06717192      -0.08719957       0.12205071      -1.67067419      -0.41051881       0.25457759
H        6.04951639       5.29297766       7.49321053      -0.06396562      -0.15878806       0.24263277      -0.14692743      -1.00813655       0.66568158
H        5.34485010       6.89237596       7.17462440       0.03018804      -0.09822881      -0.02354378       1.61195343      -1.26156387      -0.17589017
H        5.76523237       6.75094140       4.50678947      -0.12726196      -0.26986301      -0.13454923       0.53994845       0.57063697       0.52789162
H        4.85815396       5.22635554       4.96435171       0.21734001      -0.11079209      -0.16869904      -0.92964188      -0.66530335       0.81476006
H        6.70447580       5.10762404       4.81189281      -0.18754384       0.30490539      -0.39152227       1.96740339      -1.13173376      -0.16483321
N        6.13059749       6.16208571       6.95734904       0.09106389       0.76551424       1.48140553      -0.18461327       2.40844240      -2.77674366
8
Lattice="12.0 0.0 0.0 0.0 12.0 0.0 0.0 0.0 12.0" Properties=species:S:1:pos:R:3:momenta:R:3:forces:R:3 energy=-440.195992253238 free_energy=-440.195992253238 stress="0.0008967170626240288 -1.8083479004260128e-05 -6.880261051486241e-07 -1.8083479004260128e-05 0.0024937079257353403 -0.0006658632229417728 -6.880261051486241e-07 -0.0006658632229417728 0.001520881272389671" pbc="T T T"
B        5.83461980       5.83473400       4.94954104       0.43219333       0.27972900       2.24037510      -0.61028617       0.81744538       2.29792440
H        7.06476171       6.64615716       6.98091023      -0.14670879      -0.18348401      -0.20979431       0.33294399       0.16281992      -0.17990610
H        5.96250156       5.33512348       7.36802009      -0.01884579      -0.16642329      -0.11543234       0.37672366       2.06915855      -1.35809650
H        5.38369021       6.95782652       7.05586951       0.06114032      -0.25064513      -0.20592638      -0.35997426       0.30891043       0.03632606
H        5.45047834       6.96285493       4.63197991      -0.26695739      -0.09149220      -0.20699811       0.78316644      -1.55217367      -0.27762844
H        4.93523829       5.03714507       5.15180972       0.05719155      -0.04623323      -0.22804553       0.86470384       0.65498937      -0.63988818
H        6.92884623       5.38727554       4.71681746      -0.27630602       0.16637483      -0.06001084      -0.86444651       0.46747754      -0.37137136
N        6.11224109       6.26899070       6.77688846      -0.34718595       0.26905704      -1.03340411      -0.52283099      -2.92862753       0.49264012
8
Lattice="12.0 0.0 0.0 0.0 12.0 0.0 0.0 0.0 12.0" Properties=species:S:1:pos:R:3:momenta:R:3:forces:R:3 energy=-439.98360720803146 free_energy=-439.98360720803146 stress="-2.5985569955725065e-05 -0.00018721103797051438 -0.0004899086880738757 -0.00018721103797051438 0.0006258343701033709 -0.0015606420372580425 -0.0004899086880738757 -0.0015606420372580425 -0.002257327963865972" pbc="T T T"
B        5.73884136       5.95691979       5.03580048      -0.01031021      -0.54354710      -1.48774830       1.02522199      -0.32392327       0.58072780
H        6.88969290       6.78270706       6.66159722      -0.00249252       0.04036689       0.01195282       0.96858408       0.64625676       0.08235971
H        6.00952509       5.46500408       7.25694015       0.13947251       0.31602504      -0.08468962      -0.03376447       1.28482290      -1.38502053
H        5.29134430       6.95983484       7.00656289      -0.14372125      -0.08592552       0.09036473      -1.22534443       0.94289014       0.26448407
H        5.26885563       7.00565442       4.74305985      -0.28022218       0.17027007       0.09122373      -0.01532410      -0.73883009      -1.21185249
H        5.06933865       4.99434558       5.23812033      -0.11054988      -0.11206072      -0.04855351      -0.07060950       0.34233604      -1.32876384
H        6.93066135       5.74225638       4.80997918      -0.00281168      -0.04391869      -0.02245662      -1.57528603       0.03461049      -0.94349086
N        5.96980184       6.33026328       6.56384363      -0.10186616       0.23535187       1.63318159       0.92652247      -2.18816297       3.94155614
8
Lattice="12.0 0.0 0.0 0.0 12.0 0.0 0.0 0.0 12.0" Properties=species:S:1:pos:R:3:momenta:R:3:forces:R:3 energy=-440.2640381458224 free_energy=-440.2640381458224 stress="0.0005254955483178655 0.0007343617191348537 -5.4367008383353266e-05 0.0007343617191348537 -0.0014447743354508973 0.0012709743106820606 -5.4367008383353266e-05 0.0012709743106820606 0.0015923924547510653" pbc="T T T"
B        5.76220797       5.86986926       4.98046568      -0.45432287      -0.16892832      -0.96529758       2.25056154      -0.53505004       1.86224132
H        6.82926701       7.08415580       6.98815297      -0.04287363       0.08360407       0.17378164      -0.35678069      -0.21011014      -0.27268577
H        6.30257994       5.52206820       7.40410697       0.11085421       0.41215911      -0.14202855       0.65513860      -2.07990433       0.98237859
H        5.12785216       6.70024269       7.18226846      -0.14213755      -0.18340769       0.16740488       0.49047289       0.03927870      -0.13974876
H        5.31219454       6.83418413       4.59589303      -0.08561702       0.30178884       0.38526433      -0.83774709       1.04641246      -0.35064846
H        5.11424244       4.91584420       5.13508119      -0.00050450      -0.06963680       0.52399004      -0.29079228      -0.07802421      -0.06522450
H        6.88575756       5.69387670       4.60791583       0.35518305      -0.07539675       0.33325870      -0.65746578      -0.06343664       0.25276843
N        6.07891766       6.34892399       6.87903917      -0.23839874      -0.32294904      -0.29834987      -1.25338719       1.88083420      -2.26908085
8
Lattice="12.0 0.0 0.0 0.0 12.0 0.0 0.0 0.0 12.0" Properties=species:S:1:pos:R:3:momenta:R:3:forces:R:3 energy=-440.2157645618673 free_energy=-440.2157645618673 stress="-0.0015404396198288432 0.001020282388204688 -0.0006360658670031597 0.001020282388204688 -0.0021312140252818337 0.0005956938936402952 -0.0006360658670031597 0.0005956938936402952 -0.0008360088997958811" pbc="T T T"
B        5.86776638       5.79178473       5.30259396      -0.57233262       0.29982190       1.05996543      -0.42126453      -0.75860280      -2.52205218
H        6.62468542       7.11196877       6.81892681      -0.15146367      -0.07894740      -0.10747702      -0.23117179      -0.06454434       0.34885420
H        6.67841704       5.47295601       7.21317524       0.32055259      -0.00670097       0.09280158       1.68273571      -2.04529476       1.45821086
H        5.17616720       6.24897915       7.33889581       0.11143854      -0.17672308      -0.02769628       0.49349249       0.19957283      -0.09270150
H        5.42355016       6.60674784       4.66110419       0.31094826      -0.13920068       0.38076012      -0.81531728       1.62709164       0.23560707
H        5.18775913       4.88803123       5.15893166       0.23521889       0.15128841       0.14179280      -0.57910945      -0.83815074       0.84953659
H        6.82383280       5.56414285       4.73403850       0.00280564       0.07838314       0.22260331       1.51757737      -0.29785556       0.47019702
N        6.10628981       6.19278884       6.82883715      -0.72227461      -0.14919200      -1.59642376      -1.64694253       2.17778374      -0.74765206
8
Lattice="12.0 0.0 0.0 0.0 12.0 0.0 0.0 0.0 12.0" Properties=species:S:1:pos:R:3:momenta:R:3:forces:R:3 energy=-440.33458936873797 free_energy=-440.33458936873797 stress="0.0013718114205839606 -0.0005820483331424322 0.0005042331928500536 -0.0005820483331424322 0.0010504804889783878 -0.00018483262406051923 0.0005042331928500536 -0.00018483262406051923 0.0017904076739623392" pbc="T T T"
B        5.85502097       5.75939622       5.19288784      -0.36120323      -0.23395607      -0.61289228      -1.73619577       0.11198578      -1.72870744
H        6.37887803       7.21152483       6.86516950      -0.02912225      -0.01638607       0.10568278       0.20859241       1.04753197       0.21635408
H        6.89260873       5.61579134       7.28408595       0.32621513      -0.18677971       0.14641108      -0.68657261       0.48195571      -0.21730838
H        5.21389388       6.04964821       7.37074970       0.04389024      -0.13681727      -0.07043968      -0.79088139       0.00511155       0.54674184
H        5.22610666       6.70972985       4.64122728       0.08759918      -0.27929294      -0.27879116       1.29778247      -1.35829135       1.32448831
H        5.09128849       4.78847517       5.19767180       0.08716748      -0.03840819      -0.23746611       1.21948938       1.10699363       0.42562258
H        6.90871151       5.52824737       4.62925030      -0.21035163       0.00796691      -0.46839848      -0.80789126       0.37438038       1.10964029
N        6.10538132       6.22077263       6.88527994      -0.35901002       0.86470264       1.56423524       1.29567677      -1.76966767      -1.67683128
8
Lattice="12.0 0.0 0.0 0.0 12.0 0.0 0.0 0.0 12.0" Properties=species:S:1:pos:R:3:momenta:R:3:forces:R:3 energy=-440.3546218268385 free_energy=-440.3546218268385 stress="5.034853362138055e-05 -0.0008713607309227792 0.00116632154144989 -0.0008713607309227792 8.175121606408867e-05 5.137703429443e-06 0.00116632154144989 5.137703429443e-06 0.000511318620147372" pbc="T T T"
B        5.80154394       5.75229529       5.00805593       0.25278507       0.32800062       1.61064699      -1.23672835       1.16742647       2.72501946
H        6.29569446       7.25253318       6.86872240       0.10829021       0.16949738      -0.21390208       0.10120738       0.68123604      -0.18148221
H        6.91801720       5.66598197       7.16559550      -0.00274346       0.01941198      -0.15854956      -1.54733287       1.00552925      -0.89614669
H        5.22977556       6.00150840       7.29441879      -0.18903760      -0.11613036       0.04825068      -0.84043142      -0.13275461       0.40236804
H        5.08198280       6.65274909       4.70558121      -0.30231508       0.16170782      -0.16587513       0.58530322      -0.49850786      -0.48645524
H        5.25017638       4.74746682       5.22543407      -0.12959221      -0.30184420      -0.06648329       0.04261034      -0.31650355      -0.44885045
H        6.90809385       5.72055367       4.76041840       0.24847652       0.12512807      -0.17013534       0.91790815      -0.05167515      -1.18574419
N        6.07409204       6.24518971       6.75338856      -0.35362271      -0.40259001      -0.75243845       1.97746355      -1.85475060       0.07129127
8
Lattice="12.0 0.0 0.0 0.0 12.0 0.0 0.0 0.0 12.0" Properties=species:S:1:pos:R:3:momenta:R:3:forces:R:3 energy=-440.4372974126338 free_energy=-440.4372974126338 stress="-0.0003070336278385128 0.00017139630801440823 -0.0005992719356839873 0.00017139630801440823 -0.0003800162790630672 -0.0002918167361133217 -0.0005992719356839873 -0.0002918167361133217 -0.0016830805036761323" pbc="T T T"
B        5.88212989       5.80728310       5.11093319      -0.11535842      -0.46600934      -1.58427635       0.33900577       0.23449272       0.92062606
H        6.38686355       7.28238358       6.68680063       0.15277784       0.17031950       0.10293464      -0.34968276      -0.97614255      -0.03827100
H        6.91699611       5.72460374       7.10922558      -0.18408350       0.15840611       0.02924647       0.11465828      -0.22547286      -0.11948776
H        5.26738657       6.10098000       7.28934333      -0.22860001      -0.05946004       0.07082176       0.70340882       0.13863883      -0.79943276
H        5.05711211       6.56071452       4.87300252      -0.18859704      -0.12422870       0.29685861      -0.64322424       0.26928685      -1.15492718
H        5.58563635       4.71761642       5.24159931       0.06304636       0.12755128       0.17657106      -0.43925495      -1.05737821      -0.58108213
H        6.94288789       5.98627178       4.71065667      -0.19391729       0.11929068       0.36659571       0.35817653       0.04138704      -1.05597080
N        6.12326915       6.23563188       6.64083319       0.35842241       0.05875011       0.66151529      -0.08308744       1.57518818       2.82854556
8
Lattice="12.0 0.0 0.0 0.0 12.0 0.0 0.0 0.0 12.0" Properties=species:S:1:pos:R:3:momenta:R:3:forces:R:3 energy=-440.3317435728161 free_energy=-440.3317435728161 stress="0.001104407518755353 0.0008657154816811394 -0.0007525161119636087 0.0008657154816811394 0.0015662258410136965 0.00045992021966121023 -0.0007525161119636087 0.00045992021966121023 0.002694294262187199" pbc="T T T"
B        5.99230123       5.82536821       5.22686360      -0.05446351      -0.17200542      -0.69504973       0.85543945      -0.18547388      -0.81253023
H        6.59107544       7.37736070       7.04162980       0.07139163      -0.12559402       0.06994579      -0.53662561      -1.55575213      -0.14779709
H        6.99055683       5.71232144       7.37647425       0.07224756       0.00583780       0.08328654       0.93403509      -0.70915094       0.44990298
H        5.32535241       6.18049015       7.49698328       0.11674665       0.04743746       0.09576838       1.62114512       0.36584947      -0.84022250
H        5.00944317       6.37610704       4.85424145      -0.17246227       0.00129945       0.41369881       0.15850476      -0.15915126       0.66413573
H        5.92574928       4.62263930       5.25523521       0.13964414       0.07452747       0.29345610      -0.11769816       0.92209320       0.39398785
H        6.92557500       6.16340870       4.50301672       0.09146754       0.11894385       0.30576296      -0.70500810      -0.13249948       1.50608711
N        6.27846535       6.33390662       6.97441388      -0.58145455       0.03506145      -0.45354887      -2.20979255       1.45408501      -1.21356385
8
Lattice="12.0 0.0 0.0 0.0 12.0 0.0 0.0 0.0 12.0" Properties=species:S:1:pos:R:3:momenta:R:3:forces:R:3 energy=-440.23895763771804 free_energy=-440.23895763771804 stress="-4.5466099383813063e-05 -0.00016065179545546204 -0.00024921540441826434 -0.00016065179545546204 0.00019349120501134536 -0.0006007893127830535 -0.00024921540441826434 -0.0006007893127830535 -0.0004211618433933715" pbc="T T T"
B        5.96005004       5.85084915       5.35060846      -0.19539925       0.21284094       0.92466821       0.81278625      -0.87398869      -4.67355078
H        6.50175095       7.30816150       6.76947972      -0.06980429      -0.21732415      -0.02026501      -0.03930664      -0.00526612       0.51809382
H        7.00677545       5.68363539       7.23381462       0.15022502       0.00942248       0.12362785      -0.92972850       0.90731339      -0.11639272
H        5.31768110       6.17753115       7.39198744       0.21018524      -0.03658201      -0.12943961       0.28759327       0.14416817       0.24473991
H        4.99322455       6.23229000       4.85167617       0.06336035      -0.02409321      -0.04547473      -1.00677050       0.38850996       0.90304240
H        6.02785484       4.69183850       5.15069806       0.11540994       0.00409742      -0.10632817      -0.04564863       0.07209927       0.99639373
H        6.76980800       6.33085909       4.60801256      -0.04968830      -0.00702263      -0.13948043       0.10395066      -0.08636253       1.25709396
N        6.20887177       6.29960866       6.83870099      -0.53050291       0.04465712      -0.49780330       0.81712409      -0.54647345       0.87057968
8
Lattice="12.0 0.0 0.0 0.0 12.0 0.0 0.0 0.0 12.0" Properties=species:S:1:pos:R:3:momenta:R:3:forces:R:3 energy=-440.5577239280972 free_energy=-440.5577239280972 stress="0.0002894103970586957 -0.0006368258302235992 0.0006678295886483329 -0.0006368258302235992 -0.00039209849076178203 0.0002039879890999131 0.0006678295886483329 0.0002039879890999131 0.001093092571210264" pbc="T T T"
B        5.96980601       5.81442006       5.23065437      -0.35362874      -0.09304886       0.46792190      -0.31269122       0.45282075       0.47400246
H        6.35216168       7.35221368       6.95324116      -0.05919467      -0.02360275       0.01568080       0.15913397       1.25227912       0.10863369
H        7.11880456       5.80612436       7.29366370      -0.05818409       0.12183372      -0.12400181      -1.46747288       1.01270995      -0.47985341
H        5.39255835       6.02779670       7.42813668       0.08023386      -0.19542972      -0.10933071      -1.09647905      -0.35271340       0.82171151
H        4.88119544       6.20026807       5.01042725       0.06714800      -0.02734170      -0.49901698       0.14025272       0.05725063       0.09058011
H        6.01765692       4.64778632       5.27754438       0.01144046      -0.16945074      -0.35867498       0.19015907      -0.04601395       0.12291708
H        6.79100651       6.34399171       4.57186332      -0.06468434      -0.07138390      -0.52348445       0.01748093      -0.10347495       0.39595457
N        6.23206924       6.33601564       6.93652500       0.07666454       0.44469471       1.23826208       2.36961646      -2.27285816      -1.53394601
8
Lattice="12.0 0.0 0.0 0.0 12.0 0.0 0.0 0.0 12.0" Properties=species:S:1:pos:R:3:momenta:R:3:forces:R:3 energy=-440.38192428038224 free_energy=-440.38192428038224 stress="-0.0015101533447708137 -0.00011444867652862013 0.00024149771785835286 -0.00011444867652862013 -0.0013345550956854325 0.0003171190730034701 0.00024149771785835286 0.0003171190730034701 -0.0006534483787393026" pbc="T T T"
B        5.93581550       5.79470235       5.03301295       0.11500467       0.22862977       1.36001236      -1.21164615       0.27925784       2.93592403
H        6.10994792       7.32546876       6.76980257      -0.08783077       0.07806762      -0.21940763      -0.13485481       0.31370925      -0.22455078
H        7.13715966       6.03425232       6.98318752      -0.25067121       0.20540245      -0.27652267       1.01730210      -0.36165722       0.00143760
H        5.53653001       5.85840900       7.36176445      -0.00828668      -0.21641587       0.02758832      -0.56641093      -0.30740068      -0.03155519
H        4.86284034       6.22052476       4.92130958       0.18644188       0.00796193      -0.02756469      -0.18051596       0.15595030      -0.91912481
H        5.96760097       4.67453124       5.23379902      -0.07881928       0.08566361      -0.08333805       0.18171689      -1.17043841      -0.68777452
H        6.83892506       6.31813229       4.63823555      -0.08917276       0.02663197      -0.07377190       1.16670421       0.59130342      -1.66735713
N        6.18697240       6.28563316       6.66374971      -0.08383683      -0.42953196      -0.60072488      -0.27229535       0.49927550       0.59300079
8
Lattice="12.0 0.0 0.0 0.0 12.0 0.0 0.0 0.0 12.0" Properties=species:S:1:pos:R:3:momenta:R:3:forces:R:3 energy=-440.40804722322196 free_energy=-440.40804722322196 stress="-9.78912056775944e-05 -1.4799968743434753e-05 -0.0005873752588354497 -1.4799968743434753e-05 0.0014659351920347289 -0.00021494173344846016 -0.0005873752588354497 -0.00021494173344846016 -0.00019795827159445787" pbc="T T T"
B        5.96433586       5.85525127       5.11575700      -0.13223170      -0.40614258      -1.66282634      -0.56549897      -0.15247884       0.64156163
H        5.92781229       7.36135756       6.87050960       0.02789445       0.03054308       0.17700834      -0.03622001      -0.32512686      -0.36723599
H        7.16787632       6.30329193       7.03532942       0.05626046       0.15202310       0.14375638       3.10282272      -0.39167531       0.49055598
H        5.65921305       5.76524326       7.39886500       0.06127692      -0.10161969       0.06136736       0.04041352       0.19228573      -0.52085271
H        4.83212368       6.32468348       4.93780183       0.01753774      -0.11022712       0.17174763       1.61715605      -0.67856296      -0.26672380
H        5.99953065       4.63864244       5.22769784      -0.06880655       0.17047782       0.23739168      -0.00930674       1.28348325      -0.45241908
H        6.92099031       6.36790339       4.60113500      -0.14771068      -0.02087714       0.26889788      -0.91981319      -0.41472090      -0.22689330
N        6.22535454       6.35233278       6.71175253      -0.11061522       0.27226756       0.70865028      -3.22955339       0.48679590       0.70200727
8
Lattice="12.0 0.0 0.0 0.0 12.0 0.0 0.0 0.0 12.0" Properties=species:S:1:pos:R:3:momenta:R:3:forces:R:3 energy=-440.50520743905463 free_energy=-440.50520743905463 stress="0.0007404428877710074 -0.00013532852520602612 0.00011285353525919951 -0.00013532852520602612 0.0002636862506585628 0.0004788469601306325 0.00011285353525919951 0.0004788469601306325 0.001824843489223186" pbc="T T T"
B        5.89353099       5.83381715       5.21278436       0.14646108       0.13032445       0.36809209       0.05922830      -0.08933184      -0.92900568
H        5.79565652       7.34474484       7.02405170       0.10644295      -0.01305093       0.03330720      -0.11262249       0.34726168       0.08022894
H        7.20513204       6.32216386       7.05329358       0.36475620       0.09455974       0.11179851      -0.46136278       0.06755700       0.13071791
H        5.65106266       5.68604745       7.51238372       0.08188444       0.08033965       0.07571040      -0.09182373      -0.01509729       0.23438057
H        4.79486796       6.17054414       4.88287149      -0.47234206       0.05435017       0.17546085       0.52972849      -0.14930407       0.68463336
H        6.06089834       4.65525516       5.18259491       0.08216137      -0.25432385       0.12601966      -0.22151434       0.50538544       0.61040012
H        6.71162556       6.32527313       4.48761628       0.23193952       0.24159199       0.17047737      -0.30157835       0.18506775       1.01370422
N        6.15711913       6.37473111       6.91070801      -0.83959422      -0.34743291      -0.95419478       0.59994491      -0.85153867      -1.82505944
8
Lattice="12.0 0.0 0.0 0.0 12.0 0.0 0.0 0.0 12.0" Properties=species:S:1:pos:R:3:momenta:R:3:forces:R:3 energy=-440.2124746117008 free_energy=-440.2124746117008 stress="-0.0006884857131368938 -8.476963349651134e-06 5.815998683049385e-06 -8.476963349651134e-06 -0.0020724574139042917 -0.0003425145991390579 5.815998683049385e-06 -0.0003425145991390579 -0.0017262541014902866" pbc="T T T"
B        5.85414206       5.80883085       5.31538727      -0.06793595       0.05094379       0.03354596       1.34615836      -0.18176989      -2.14083924
H        5.73501155       7.25543359       6.78361237       0.03757803       0.13543414      -0.02684476      -0.10088093       0.75400352       0.62592326
H        7.18215700       6.23886484       6.98532380       0.10903765      -0.01279354       0.04820028      -2.28484048       0.17783818       0.04173367
H        5.55069696       5.66357241       7.42782199      -0.10131030      -0.10469148      -0.02740462      -0.27743776      -0.30834615       0.83469931
H        4.81784300       5.98780513       5.01556546      -0.01282145      -0.16683282      -0.07895139      -2.74120239       0.22819805      -0.03765125
H        6.16881137       4.74456641       5.17663111       0.12718975       0.12370943      -0.19695709       0.29033561      -1.64656505       0.34962273
H        6.46640165       6.42511411       4.57217801      -0.22811294      -0.17626339      -0.14343875       0.82264553       0.79476657       0.09706927
N        6.08912016       6.28263473       6.79897150      -0.16726232       0.13660766       0.50043372       2.94522204       0.18187477       0.22944224
8
Lattice="12.0 0.0 0.0 0.0 12.0 0.0 0.0 0.0 12.0" Properties=species:S:1:pos:R:3:momenta:R:3:forces:R:3 energy=-440.4754323527422 free_energy=-440.4754323527422 stress="0.0015058423790319624 5.864016221475367e-05 0.00016444448648883237 5.864016221475367e-05 0.0018284108098819676 -1.8807083321548267e-05 0.00016444448648883237 -1.8807083321548267e-05 0.001490011391156725" pbc="T T T"
B        5.93216572       5.72359742       5.14018939      -0.31322437      -0.12308523       0.49752907       0.78624384       1.10778634       1.03998959
H        5.93873480       7.33382158       7.03717059      -0.00141091       0.21668506      -0.16351370       0.14377345      -0.77364844      -0.24213613
H        7.24971739       6.15202946       7.14447404      -0.20580180      -0.00949540      -0.19453317      -1.38874054       0.27102003      -0.38421716
H        5.59646410       5.67145881       7.48441461      -0.15933360      -0.20661831      -0.01316086       0.36710172       0.44310686      -0.23809035
H        4.75028261       5.69791566       5.10132378       0.27013019      -0.04976249      -0.33387349       0.30936599      -0.06245258      -0.10301191
H        6.49105574       4.66617842       5.20326821       0.07640332       0.20472962      -0.32664785      -0.34936640       0.64728237      -0.28081652
H        6.46046722       6.62856384       4.51558539      -0.24037790      -0.18749939      -0.26173660      -0.49283452      -1.15065444       0.47933789
N        6.20630976       6.30938768       6.88923291       0.26218408       0.14080352       0.90730695       0.62445647      -0.48244015      -0.27105542
8
Lattice="12.0 0.0 0.0 0.0 12.0 0.0 0.0 0.0 12.0" Properties=species:S:1:pos:R:3:momenta:R:3:forces:R:3 energy=-440.2049630506 free_energy=-440.2049630506 stress="-3.4216185475324876e-05 0.00011995931512517767 -0.0009859918308737065 0.00011995931512517767 0.0018469386413049902 -0.0007931258122716132 -0.0009859918308737065 -0.0007931258122716132 -0.0005626694260754701" pbc="T T T"
B        5.98545027       5.71485644       5.06476049      -0.08699154       0.02035710       1.19513500      -0.40467162      -0.35141562       1.39298445
H        5.95971879       7.27138963       6.73586830       0.02907307      -0.07876937      -0.06098126       0.19795933      -1.54863049      -0.40423850
H        7.19162157       6.15942542       6.93265743      -0.13347507       0.11162471      -0.02320862       1.61595735      -0.20605968       0.04315729
H        5.66219619       5.72335715       7.43123612       0.04405366      -0.03522432      -0.08246800       0.58243283       0.38078577      -1.62864621
H        4.80837843       5.47525415       5.16125680       0.03517024       0.07118137       0.04241495       0.74199330       0.26689949      -1.06155699
H        6.66298084       4.72861037       5.09890917       0.12088951      -0.01035569       0.02746065      -0.31208181       0.56646482      -0.89430745
H        6.37155475       6.72957074       4.56876388      -0.05754217       0.23452539       0.03479687      -0.32331652      -0.98782550      -0.78657010
N        6.21753157       6.21083952       6.61130802      -0.27469564      -0.32813459      -1.01745683      -2.09827285       1.87978120       3.33917752
8
Lattice="12.0 0.0 0.0 0.0 12.0 0.0 0.0 0.0 12.0" Properties=species:S:1:pos:R:3:momenta:R:3:forces:R:3 energy=-440.56390277370906 free_energy=-440.56390277370906 stress="0.0005763740572354765 0.00024860581068914504 -0.00015345326781055082 0.00024860581068914504 0.0006383310618564191 9.900678097580197e-05 -0.00015345326781055082 9.900678097580197e-05 0.0006276434127394123" pbc="T T T"
B        5.94084282       5.71263279       5.12716949      -0.31944931      -0.49427891      -1.88196257      -0.72558655      -0.85071525       2.29270410
H        5.77550257       7.23540338       6.96404164       0.15237503      -0.23501780       0.29289140       0.17276604      -0.50443508      -0.19964834
H        7.21763743       6.29371735       7.03697111       0.14214418       0.24552494       0.21450364       0.14851551       0.04470336      -0.10664928
H        5.71533210       5.57301432       7.45916378       0.28343288       0.20720418       0.04331244       0.33824511       0.49060405      -0.53796180
H        4.78236257       5.39153439       5.21797495      -0.07391246      -0.06105666       0.25331070       0.78824587       0.56090011      -0.60787702
H        6.64010704       4.76459662       5.13880612       0.03762853      -0.15093493       0.30978812       0.04163456       0.23366331      -0.42669192
H        6.27600574       6.64711293       4.54083622       0.06920572       0.26626998       0.08942188      -0.03682663       0.25196965      -0.66048877
N        6.19443291       6.26939039       6.80291516      -0.63208133       0.20671000       0.80055613      -0.72699391      -0.22669015       0.24661303
8
Lattice="12.0 0.0 0.0 0.0 12.0 0.0 0.0 0.0 12.0" Properties=species:S:1:pos:R:3:momenta:R:3:forces:R:3 energy=-440.26191047034644 free_energy=-440.26191047034644 stress="-5.3838042311691655e-05 0.0007751474657853468 0.0006084499363628682 0.0007751474657853468 -0.002422300707374757 0.0014411516153640784 0.0006084499363628682 0.0014411516153640784 0.0009273277691732343" pbc="T T T"
B        5.90091652       5.76639306       5.20863719       0.11630011       0.44509871       0.51694273      -0.51685341      -0.07885847       0.44892285
H        5.52193241       7.13240744       6.98578275       0.01361763      -0.16492879      -0.08517537      -1.04719758       1.55556038       0.43396901
H        7.21298191       6.60961039       6.90192861      -0.13182979       0.20691182      -0.06117244      -1.77227369      -0.27994507       0.35199820
H        5.93102637       5.55324515       7.49039027       0.15701979       0.10284173      -0.08941107      -0.38404063      -1.37736675       1.33707297
H        4.78701809       5.51666924       5.02233321      -0.10751750      -0.10514765       0.25233201      -0.51975252       0.06259530       0.69281260
H        6.55980373       4.86759256       5.00503071      -0.10545717      -0.05337209       0.23164019       0.81658496      -1.06646656       0.62474094
H        6.23692201       6.58025747       4.50960973       0.11146376       0.11487798       0.39645679       0.45350343       1.60630757      -0.36544025
N        6.15805024       6.35179085       6.91681021      -0.41687419      -0.56289542      -1.03170178       2.97002943      -0.42182640      -3.52407632
8
Lattice="12.0 0.0 0.0 0.0 12.0 0.0 0.0 0.0 12.0" Properties=species:S:1:pos:R:3:momenta:R:3:forces:R:3 energy=-440.35412320331886 free_energy=-440.35412320331886 stress="-1.2651692762887526e-05 1.9068311206888096e-06 -0.00025126281274718117 1.9068311206888096e-06 -0.0008969692424714631 -0.0004885602613413633 -0.00025126281274718117 -0.0004885602613413633 -0.001439768869497106" pbc="T T T"
B        6.00609997       5.91282273       5.39001307      -0.18924490      -0.17528368      -0.92511795      -0.21374376      -0.69358108      -4.59230982
H        5.42126180       7.03288412       7.06590485      -0.20470549       0.05636835      -0.01735694      -0.69734728       0.86907378       0.56818825
H        7.14125146       6.93917150       6.90225893      -0.31767512      -0.03811981      -0.14137916      -0.29291429      -0.03266231       0.29791605
H        6.22596789       5.60072357       7.45850190       0.05026352      -0.30906064      -0.14869687       0.05034675      -0.90064715       1.11747351
H        4.85874854       5.72804172       5.21235783       0.09142516      -0.17701581      -0.17042084       0.10299459      -0.35239151       0.58769561
H        6.68739222       4.96711588       5.15949904      -0.18961306       0.17980143      -0.13630539      -0.37743542       0.21053562       0.71129718
H        6.29417245       6.71565953       4.54149810      -0.08463842      -0.37851363       0.07708937       0.09149053       0.01165318       1.24327163
N        6.21889085       6.42363662       6.84937933       0.45197954       0.82388696       1.60244494       1.33660888       0.88801946       0.06646760
8
Lattice="12.0 0.0 0.0 0.0 12.0 0.0 0.0 0.0 12.0" Properties=species:S:1:pos:R:3:momenta:R:3:forces:R:3 energy=-440.05234302996996 free_energy=-440.05234302996996 stress="-0.00024023575234383336 -0.0014522609630698098 0.000128246825089746 -0.0014522609630698098 0.0011078952781359804 -5.1790685345840867e-05 0.000128246825089746 -5.1790685345840867e-05 0.0024993273858362943" pbc="T T T"
B        6.04419058       5.81418388       5.05900903      -0.03261019       0.02016294       0.51383281       1.19167306       1.90927450       0.99853055
H        5.50244340       7.02770089       7.31178593      -0.14828241       0.09983047      -0.02874913       0.26055398      -0.39428370      -0.84215095
H        7.11780594       7.04421281       6.96091438      -0.06928911       0.07847234      -0.14834058       2.86815642       2.01589878      -0.33111232
H        6.48539317       5.67005432       7.56453163       0.05652557      -0.15400148       0.11065703      -0.28378911       0.12062981      -0.80519847
H        4.88219406       5.57692827       5.08517389      -0.22462957      -0.05365684      -0.19298392       0.43683888      -0.39479794       0.02672175
H        6.91409701       4.95578719       5.08847590       0.21061285      -0.06326823      -0.30124066      -1.16048962       0.77101787      -0.29667153
H        6.29736101       6.86842478       4.43546837      -0.11229421       0.01419259      -0.31412270      -0.20657587      -1.70377415       0.83562092
N        6.31086376       6.47419420       6.88060430      -0.10345704       0.03890382       0.51236720      -3.10636774      -2.32396516       0.41426006
8
Lattice="12.0 0.0 0.0 0.0 12.0 0.0 0.0 0.0 12.0" Properties=species:S:1:pos:R:3:momenta:R:3:forces:R:3 energy=-440.3914050285364 free_energy=-440.3914050285364 stress="-0.0012161599347228847 -0.0002806210158890708 2.5327824045099904e-05 -0.0002806210158890708 -0.0007590536219387447 -0.0004957228960945912 2.5327824045099904e-05 -0.0004957228960945912 -0.0018479153545014307" pbc="T T T"
B        5.97800450       5.74972706       5.13821517      -0.03531556      -0.05006961       1.46544234       0.95109909       1.05969019       1.04322081
H        5.31765263       6.79806495       6.93798856       0.12913710       0.02328698       0.08369966       0.24641520       0.07987928       0.04807273
H        7.01993344       6.95328389       6.72659778       0.28972702       0.33544773       0.25309181      -0.19736344      -0.06879869      -0.09445034
H        6.36368711       5.51753353       7.36521164      -0.04417211       0.11361175      -0.02063781      -0.11135404       0.21004486      -0.39629739
H        4.98006656       5.28139580       5.27807439      -0.05584060       0.13244100       0.17743800      -1.82083104      -1.08027206      -0.61323802
H        6.86571425       5.04671611       5.05730711       0.32844229       0.17669959       0.18322009       0.72422548      -0.71031909      -0.95340197
H        6.00236089       6.78005361       4.63478836      -0.23689890       0.27279355       0.09595499      -0.03620851       0.16037538      -1.33193976
N        6.19821272       6.29051703       6.65139943      -0.83412240      -1.02520434      -2.07405136       0.24401727       0.34940015       2.29803395
8
Lattice="12.0 0.0 0.0 0.0 12.0 0.0 0.0 0.0 12.0" Properties=species:S:1:pos:R:3:momenta:R:3:forces:R:3 energy=-440.3929815452526 free_energy=-440.3929815452526 stress="0.0009772014540745876 0.0012377661855111205 -0.00017545786922650987 0.0012377661855111205 0.0005209535157890615 0.0003714267770500134 -0.00017545786922650987 0.0003714267770500134 0.0008862440003725534" pbc="T T T"
B        5.81130713       5.83246426       5.18344093      -0.47369145      -1.20165855      -2.35756379       0.11747703      -1.13236747       1.40075706
H        5.19849711       6.98234237       7.15242004       0.05109986       0.18980131       0.22066828      -0.43150298       0.56226485       0.36425348
H        6.99325747       7.03025840       6.81712309       0.21440300       0.20696442       0.11539912      -2.56386014      -1.29217620       0.63209810
H        6.15784954       5.56862578       7.43759725       0.00263657       0.07469215       0.17308862       0.14546228      -0.46414249       0.62178378
H        5.00674253       4.96974160       5.34084220       0.26144992       0.22759243       0.15481264      -0.09083086       0.80509078      -0.17937002
H        6.83278210       5.30761707       4.94771315       0.03890762       0.25634106       0.21816386       0.22266894       0.38758767       0.02642211
H        5.56762648       6.77936657       4.56240275      -0.22730696       0.02676335       0.29262737      -0.25727818       0.24714787      -0.12205573
N        6.04353977       6.44438763       6.90516602      -0.35278752       0.19731018       1.35634735       2.85786391       0.88659499      -2.74388876
8
Lattice="12.0 0.0 0.0 0.0 12.0 0.0 0.0 0.0 12.0" Properties=species:S:1:pos:R:3:momenta:R:3:forces:R:3 energy=-439.9660798792153 free_energy=-439.9660798792153 stress="0.0020199237164387376 0.0009852904630500519 0.00010091386363984509 0.0009852904630500519 0.0022815367392894238 0.0009279876109544526 0.00010091386363984509 0.0009279876109544526 0.0030180841504002156" pbc="T T T"
B        5.72685392       5.91058633       5.10215182      -0.13824698       0.55016725       1.10310536       0.07341153      -1.66772974      -0.97558858
H        5.09491952       7.13504155       7.10080044      -0.23794627       0.05738074      -0.23797758       0.89885147      -0.33601705      -0.01044898
H        6.91152146       7.16858800       6.86245530      -0.30477846      -0.10929988      -0.15723635      -2.18028849      -1.15214720       0.20387036
H        6.07754043       5.73734332       7.55057784      -0.03801887      -0.26870400      -0.02569517      -0.02115889       0.36333047      -0.27998669
H        5.08847854       4.83141200       5.07628749       0.24953137      -0.06830561       0.14685877       0.60970395       1.96349997       0.97410990
H        6.78711349       5.64705748       4.59180179      -0.06611883       0.01513487       0.02690621      -0.23120836       0.49125802       1.18977597
H        5.23432577       6.77312357       4.44942216      -0.09210310       0.00033787       0.13254724      -0.11865874       0.04006729       0.92300814
N        5.97840687       6.56602722       6.89637758       0.12961074      -0.19948942      -0.81039429       0.96934754       0.29773825      -2.02474013
8
Lattice="12.0 0.0 0.0 0.0 12.0 0.0 0.0 0.0 12.0" Properties=species:S:1:pos:R:3:momenta:R:3:forces:R:3 energy=-440.0665159983239 free_energy=-440.0665159983239 stress="0.00019137796951542235 -0.0006924163875333941 -0.000671183049266793 -0.0006924163875333941 0.00012356656916130224 -0.0014179270271381776 -0.000671183049266793 -0.0014179270271381776 -0.002537071465822116" pbc="T T T"
B        5.84799130       5.93819963       5.25908116      -0.34158970       0.17546724       0.23859691      -1.17223961      -2.32615057      -5.01340798
H        5.13092103       6.95946228       7.04764821       0.00345461      -0.03656938       0.06281898       1.43519614      -0.72509633      -0.87021435
H        6.81344920       7.12391592       6.76599711      -0.31679945      -0.03117881      -0.14855363       0.90250104       1.05857689      -0.21730512
H        6.24887035       5.65696503       7.34842870       0.08669657      -0.08657764      -0.08462576      -0.38639083       1.25449146      -1.28111542
H        5.30061318       4.87608408       5.29660165       0.06120256      -0.44918556      -0.32854642       0.49559272       0.59180560       0.33466301
H        6.86907897       5.88222775       4.70435978      -0.04246941      -0.14389000      -0.35264225       0.35149989      -0.14729344       0.27137222
H        5.16457652       6.64908241       4.65157130       0.04410016      -0.05700236      -0.30563482      -0.21881794       0.49410246       0.07324805
N        6.02930795       6.46855324       6.62077856       0.00525988       0.60606345       1.09744299      -1.40734141      -0.20043607       6.70275959
8
Lattice="12.0 0.0 0.0 0.0 12.0 0.0 0.0 0.0 12.0" Properties=species:S:1:pos:R:3:momenta:R:3:forces:R:3 energy=-440.0610819568572 free_energy=-440.0610819568572 stress="-0.0006911914225847492 -0.00045023623949198973 0.0006048246498405769 -0.00045023623949198973 -0.0014350444502766204 0.0009026095680003867 0.0006048246498405769 0.0009026095680003867 0.0018466014664280871" pbc="T T T"
B        5.81546641       5.69580150       4.93117539      -0.15913790      -0.04587745      -0.25782576      -0.15862354       1.93257358       2.63358766
H        5.11549941       6.66812772       7.25408683       0.32369066      -0.15864296       0.03436200       0.38652056      -0.10365235      -0.36981592
H        6.66204983       7.24871770       6.72056046      -0.09324018       0.31883840       0.13558488       0.41271138       0.88926154      -0.22703222
H        6.56097570       5.71571210       7.45354059      -0.05139212       0.37898120      -0.06876853      -0.51204418       0.38068649      -0.76765265
H        5.29368477       4.75128230       5.22450671      -0.15697133      -0.18054290      -0.17166752      -0.35527247      -1.90525612       0.19050978
H        6.91643930       5.79117183       4.68314175      -0.07829743      -0.03955764      -0.27854314       1.11978728      -0.33570872      -0.70455911
H        5.08356070       6.48999871       4.54645941       0.08704037      -0.14812252      -0.15757935      -0.30174083       0.77180840      -0.53170654
N        6.05527238       6.42506499       6.83204066      -0.34951545      -0.14692836       0.93531110      -0.59133819      -1.62971283      -0.22333100
8
Lattice="12.0 0.0 0.0 0.0 12.0 0.0 0.0 0.0 12.0" Properties=species:S:1:pos:R:3:momenta:R:3:forces:R:3 energy=-440.4633164301482 free_energy=-440.4633164301482 stress="-0.0007128842110842609 0.00040335209573618504 9.902461477055028e-05 0.00040335209573618504 0.0009571370957565481 0.00032136681078281097 9.902461477055028e-05 0.00032136681078281097 -0.00017799014419940057" pbc="T T T"
B        5.80541725       5.66803344       5.17904250       0.24380284       0.48951061       1.57109500      -0.01674217       1.49382245       0.59394178
H        5.10746724       6.19612370       7.24181230       0.14744815      -0.15430422      -0.10862930      -2.08555850       0.04063771       1.14859083
H        6.34337316       7.34806090       6.76080331      -0.18896591      -0.05850486      -0.06530677      -0.66768226      -1.55701975       0.20608904
H        6.70673061       5.73931013       7.26576063      -0.04712691       0.15787658      -0.26096846       1.58991378      -1.25469468       1.12781827
H        5.28587615       4.65193910       5.42189263      -0.08285810       0.40658815       0.30507262       0.04065191      -0.22845046      -0.23229929
H        6.93631979       5.63408595       4.78983025      -0.12132879       0.23538948       0.38369072      -0.81408142      -0.02398199      -0.01625015
H        5.06368021       6.51868024       4.73423937       0.06273637      -0.15126304       0.26049321       0.80013954      -0.94221914       0.01728867
N        6.01149499       6.31467113       6.82510922      -0.44892958      -0.94519664      -1.92980797       1.15335913       2.47190587      -2.84517915
8
Lattice="12.0 0.0 0.0 0.0 12.0 0.0 0.0 0.0 12.0" Properties=species:S:1:pos:R:3:momenta:R:3:forces:R:3 energy=-440.544136023014 free_energy=-440.544136023014 stress="-0.00021374706237179355 -0.0002960190479629562 2.7220266604903387e-05 -0.0002960190479629562 0.00104000121845319 -2.085645776844676e-05 2.7220266604903387e-05 -2.085645776844676e-05 -2.9150090775467794e-05" pbc="T T T"
B        5.79787583       5.73377913       5.21146665      -0.21027211      -1.08292524      -1.95643851       0.46969536      -0.03332092      -1.43224130
H        5.18971383       6.11335062       7.35718838      -0.15549950      -0.03041792       0.16984883      -1.07644409      -0.17111210       0.74479091
H        6.11592491       7.39223384       6.68488280      -0.12879291      -0.25608255       0.03730586      -0.12887020      -0.07593666       0.11053579
H        6.84838140       5.95291840       7.16460188       0.19681641       0.00342900       0.04155557       1.33077375      -0.72416319       0.69931763
H        5.40349756       4.60776616       5.31204482      -0.15848202      -0.10253699      -0.02397896      -0.20551859       0.87306868       0.18527890
H        6.92115080       5.67354671       4.74879255       0.23320335       0.12225096      -0.08130384      -1.03175877       0.44793137       0.49991742
H        5.07884920       6.55283098       4.64281162      -0.24747516       0.10924110      -0.03241424       0.75396339      -1.19420604       0.75304958
N        5.99708016       6.34972609       6.77208704       0.09896438       1.22005016       1.97829027      -0.11184085       0.87773887      -1.56064893
8
Lattice="12.0 0.0 0.0 0.0 12.0 0.0 0.0 0.0 12.0" Properties=species:S:1:pos:R:3:momenta:R:3:forces:R:3 energy=-440.167111794633 free_energy=-440.167111794633 stress="-0.0006430166865982228 -1.6198732342139015e-05 0.00037140074276953303 -1.6198732342139015e-05 -0.002102173508482065 0.0011901310835663586 0.00037140074276953303 0.0011901310835663586 0.0023411819754596097" pbc="T T T"
B        5.81985777       5.69505027       5.03202580      -0.15236885       0.23733486       0.90888518       0.64869910       0.09915378       1.73152752
H        5.22448535       6.10991224       7.45013647      -0.12560244      -0.04751402      -0.02654894       0.40624434       0.16015076      -0.53542795
H        6.08757006       7.41116138       6.79464701      -0.05404594       0.07859110       0.03432722      -0.01703568       3.23529766      -0.40690431
H        6.94968221       6.07152555       7.29830313       0.10394079      -0.06205326       0.03506159      -0.50475861      -0.05716401      -0.49991906
H        5.56981804       4.58883862       5.22140226       0.20213284      -0.04869356       0.00727545      -0.63818464      -0.50388763       0.43575961
H        6.85311874       5.74920824       4.55293327       0.07870466      -0.03798100      -0.10581797       1.09346425       0.54577197      -0.08790288
H        5.05031779       6.38493529       4.54986353      -0.20366645       0.06892930      -0.11263502      -0.86607853       0.57150967      -0.05906502
N        6.04902553       6.42224264       6.85496071      -0.17010338      -0.20329407      -0.62575207      -0.12235022      -4.05083220      -0.57806791
8
Lattice="12.0 0.0 0.0 0.0 12.0 0.0 0.0 0.0 12.0" Properties=species:S:1:pos:R:3:momenta:R:3:forces:R:3 energy=-440.3825341879785 free_energy=-440.3825341879785 stress="-0.0006298576247069488 0.00014405636708368172 -0.0004556246677978283 0.00014405636708368172 -0.00028329414562086326 -0.0012322133890001015 -0.0004556246677978283 -0.0012322133890001015 -0.003618593996921076" pbc="T T T"
B        5.93942564       5.76815142       5.28813548      -0.25316898       0.32948317       0.72781055      -0.32126349      -1.93194716      -2.52143253
H        5.27600945       6.04595504       7.27164432      -0.00146462       0.10963837       0.02218810       0.03636589       0.26586437       0.16717755
H        6.18747191       7.38915687       6.67164998       0.03306955       0.39178732      -0.05807290      -0.19993309      -0.06774102       0.11201765
H        6.97889086       5.95312627       7.11970663      -0.04600302       0.01361634       0.00548624      -0.27611144       0.12306332       0.08963047
H        5.77295030       4.61084313       5.44415265       0.36304923       0.14853083      -0.11865431       0.11695067       0.23796044      -0.28157575
H        6.90247709       6.04521392       4.72835568      -0.25342836      -0.10858712       0.00885397       0.51701134      -0.03953937      -0.51096382
H        5.02110914       6.29476203       4.87470168       0.13553000      -0.07882063       0.03290324      -0.88577490       0.30298345      -0.71271106
N        6.09470482       6.33560977       6.67294456      -0.27569897      -0.81928194      -0.51390638       1.01275503       1.10935597       3.65785749
8
Lattice="12.0 0.0 0.0 0.0 12.0 0.0 0.0 0.0 12.0" Properties=species:S:1:pos:R:3:momenta:R:3:forces:R:3 energy=-440.2757645029863 free_energy=-440.2757645029863 stress="0.00042325747038924065 0.0009008730653077598 0.00011000552804218858 0.0009008730653077598 0.002872267541976916 9.37392603446831e-05 0.00011000552804218858 9.37392603446831e-05 0.0015739036789279058" pbc="T T T"
B        6.02348531       5.69195665       5.08518305      -0.29319930      -0.37813653      -0.95318106      -0.34096043       0.03023677       1.51424434
H        5.36296275       6.19072737       7.42600832      -0.09505035       0.01903122       0.05287849      -0.37413889       0.04977903       0.20474269
H        6.38196634       7.50657486       6.72730564       0.02316633       0.17341851       0.08038518      -0.62622937      -2.49840621       0.44842008
H        7.07298962       5.99876399       7.29513780       0.01109077      -0.02449360       0.05079974       0.30492052      -0.25182811       0.14694412
H        6.01995618       4.49342514       5.31173724       0.15300394      -0.06485268      -0.10053194       0.49034687       1.24372323      -0.31701892
H        6.94287048       6.26883315       4.57399168      -0.14437623      -0.04394769      -0.09856487      -0.53273875      -0.73927320       0.18267407
H        4.92701038       6.06873141       4.79641245       0.07064563      -0.07968039       0.01552804       0.61292420       0.07456062       0.09304464
N        6.21567919       6.41490139       6.87484859      -0.01102978       0.38559304       1.05487269       0.46587585       2.09120787      -2.27305102
8
Lattice="12.0 0.0 0.0 0.0 12.0 0.0 0.0 0.0 12.0" Properties=species:S:1:pos:R:3:momenta:R:3:forces:R:3 energy=-440.58804668858227 free_energy=-440.58804668858227 stress="0.0010788682069211178 0.0005570225528428713 3.5764082806757173e-06 0.0005570225528428713 0.001192101600135274 -2.8433153225664172e-05 3.5764082806757173e-06 -2.8433153225664172e-05 0.001271613791290213" pbc="T T T"
B        6.05590863       5.70239204       5.22857754       0.18433404       0.84594649       1.64954020      -0.41196549       0.20718372       0.91381805
H        5.34571310       6.11335322       7.42069928      -0.12168322      -0.08562390      -0.05567308       0.83145994       0.39648405      -0.45658363
H        6.38330112       7.44717325       6.85292468      -0.07353348      -0.33445482      -0.08437459      -0.42264828      -1.10144293      -0.02640649
H        7.08270585       5.94285031       7.35956521       0.10997551      -0.05029640      -0.05266648      -0.61563660       0.21330798      -0.42261940
H        6.21559269       4.55282675       5.43942102      -0.05007529      -0.19231277       0.22895624       0.36561270       0.24513617      -0.22896707
H        6.84243035       6.30360666       4.57930072       0.02938711       0.24895724       0.08755745      -0.17409740      -0.39187534       0.22871694
H        4.91729415       5.89814196       4.97131593      -0.08897746      -0.08913539       0.12488505       0.38031694       0.26344777       0.02263488
N        6.23274544       6.37851530       6.87507607      -0.27111398      -0.35596279      -1.79749122       0.04695817       0.16775857      -0.03059328
8
Lattice="12.0 0.0 0.0 0.0 12.0 0.0 0.0 0.0 12.0" Properties=species:S:1:pos:R:3:momenta:R:3:forces:R:3 energy=-440.5735892648071 free_energy=-440.5735892648071 stress="0.000758536093454927 1.6527406852073346e-05 -0.00018519393999055973 1.6527406852073346e-05 -0.0018689343364998692 -0.00021526891834993398 -0.00018519393999055973 -0.00021526891834993398 -0.00035882378225575163" pbc="T T T"
B        5.99806707       5.71457638       5.21558097      -0.06785089      -0.62997428      -1.87062502      -0.33163917       1.00289574       0.05993316
H        5.34825640       6.04797347       7.39326518       0.11375621       0.02884832       0.11922396       1.11954739       0.47708836      -0.93183273
H        6.18330053       7.36974780       6.63844170      -0.09817218      -0.12441089       0.10770082      -0.19060185       1.55853154      -0.00375806
H        7.10215334       6.03382854       7.15904282       0.02223914       0.17278266       0.05261600      -1.36617930       0.38641581      -0.52374181
H        6.28442826       4.63025220       5.30744327      -0.20950230      -0.20190827      -0.00898550       0.18427147      -1.46727271       0.10369492
H        6.75317480       6.32743365       4.60673482      -0.00614264       0.11641121      -0.08641551       0.42003567       0.32416177      -0.54706499
H        4.89784666       5.93542650       4.94677249      -0.04872733      -0.16132185      -0.11404888      -0.44989229      -0.07661022      -0.31093025
N        6.15350170       6.35183400       6.72290323       0.01319918       0.78671299       1.90109392       0.61445807      -2.20521030       2.15369977
8
Lattice="12.0 0.0 0.0 0.0 12.0 0.0 0.0 0.0 12.0" Properties=species:S:1:pos:R:3:momenta:R:3:forces:R:3 energy=-440.327650682701 free_energy=-440.327650682701 stress="0.0004157835109087953 -0.000151667806231343 0.00025492070132250447 -0.000151667806231343 -0.0001240722837752057 0.0009216690922268646 0.00025492070132250447 0.0009216690922268646 0.0019222918109311328" pbc="T T T"
B        5.96549326       5.64936019       5.09735767       0.06427656      -0.07583461       0.21735570       0.31239054       1.32549107       1.10891625
H        5.48659359       5.88736849       7.51803601       0.24457807       0.02081094      -0.20650911      -0.07613437       0.07849272       0.01158694
H        5.93519351       7.44452983       6.87053393      -0.16281816       0.13466874       0.07813195      -0.13426982       0.08978006      -0.05739620
H        7.15217519       6.26789001       7.23702108      -0.24990586       0.13520734      -0.14876082      -0.18724754      -0.01986722      -0.15978487
H        6.28766579       4.55547017       5.28837930      -0.13370918       0.21246115       0.04957921      -0.37348370      -0.59260508       0.30899053
H        6.79698733       6.20505614       4.48196399      -0.09004026      -0.05040928       0.12393047      -0.12042312       0.36685604       0.16750643
H        4.84782481       5.95439160       4.85069904       0.12076219       0.01042586       0.12850818       0.32692877      -0.34644781       0.16580474
N        6.15997357       6.42522233       6.92260995      -0.07551686      -0.40024388      -0.14125642       0.25223925      -0.90169978      -1.54562382
8
Lattice="12.0 0.0 0.0 0.0 12.0 0.0 0.0 0.0 12.0" Properties=species:S:1:pos:R:3:momenta:R:3:forces:R:3 energy=-440.2700925922429 free_energy=-440.2700925922429 stress="-0.000533557096474968 -0.0010696121425025362 -0.00012757821872157792 -0.0010696121425025362 0.0004507687200529723 -0.0009712927506593841 -0.00012757821872157792 -0.0009712927506593841 -0.0030833910859252114" pbc="T T T"
B        5.99422352       5.79957063       5.32199874      -0.15371442       0.26080602       1.00655231      -0.03672530      -2.13377607      -4.53697933
H        5.68083954       5.79395013       7.39264018       0.08088554       0.02207627      -0.02015893      -1.12625829      -1.04064410       1.45345380
H        5.71800086       7.37853343       6.74638334      -0.06581100      -0.14064319      -0.11498379       0.39823171      -1.15309942       0.11916257
H        7.11308407       6.46661103       6.98986634      -0.10091906       0.08616150      -0.15316429       1.99391337       0.11027876       0.47742806
H        6.24167023       4.62146657       5.41150571       0.15221532       0.17386346       0.04514833      -0.45772203       0.90482752       0.03002784
H        6.82063642       6.29010734       4.60735982       0.04976335      -0.02715166       0.10069718      -0.53897432      -0.03516649       0.57800222
H        4.88691593       6.04304969       4.92109326      -0.05368257       0.13500979       0.03989974       0.76363087      -0.31008647       0.46903046
N        6.14242573       6.37947438       6.70574617      -0.19835679      -0.52336733      -0.80042012      -0.99609601       3.65766626       1.40987437
8
Lattice="12.0 0.0 0.0 0.0 12.0 0.0 0.0 0.0 12.0" Properties=species:S:1:pos:R:3:momenta:R:3:forces:R:3 energy=-440.4277350866513 free_energy=-440.4277350866513 stress="-0.0013214481943370018 0.00014566481534225 0.000186765175527846 0.00014566481534225 0.00029266013265208016 0.001115711273315867 0.000186765175527846 0.001115711273315867 0.0016738875278005344" pbc="T T T"
B        5.97656326       5.74834247       5.09841002      -0.30418340      -0.45631321      -0.79062512       0.06063636      -0.22675509       0.97004904
H        5.75636637       5.84598232       7.54871469      -0.09206133      -0.11915007       0.16924608      -0.51009145      -0.52804000       0.39323279
H        5.65669092       7.41467269       6.85817827       0.10640743      -0.21381071       0.14067924      -0.53436543       0.44736052      -0.11505715
H        7.13427012       6.65479815       7.02503904       0.17090971       0.09448324       0.14024651       1.13836344      -0.00704795       0.02705381
H        6.21071515       4.58532731       5.19371129       0.22698340      -0.14993404      -0.11809331       0.23744657       0.64921566       0.37202017
H        6.71745313       6.37697305       4.45128531       0.07880562      -0.02341984      -0.30090658       0.23068606       0.11543730       0.20049777
H        4.86572988       5.91645608       4.81343553      -0.25522956      -0.01805264      -0.15738019      -0.43683288       0.30172232       0.19478260
N        6.13496621       6.49507671       6.83928043      -0.23041655       0.87253299       1.02368132      -0.18584268      -0.75189276      -2.04257903
8
Lattice="12.0 0.0 0.0 0.0 12.0 0.0 0.0 0.0 12.0" Properties=species:S:1:pos:R:3:momenta:R:3:forces:R:3 energy=-440.42607146552444 free_energy=-440.42607146552444 stress="-0.0013206708452336263 0.0010946976668059468 0.00031101378200254167 0.0010946976668059468 -0.0012575973803546146 0.0004230926585869434 0.00031101378200254167 0.0004230926585869434 0.0008230529206254268" pbc="T T T"
B        5.96582230       5.73181304       5.15768835       0.12527810       0.79429704       1.83189129       0.39915596       0.06319263       2.38459861
H        5.69385137       5.71913609       7.46717324      -0.07038020      -0.07585818      -0.03618259       0.15613822       0.67789505      -0.27909017
H        5.64455963       7.33312585       6.85093385      -0.05898373       0.16810717      -0.08654972      -1.62285646       2.58237115       0.11680993
H        7.15140313       6.59363531       7.06900125       0.07805631      -0.01730307      -0.06746247      -0.68827796      -0.17189227      -0.21885135
H        6.34777781       4.66687415       5.39043963       0.02153805       0.01259718      -0.10497864       0.59994798      -0.37662638      -0.27692759
H        6.56435386       6.46598382       4.53282676      -0.19619053       0.00350424       0.04877596       0.71164478       0.49025854      -0.79104274
H        4.84859687       5.72701709       5.01119209       0.13982575      -0.13103563       0.06437836      -1.49117846       0.25205779      -0.32015702
N        6.11987234       6.46111162       6.83792161      -0.35267860      -0.76864759      -1.53774948       1.93542594      -3.51725651      -0.61533965
8
Lattice="12.0 0.0 0.0 0.0 12.0 0.0 0.0 0.0 12.0" Properties=species:S:1:pos:R:3:momenta:R:3:forces:R:3 energy=-440.55714496131213 free_energy=-440.55714496131213 stress="0.0010143731825860264 -6.884368901356043e-05 -3.3082601095838075e-05 -6.884368901356043e-05 0.0008564173987417565 -0.001237450428375514 -3.3082601095838075e-05 -0.001237450428375514 -0.0013349272945009396" pbc="T T T"
B        6.00775445       5.68146233       5.20987325      -0.28322104      -0.51246595      -1.79585221      -0.02058129      -0.15708903      -0.43101322
H        5.69056125       5.72763946       7.43583009      -0.03287432       0.01038546       0.03044345      -0.06135498       0.26555988      -0.05412147
H        5.70821137       7.29448362       6.62447331      -0.14875910       0.45103218      -0.05297470       0.05183441      -0.58073597       0.50141295
H        7.17089022       6.43885088       6.91450350      -0.00069354       0.01504744       0.02421352      -0.39660971      -0.03458164       0.08008217
H        6.68554541       4.70551638       5.32495060      -0.11115024       0.01278013      -0.02056593      -0.47564869       0.40142219      -0.64973089
H        6.45428861       6.59032544       4.56416991      -0.25623217      -0.08168647       0.05231887      -0.33132840      -0.99309049      -0.11159586
H        4.82910978       5.50552587       5.11356060       0.26818056      -0.24262528      -0.08059899       0.75395524      -0.07274311      -0.38076710
N        6.14017069       6.32378927       6.68965377       0.23262643       0.33234353       1.96178614       0.47973343       1.17125816       1.04573341
8
Lattice="12.0 0.0 0.0 0.0 12.0 0.0 0.0 0.0 12.0" Properties=species:S:1:pos:R:3:momenta:R:3:forces:R:3 energy=-440.1065383870223 free_energy=-440.1065383870223 stress="0.0012329914931217278 -0.0005699397660861965 -0.0001273131325892906 -0.0005699397660861965 0.0025205946784318447 0.0007006423581389105 -0.0001273131325892906 0.0007006423581389105 0.002255079629617771" pbc="T T T"
B        6.00971091       5.48211611       5.13464664      -0.11080238      -0.01323882      -0.10548216      -0.26971367       1.38065384       0.75001296
H        5.69716723       5.64035691       7.60919436      -0.06366672      -0.13890538      -0.02565318      -0.35833660      -0.12012000       0.07167831
H        5.71700610       7.32826396       7.00943800      -0.04196998       0.04857838      -0.00603358       0.94152298      -2.83515659      -0.38714661
H        7.17030000       6.37131061       7.23120160       0.04802168       0.01755008      -0.00645073       0.42914716      -0.00996571      -0.22149531
H        6.88504545       4.67173604       5.16821387       0.17539413      -0.12639243       0.20363898      -0.67633149       0.11722365       0.22930419
H        6.28020810       6.41027170       4.39080564      -0.08814239       0.27520522       0.03573656      -0.38206743      -0.75538844       0.89991001
H        4.82970000       5.17003665       5.18353551      -0.07426874      -0.07347058       0.24339984       1.35946573       0.09098870      -0.11570972
N        6.16831355       6.29407698       6.94182619      -0.19563802      -0.00538202      -0.21360926      -1.04368669       2.13176454      -1.22655382
8
Lattice="12.0 0.0 0.0 0.0 12.0 0.0 0.0 0.0 12.0" Properties=species:S:1:pos:R:3:momenta:R:3:forces:R:3 energy=-440.299024878879 free_energy=-440.299024878879 stress="-0.0003227621475666862 0.0004649768715839883 1.702986037082107e-05 0.0004649768715839883 -0.0008993561202850544 -0.0008731831136870537 1.702986037082107e-05 -0.0008731831136870537 -0.0015662126078101726" pbc="T T T"
B        5.94140209       5.55717699       5.31858869       0.02971275       0.36021424       1.53378774      -0.79557389      -0.41804943      -2.43987436
H        5.66134077       5.53170638       7.48394696       0.06229415       0.02859299       0.18313555       0.36209006       0.98625599      -0.83328848
H        5.55145760       7.14035449       6.72690007       0.14143150      -0.36462681       0.03371451       0.27279445      -0.94308562       0.28266806
H        7.09149840       6.39234482       6.99120878       0.04035071       0.12948439      -0.00864247      -0.98399863      -0.20669472      -0.32824006
H        6.78747842       4.85964551       5.14878979       0.12952108       0.15240219      -0.02167967       1.38873419      -1.67260300       0.27337145
H        6.07818882       6.34293114       4.51605304       0.03676257       0.12084829       0.01846126      -0.01163093       1.36373484      -0.43229699
H        4.90850160       5.08359180       5.18050987      -0.14598903       0.02947691       0.05252530      -0.65110682      -0.40004458       0.32307856
N        6.06391609       6.19042335       6.71522847      -0.66998713      -0.47358333      -1.65687600       0.41869156       1.29048651       3.15458183
8
Lattice="12.0 0.0 0.0 0.0 12.0 0.0 0.0 0.0 12.0" Properties=species:S:1:pos:R:3:momenta:R:3:forces:R:3 energy=-440.36934854202985 free_energy=-440.36934854202985 stress="8.217982378356254e-05 0.0012256239083306207 0.00012242726622642156 0.0012256239083306207 0.0004089526835084199 0.00014226810531258052 0.00012242726622642156 0.00014226810531258052 0.0021155176839347195" pbc="T T T"
B        5.94829680       5.62292326       5.17329725      -0.24363242      -0.70803072      -0.82760069       0.07014329       0.24695051       0.72502582
H        5.89585196       5.58536707       7.58764899       0.14296854       0.09290326      -0.04119493       0.17372491       1.61785627      -1.04503881
H        5.39853009       7.14840195       6.87383358      -0.02299412      -0.14713625       0.26134418      -1.61909615       1.53108605       0.32237356
H        7.09496651       6.77669828       6.93826134      -0.17981088       0.15912141       0.17644658      -1.71395729      -0.63304097       0.08323829
H        6.81959530       4.85159805       5.13509022      -0.16579527       0.24965624      -0.29996029       0.29216549      -0.00024447       0.27084448
H        6.05856704       6.50284296       4.41235101       0.05896313      -0.43163519      -0.26154321       0.05701853       0.29571729       0.26269811
H        4.90503349       5.10692566       5.13988066       0.02532589       0.04786199      -0.27068357      -0.29259529       0.10141821       0.31929743
N        6.07235460       6.40122282       6.88542440      -0.01275161       0.71907008       1.40542237       3.03259651      -3.15974290      -0.93843889
8
Lattice="12.0 0.0 0.0 0.0 12.0 0.0 0.0 0.0 12.0" Properties=species:S:1:pos:R:3:momenta:R:3:forces:R:3 energy=-440.3359939503489 free_energy=-440.3359939503489 stress="0.0005506014301291332 -0.0005086552515288335 0.00016005992210014965 -0.0005086552515288335 0.0014464282982917566 0.00011956285463099993 0.00016005992210014965 0.00011956285463099993 0.0007441763224920262" pbc="T T T"
B        6.06642273       5.71858289       5.13512843       0.03084088       0.67888169       1.79999972       0.21016464       0.03523855       2.51830378
H        6.30616769       5.69024639       7.48325896       0.10275854       0.20743667      -0.36369428      -0.22478319      -0.15680351       0.33512377
H        5.30556532       7.06185780       7.02604171      -0.26223532      -0.04896387      -0.17540536       0.16783377      -0.29882339       0.02392172
H        7.02125378       7.12992946       6.90155202      -0.36508600      -0.13740689      -0.33168893       0.16752486       0.08300708      -0.13185842
H        6.93109429       4.87007054       5.31342180      -0.02425025       0.07207084      -0.09193595      -0.64763663       1.18555707      -0.85399444
H        6.18302158       6.73331205       4.51674104       0.03312590      -0.02810106      -0.00041307       0.11998449      -0.95653779      -0.23347923
H        4.97874622       5.25573796       5.29310121      -0.06480273       0.01439499      -0.03881529       0.33869678       0.26259447      -0.61989286
N        6.18338275       6.50631592       6.84914279       0.13343644      -0.77734695      -0.64920571      -0.13178472      -0.15423248      -1.03812432
8
Lattice="12.0 0.0 0.0 0.0 12.0 0.0 0.0 0.0 12.0" Properties=species:S:1:pos:R:3:momenta:R:3:forces:R:3 energy=-440.1632486919839 free_energy=-440.1632486919839 stress="0.00013607609254269503 -0.0011905529161184974 -0.00037139276080044533 -0.0011905529161184974 -0.0009034523721127332 -0.00015578852267075877 -0.00037139276080044533 -0.00015578852267075877 -0.0027716532403325306" pbc="T T T"
B        6.07285789       5.67373429       5.20063733      -0.04909538      -0.59207849      -1.66400721       0.57188454      -0.61763295       0.20377697
H        6.49808862       5.76845725       7.40805139       0.08355069      -0.06018051      -0.13150111       0.58174332      -2.13818348       1.80115098
H        5.23180299       6.78316668       6.96665143       0.02803862      -0.02272680       0.01795765       0.95586300      -0.83671510      -0.48584696
H        6.80229968       7.11543393       6.64849846      -0.12428284       0.04220384      -0.01717500       1.79617238       1.91669913      -0.45991399
H        6.98389552       4.88456607       5.29255891       0.09820924      -0.19149774       0.10706770      -0.66404810       0.66888224      -1.04698478
H        6.16106532       6.69032061       4.59194861      -0.10856478       0.17666083       0.04420130       0.05847469      -0.97652764      -0.75360405
H        5.01610448       5.16955596       5.24636440      -0.09237122      -0.17253978       0.16077370       0.05483685      -0.12610927      -0.64901102
N        6.17152491       6.33058266       6.64237725      -0.26528078       0.80050283       1.63638183      -3.35492668       2.10958706       1.39043286
8
Lattice="12.0 0.0 0.0 0.0 12.0 0.0 0.0 0.0 12.0" Properties=species:S:1:pos:R:3:momenta:R:3:forces:R:3 energy=-440.27089320596093 free_energy=-440.27089320596093 stress="-0.0017600399341127402 8.863436764060514e-05 0.00049537138211961 8.863436764060514e-05 -0.0007280387675604287 0.0013610288242380968 0.00049537138211961 0.0013610288242380968 0.001752878087897868" pbc="T T T"
B        5.96874300       5.48143765       5.18663678      -0.30975345      -0.19596342      -0.71091729       0.54116450       1.10889920       1.38490889
H        6.45954926       5.58994727       7.58593958       0.11821262      -0.08735719       0.28833590       0.03144875      -0.54296360       0.27975013
H        5.14768005       6.62309052       7.27012481       0.31671897       0.04310393      -0.01236220      -1.60236621       0.24711883       0.31717503
H        6.71328283       7.15026074       7.00946966       0.04785494       0.25145421       0.21996965       0.42209212       0.34829029      -0.44119656
H        6.97518671       4.92370775       5.16780441       0.21085679      -0.03927733       0.37169178       0.52727006      -0.37264058       0.13381241
H        5.89338451       6.33623110       4.41406042      -0.22327476       0.34249327       0.21866075      -0.05452005       0.72030032      -0.00629638
H        5.02481329       4.84973926       5.27774561       0.08867465      -0.12402566       0.29860597      -0.80633079      -0.61576698       0.34478198
N        6.07510258       6.33105586       6.97036930      -0.68337417      -0.21027973      -0.51875231       0.94124162      -0.89323748      -2.01293549
8
Lattice="12.0 0.0 0.0 0.0 12.0 0.0 0.0 0.0 12.0" Properties=species:S:1:pos:R:3:momenta:R:3:forces:R:3 energy=-440.2524748568101 free_energy=-440.2524748568101 stress="-0.0018153150862187106 0.0009241417295021452 0.0003022870416966088 0.0009241417295021452 -0.0002454263785596837 -0.001095952337956184 0.0003022870416966088 -0.001095952337956184 -0.0005616495707222207" pbc="T T T"
B        5.93153515       5.67265417       5.32897255      -0.08031180       0.55337184       1.22142654      -1.50083117      -0.84892111      -3.11949072
H        6.36033620       5.64672301       7.47672379       0.04543661      -0.02190750       0.09203826      -0.58155679       1.04470751      -0.41385731
H        5.06781550       6.70053767       6.92904235      -0.23095802       0.19931402      -0.03395729      -2.77300758       0.99134955       1.10605519
H        6.67398430       7.16616731       6.59575715       0.04519813       0.04541324      -0.05061254      -0.53464865      -0.56334820       0.75094824
H        6.93218450       5.32165929       4.91559940      -0.20791294       0.24224076       0.07070919       1.23910006      -0.56286981       0.68786890
H        5.61264303       6.45317384       4.52327621      -0.11095087      -0.20908093       0.28376757      -0.33444825       0.63666951       0.52229978
H        5.11086398       4.83383269       5.30182499       0.34319877       0.18435638       0.08608146       0.23204201      -0.03876137       0.56476979
N        5.98607040       6.36092082       6.76079064      -0.23780893      -1.01356086      -1.51421213       4.25335038      -0.65882608      -0.09859387
8
Lattice="12.0 0.0 0.0 0.0 12.0 0.0 0.0 0.0 12.0" Properties=species:S:1:pos:R:3:momenta:R:3:forces:R:3 energy=-440.40819014978115 free_energy=-440.40819014978115 stress="0.00194487597671837 8.646900588859514e-05 0.0002213682407117622 8.646900588859514e-05 0.002324002684745703 -0.0003291814123331247 0.0002213682407117622 -0.0003291814123331247 0.0016257003670401855" pbc="T T T"
B        5.87181025       5.74731523       5.26668041       0.05160046      -0.45148255      -0.53256881      -0.40865923      -0.14090611      -0.76233868
H        6.26493990       5.72885292       7.50002384       0.02808956      -0.04710979      -0.14885382      -0.31569737       0.76475557       0.02921780
H        4.96587096       6.90785205       7.08399829      -0.51432077       0.18319283       0.08454603       0.91160560      -0.41488857       0.21374545
H        6.66735509       7.32527152       6.85225143       0.00887481      -0.02868341       0.01380326      -0.38769245      -0.43252624       0.13359714
H        7.03412904       5.63611903       4.94781475      -0.09498396       0.03675733      -0.46568014      -0.97082341      -0.02529161       0.48269168
H        5.27120461       6.51568494       4.49997616      -0.07410248      -0.27292528      -0.38302560       0.71242874      -0.92306371       1.40938679
H        5.28092744       4.67472848       5.47814942      -0.01642496      -0.13403724      -0.20482322       0.86824967       1.64005404      -0.14933031
N        5.95246458       6.54241862       6.89432114       0.19144384       0.69508839       1.78673474      -0.40941155      -0.46813337      -1.35696987
8
Lattice="12.0 0.0 0.0 0.0 12.0 0.0 0.0 0.0 12.0" Properties=species:S:1:pos:R:3:momenta:R:3:forces:R:3 energy=-440.2017600862057 free_energy=-440.2017600862057 stress="0.0006231265203438834 -0.0007423455458357488 -0.00042822392367434993 -0.0007423455458357488 -0.000205023070618894 0.0011434192536813855 -0.00042822392367434993 0.0011434192536813855 0.0007503135546963215" pbc="T T T"
B        5.91177449       5.69096217       5.01090025       0.02239372       0.48877360       1.45797474       0.29655530       0.92245997       3.10716533
H        6.32707942       5.85476733       7.43306155       0.10026643      -0.01445495      -0.01365995      -0.00014930      -0.48235295       0.03140245
H        4.96833571       6.90287258       7.01554544      -0.10712007      -0.04721466      -0.19417435       2.59576963      -1.36718807      -1.04462503
H        6.61559072       7.33910558       6.71237579      -0.02605295       0.05603672      -0.17487024       0.19467800       0.11238533      -0.44935112
H        7.03166429       5.76477113       4.79130978       0.07247197       0.22554112      -0.04447532       0.76407289      -0.02643048      -0.79777955
H        5.17959300       6.44385824       4.56693845      -0.17127724       0.21141154      -0.09441708      -0.57408400       0.25926776      -1.05092343
H        5.55303119       4.66089442       5.38078214      -0.10426060      -0.31799387       0.02587632      -0.45680492      -0.67547724      -0.38671484
N        5.98434630       6.49896905       6.68202292      -0.17435628      -0.61984088      -0.82352529      -2.82003760       1.25733569       0.59082619
8
Lattice="12.0 0.0 0.0 0.0 12.0 0.0 0.0 0.0 12.0" Properties=species:S:1:pos:R:3:momenta:R:3:forces:R:3 energy=-440.47366028691533 free_energy=-440.47366028691533 stress="0.0008086504554755483 -0.0003256825685558452 -0.00042327677125787185 -0.0003256825685558452 -0.00035353625094856574 -0.0006772703442970533 -0.00042327677125787185 -0.0006772703442970533 -0.0015943621017806833" pbc="T T T"
B        5.92070184       5.72084977       5.16222690      -0.13213794      -0.72653558      -1.68672201       0.59800779      -0.24288761      -0.06596111
H        6.46349417       5.83759481       7.34454015       0.16874809       0.01524222       0.07465613      -0.38577718       0.20264701      -0.56241108
H        4.96872824       6.65486014       6.97441476       0.37364050      -0.05384927       0.10243854       1.27212064      -0.57719003      -0.53263121
H        6.47797920       7.35099713       6.55179198      -0.10706287       0.19221787       0.24146577      -0.34320112      -0.66335251      -0.08931839
H        7.03127176       5.79746456       4.80228037      -0.11104299       0.02680532       0.26141753      -0.14825296      -0.02553587      -0.44777531
H        5.13582185       6.38691190       4.65545985       0.09367033       0.04200335       0.24335933      -0.34589461       0.01893954      -1.04418318
H        5.60769165       4.64900287       5.42958343       0.08681007       0.14463382       0.32122495      -0.37830177      -0.74618473      -0.41197554
N        5.96134335       6.40794986       6.58619763      -0.71426612       0.34385805       0.56433346      -0.26870080       2.03356420       3.15425582
8
Lattice="12.0 0.0 0.0 0.0 12.0 0.0 0.0 0.0 12.0" Properties=species:S:1:pos:R:3:momenta:R:3:forces:R:3 energy=-440.3008305092926 free_energy=-440.3008305092926 stress="0.0004102118627468715 -0.00018932787340526615 0.0007626578809694882 -0.00018932787340526615 0.0017967985487933953 0.0005814851046993774 0.0007626578809694882 0.0005814851046993774 0.0021140818340073726" pbc="T T T"
B        5.87850214       5.63004608       5.27376449      -0.15124307      -0.21339889      -0.48193120       0.62397836      -0.02772258      -0.77501180
H        6.66065383       5.85838788       7.46940338       0.03559777       0.23905288       0.03041009      -1.18175734       1.01507924      -0.47862114
H        4.98367392       6.37821623       7.31312098       0.20203887       0.04872243       0.01976931      -1.75436470      -0.13198054       0.94792495
H        6.24488940       7.48485429       6.82398991      -0.21712482      -0.05154275       0.05882473      -0.41723833      -1.35478361       0.20951444
H        7.01632608       5.65329083       4.85286319       0.08657747       0.00468414       0.21092313      -0.91947766       0.22984353       0.79855532
H        5.12924615       6.19522623       4.53059662      -0.05195111       0.23403235       0.26015163       0.33842967       0.21575285       1.01040651
H        5.50955250       4.51514571       5.43777721       0.03319404       0.04792323       0.21874005       0.12077380       0.46114873       0.59683419
N        5.92327711       6.46029656       6.94984492      -0.23229153      -0.32297384      -0.21132087       3.18965619      -0.40733761      -2.30960247
8
Lattice="12.0 0.0 0.0 0.0 12.0 0.0 0.0 0.0 12.0" Properties=species:S:1:pos:R:3:momenta:R:3:forces:R:3 energy=-440.3950222449855 free_energy=-440.3950222449855 stress="-0.00030602085414070754 -3.246308725191407e-05 0.00031072927629795846 -3.246308725191407e-05 -0.0006472650705125047 -0.00045366936205611493 0.00031072927629795846 -0.00045366936205611493 -0.0008471474655899733" pbc="T T T"
B        5.91981184       5.68459319       5.37425217      -0.22016825       0.51015827       1.13138555      -0.35496106      -1.41550845      -3.86099478
H        6.77296567       6.06651066       7.36285932      -0.12657483       0.08088984      -0.29764867      -0.19596593       0.03139347       0.19966250
H        5.03917313       6.17994749       7.23612092      -0.17773582      -0.10874624      -0.03143755      -0.58005499      -0.09643234       0.78029193
H        6.01919331       7.40438638       6.56270718      -0.13006661      -0.24910517       0.00406732       0.10866864       0.24302457       0.42478292
H        6.96082687       5.68327233       4.82585132       0.04219670      -0.05594328      -0.09154519       0.21479399       0.16532056       0.80471303
H        5.20239221       6.26553084       4.63714068       0.01357526      -0.13542996      -0.08406504      -0.01827098       0.39029363       0.76253957
H        5.48896078       4.59561362       5.39869277       0.04361238       0.02477745      -0.13656976       0.18687820      -0.01902598       0.82362805
N        5.94826573       6.38232410       6.78814859       0.28836592      -0.07880221      -0.39877843       0.63891213       0.70093454       0.06537679
8
Lattice="12.0 0.0 0.0 0.0 12.0 0.0 0.0 0.0 12.0" Properties=species:S:1:pos:R:3:momenta:R:3:forces:R:3 energy=-440.54686578409326 free_energy=-440.54686578409326 stress="-0.0007107923727597448 0.00040470778977876276 -0.0006647260691046313 0.00040470778977876276 -0.0010010560952430937 0.0006698156248638545 -0.0006647260691046313 0.0006698156248638545 0.0010311203255768083" pbc="T T T"
B        5.87698932       5.63180449       5.23074026      -0.03229132      -0.01494396       0.13751205      -0.79814376       0.56435730       0.90397303
H        6.74450802       6.09762889       7.27385518      -0.03286524      -0.00526532      -0.14172599       1.62052605      -0.79438311       0.97528659
H        5.03849366       6.15062370       7.42031755      -0.13168368      -0.02918318      -0.01486941       0.87016557       0.13886052      -0.71870784
H        5.93208999       7.45228821       6.79426671      -0.02195438      -0.05146852      -0.05382977       0.05223689       1.79040043      -0.42991490
H        6.96150634       5.75299349       4.86197217       0.02703446      -0.05361128      -0.42806766       0.59555673       0.01067076      -0.07107639
H        5.09219204       6.21825810       4.57968245      -0.06296763      -0.27000111      -0.36368463       0.01826506      -0.00637380       0.26262354
H        5.55152392       4.54771179       5.52501177      -0.01748372      -0.16928229      -0.32663955       0.09725403      -0.07572467      -0.07472788
N        5.89765005       6.43731635       6.83765070       0.01943926       0.58219566       1.28169846      -2.45586058      -1.62780743      -0.84745616
8
Lattice="12.0 0.0 0.0 0.0 12.0 0.0 0.0 0.0 12.0" Properties=species:S:1:pos:R:3:momenta:R:3:forces:R:3 energy=-440.4565171945279 free_energy=-440.4565171945279 stress="-0.0012951305529523153 -2.9656206852547754e-05 -0.00013600572424649526 -2.9656206852547754e-05 -0.0009338038204645302 0.00040295981742322925 -0.00013600572424649526 0.00040295981742322925 -0.0005151493434460969" pbc="T T T"
B        5.93211520       5.64682831       5.10267244       0.15849217       0.44780557       1.15017477      -0.20521593       0.76683796       2.48203717
H        6.75246918       6.18409798       7.28144182       0.13945792      -0.02480608       0.14023970       0.83147941      -0.59956159       0.28421100
H        5.07363573       6.22305567       7.19172080       0.11441449       0.11062737      -0.18509700      -0.15867460      -0.31871959      -0.08319665
H        5.98259754       7.44409690       6.53705020      -0.00134935       0.15405788      -0.09335680       0.09469138       0.84865345      -0.43405815
H        6.96830800       5.96974247       4.76686541      -0.24698041       0.10735495      -0.05477257       0.90494513      -0.03382637      -1.00956916
H        5.03169200       6.24929424       4.71855818       0.00598170      -0.09109382       0.09297015      -0.53080012      -0.19776439      -1.00826248
H        5.79375011       4.55590310       5.46298295       0.02434360       0.11557004      -0.03691648      -0.14690137      -0.58190456      -0.58623678
N        5.95882670       6.41555103       6.65803909      -0.44187219      -0.83083534      -0.92472937      -0.78952389       0.11628509       0.35507505
8
Lattice="12.0 0.0 0.0 0.0 12.0 0.0 0.0 0.0 12.0" Properties=species:S:1:pos:R:3:momenta:R:3:forces:R:3 energy=-440.5136120738399 free_energy=-440.5136120738399 stress="0.0007681384133528829 -0.0005001835841840072 0.0007271328401597282 -0.0005001835841840072 0.00154738113128692 -0.0006621489123967211 0.0007271328401597282 -0.0006621489123967211 -0.00044584522217050963" pbc="T T T"
B        6.01485380       5.67734157       5.21911025      -0.04860060      -0.75996673      -1.51311160       0.55065629      -0.16911327       0.13065935
H        6.85526271       6.02370943       7.26914995       0.13249243      -0.05567982       0.12880834      -0.75108000       0.40308084      -0.35464016
H        5.16570978       6.25783872       7.21399823      -0.01090206       0.12910625       0.13763654      -1.85757584      -0.54352434       1.10741285
H        6.15990086       7.49344106       6.65585088       0.02454039       0.20322976       0.24624819      -0.04626943      -0.80286088      -0.11878762
H        7.03971631       6.12346034       4.73085005      -0.15078518       0.09747482       0.19738531      -1.20320455      -0.55956122       0.10866029
H        4.96028369       6.05741673       4.76680953      -0.01555972      -0.01821254       0.12790430       0.97998414      -0.58364168       0.02918632
H        6.11951401       4.50655894       5.56094106       0.11192498       0.11124712       0.21171009      -0.36182584       1.17887650      -0.75894608
N        6.02886590       6.43125084       6.71943456      -0.29051101       0.28148679       0.55189145       2.68931524       1.07674405      -0.14354495
8
Lattice="12.0 0.0 0.0 0.0 12.0 0.0 0.0 0.0 12.0" Properties=species:S:1:pos:R:3:momenta:R:3:forces:R:3 energy=-440.5000119605934 free_energy=-440.5000119605934 stress="0.0007422873078977233 -0.0001573962415223735 -2.0218334277652702e-06 -0.0001573962415223735 0.0008906295395356865 0.0005170926399227666 -2.0218334277652702e-06 0.0005170926399227666 0.0017870670031275792" pbc="T T T"
B        6.08908093       5.64608314       5.26342191      -0.10393032       0.19991679       0.35724721       0.34402232      -0.10466714      -0.45526947
H        6.93518971       6.04560335       7.41185200      -0.01718232       0.12078875       0.02070200      -0.93678598       0.50694937      -0.30035335
H        5.16419033       6.25473011       7.33328043      -0.36309214      -0.01875143       0.07256552       0.24534365      -0.05336539       0.15066342
H        6.21042181       7.49961358       6.68914057      -0.10106193      -0.04883918      -0.07626371      -0.04690778      -0.79648454       0.33080871
H        6.96429747       6.09495220       4.58814800       0.17971880       0.20717046       0.03280710      -0.33265180       0.23760666       0.82669529
H        5.03570253       5.82200516       4.77593034      -0.32808028       0.19030076       0.16480629      -0.03883120       0.32838657       0.44498717
H        6.28269678       4.50038642       5.43207668       0.15884494      -0.23817633       0.17951966      -0.06149454       0.15413427       0.57310894
N        6.09476561       6.45540612       6.88552427       0.32332970      -0.42390950      -0.66146216       0.82730534      -0.27255981      -1.57064071
8
Lattice="12.0 0.0 0.0 0.0 12.0 0.0 0.0 0.0 12.0" Properties=species:S:1:pos:R:3:momenta:R:3:forces:R:3 energy=-440.3179544308804 free_energy=-440.3179544308804 stress="-5.695143178355286e-05 0.0006050661815219739 -0.0006827830330778853 0.0006050661815219739 -0.0015730530402515504 -0.0004750406180051567 -0.0006827830330778853 -0.0004750406180051567 -0.0013710229825113212" pbc="T T T"
B        6.06639810       5.67489327       5.36893855      -0.17207379       0.13492041       0.08869866       0.32091205      -0.32006862      -2.25233535
H        6.93262365       6.12290526       7.31562861       0.05531120      -0.01941771      -0.24629446      -0.08315185       0.04640644       0.22946553
H        5.13820802       6.07984089       7.29681023      -0.11110036      -0.09746012       0.07861462       2.20143193       0.69743068      -0.78891994
H        6.04615356       7.42040675       6.59651636      -0.11441715      -0.03517084       0.04362702       0.04176746       0.04703419       0.28096659
H        6.84959736       6.14480472       4.68437139      -0.03564900      -0.23579668      -0.12065391       0.81078796       0.57982864      -0.10570636
H        5.06737635       5.79144561       4.86592524       0.19337452      -0.15231319      -0.09922789      -1.50537414       0.57314444      -0.18184242
H        6.24991682       4.57959325       5.45673835       0.01556415       0.09367820      -0.13180049       0.51032724      -1.74327145       0.76045651
N        6.07420559       6.37992806       6.76251249      -0.09166000       0.29963963       0.48024726      -2.29670064       0.11949568       2.05791543
8
Lattice="12.0 0.0 0.0 0.0 12.0 0.0 0.0 0.0 12.0" Properties=species:S:1:pos:R:3:momenta:R:3:forces:R:3 energy=-440.44998495076067 free_energy=-440.44998495076067 stress="0.001409177045346844 0.00041469866983912055 -0.0004347225045859947 0.00041469866983912055 0.0013252403682935648 3.003916506433895e-06 -0.0004347225045859947 3.003916506433895e-06 0.0018033956688450947" pbc="T T T"
B        6.07329284       5.61311093       5.08704453      -0.22110266      -0.00815801       0.32415174      -0.47298522       0.92764471       1.27745712
H        7.02914622       6.32286075       7.14051041       0.10325510       0.12864277      -0.03152194      -0.04078241      -0.06347131       0.03839754
H        5.32228879       5.99830325       7.41692577       0.18237455       0.05795800      -0.21677974       1.39715044       0.75738280      -1.32635747
H        5.86408633       7.50606816       6.70987401      -0.18958501       0.00535479      -0.07165344       0.01977192      -0.28389959      -0.30704802
H        6.97301522       6.21610976       4.58307423      -0.08440456      -0.16410313      -0.19363977      -0.43015704      -0.59251528       0.07754049
H        4.97085378       5.85673084       4.66008100       0.22500392      -0.18931491      -0.21150637       0.88402159      -0.24342064       0.28964897
H        6.25758999       4.49393184       5.46745344      -0.10167733       0.01970161      -0.41553133       0.03082688       0.58515667      -0.49915197
N        6.06374807       6.46675978       6.74674108      -0.18799130       0.13738225       0.91451110      -1.38784616      -1.08687736       0.44951334
8
Lattice="12.0 0.0 0.0 0.0 12.0 0.0 0.0 0.0 12.0" Properties=species:S:1:pos:R:3:momenta:R:3:forces:R:3 energy=-440.3400240512628 free_energy=-440.3400240512628 stress="0.0008628982644519319 -0.0006084184029175688 0.0005676491783884131 -0.0006084184029175688 0.00041195022741802187 -0.0006621647737786386 0.0005676491783884131 -0.0006621647737786386 -0.00130208869583431" pbc="T T T"
B        6.08346094       5.70883001       5.16822839       0.05089231       0.43863907       1.10930308      -0.61906836       0.21506725       1.26991534
H        7.02953572       6.62389207       7.11266713      -0.05594651       0.07590897      -0.11168417      -0.80439901      -0.38460783      -0.62549205
H        5.48771756       5.96696968       7.33073884       0.20426152       0.16264186      -0.21863823      -0.93778810      -1.03826227       0.97047590
H        5.62529959       7.41445344       6.51074815      -0.07397611      -0.13131159       0.06614511       0.46014099      -0.67045150       0.09181876
H        6.97804778       6.29353721       4.66926116       0.04140801       0.16209045       0.00486643      -0.23482951      -0.58398401      -0.54143250
H        4.97046428       6.07421115       4.89258291      -0.09753707       0.04204210       0.05932547       0.75730661      -0.88719169      -0.81143100
H        6.23469224       4.58554656       5.55882894      -0.07396425       0.01872856       0.14848666      -0.04680807       0.40622279      -1.17298145
N        6.07090707       6.44733410       6.64376307      -0.28771007      -0.78211958      -0.95317807       1.42544545       2.94320727       0.81912700
8
Lattice="12.0 0.0 0.0 0.0 12.0 0.0 0.0 0.0 12.0" Properties=species:S:1:pos:R:3:momenta:R:3:forces:R:3 energy=-440.5407612375259 free_energy=-440.5407612375259 stress="0.0001198138671594928 -0.0006974578280768754 0.0006325001210305072 -0.0006974578280768754 -0.00015507331092382562 0.0008741168534895223 0.0006325001210305072 0.0008741168534895223 -0.00020060853942283167" pbc="T T T"
B        6.04349043       5.66087869       5.11259592       0.10795313      -0.95953073      -1.83637565       0.07113304       0.18397481       1.75361831
H        7.04704392       6.58998139       6.94781178      -0.24653256       0.08444276       0.01440982      -0.43386612      -0.03624659       0.00180639
H        5.56644596       5.88222324       7.37066943      -0.10185572       0.07176118       0.24406031      -1.06388952      -1.51394169       1.54050476
H        5.55382546       7.42298526       6.70973846       0.08812543      -0.14778089       0.23348441       0.07285424      -0.05963298      -0.29376354
H        6.91231725       6.25266521       4.62933057       0.00284401       0.25856525       0.10949412       0.13653984       0.16722740      -0.61052525
H        4.95295608       5.84022793       4.71445188      -0.24308073       0.07543757       0.14749519       0.18567007      -0.25268384      -0.13262040
H        6.37083691       4.57701474       5.47633765       0.07188081      -0.03286088       0.31376707      -0.39739044       0.28894704      -0.47302336
N        6.02281476       6.48008443       6.70377655       0.00638738       0.63559290       0.88605330       1.42894890       1.22235584      -1.78599690
8
Lattice="12.0 0.0 0.0 0.0 12.0 0.0 0.0 0.0 12.0" Properties=species:S:1:pos:R:3:momenta:R:3:forces:R:3 energy=-440.277380817055 free_energy=-440.277380817055 stress="-0.002207845832958362 0.00044816855414170744 -0.0008133361528470061 0.00044816855414170744 -0.0011069129331589128 0.0013180871570009792 -0.0008133361528470061 0.0013180871570009792 0.0016247763678532868" pbc="T T T"
B        6.07298737       5.67615402       5.22486314      -0.18590214       0.29571068       0.65454076       0.39793114      -0.01681501       0.42120802
H        7.00012057       6.66906324       7.17159216      -0.15421961       0.05186945      -0.00381512       2.16708645       0.24677422       0.76360484
H        5.47929248       5.88984707       7.51185892      -0.24335569      -0.07000133      -0.01934565       0.70342115       0.56844584      -0.50810414
H        5.56117604       7.37684541       6.67255557       0.00014224      -0.13844787      -0.07201000      -0.92998717       1.85234238      -0.29666049
H        6.73420017       6.24784291       4.48814108      -0.14708329       0.13008742       0.26863533       0.53164669       1.19112550       0.02451051
H        4.99987943       5.63157349       4.84789633      -0.08025752       0.06084504       0.29063414      -1.17633659       0.26509100       0.23147565
H        6.52200624       4.62315459       5.30754140       0.19063897       0.11118843       0.13397916       0.22303873      -0.62760554       0.99674264
N        6.05545657       6.51941814       6.86607497       0.28258069      -0.45668466      -1.13194137      -1.91680040      -3.47935839      -1.63277704
8
Lattice="12.0 0.0 0.0 0.0 12.0 0.0 0.0 0.0 12.0" Properties=species:S:1:pos:R:3:momenta:R:3:forces:R:3 energy=-440.3444831288158 free_energy=-440.3444831288158 stress="-0.0005600834146554407 0.0005374348116946004 -0.0007489166151088037 0.0005374348116946004 -0.0005478598854628199 -0.0013875085108670977 -0.0007489166151088037 -0.0013875085108670977 -0.0013311559734404022" pbc="T T T"
B        6.07776937       5.67776673       5.40769433      -0.25192154      -0.34431462      -0.77839011       0.12569302      -1.91945057      -4.74874526
H        7.00928356       6.46094906       7.08372488       0.30937235      -0.07196955      -0.11933872       1.47581157       0.26832422       0.92641544
H        5.45340583       5.80683943       7.45555773      -0.03065306       0.06611207      -0.09082046       0.66819537       0.58346507      -0.36514960
H        5.62490505       7.31956853       6.67949184      -0.11168960       0.25334286       0.08800367      -0.49965528       1.24190854       0.03084692
H        6.55010547       6.38917815       4.54444227      -0.12254727      -0.33171516      -0.04057515      -0.30172592      -0.32890194       1.23169144
H        4.99071644       5.36313562       5.06087124       0.25602128      -0.15774843      -0.10445460       0.11066884       0.40102398       0.52762192
H        6.71341527       4.68043147       5.48067837       0.11429931       0.18297826      -0.21422473      -0.01069462       0.49405716       0.43427091
N        6.04357778       6.38657735       6.76814953      -0.52220683       0.38688159       1.38829787      -1.56829298      -0.74042647       1.96304823
8
Lattice="12.0 0.0 0.0 0.0 12.0 0.0 0.0 0.0 12.0" Properties=species:S:1:pos:R:3:momenta:R:3:forces:R:3 energy=-440.197608033187 free_energy=-440.197608033187 stress="0.0010890416212884291 -0.0004151634015170799 0.0006639789777289348 -0.0004151634015170799 0.0017863077302058962 0.0007101193079645817 0.0006639789777289348 0.0007101193079645817 0.0014664976189159452" pbc="T T T"
B        6.08948974       5.46866672       5.12720229      -0.15617102       0.05450565       0.30434040      -0.54144304       1.43466181       1.37945163
H        7.04548270       6.49556147       7.23308438       0.28821775       0.13679121       0.06866611      -1.18336585      -0.17836876      -0.56522331
H        5.49737003       5.83623597       7.55189113      -0.09165765       0.04346417      -0.10349214      -0.92158921      -1.21188316       1.04712762
H        5.58456198       7.36564689       6.81574468      -0.22553584       0.14755464      -0.13069551       0.45001745      -1.06722291      -0.25212377
H        6.35441930       6.45302246       4.44810887      -0.04108966       0.10109200      -0.31125679       0.00411867      -1.38373206       0.56960394
H        4.95451730       5.07796647       5.05556899      -0.09094507      -0.15076178      -0.10621492       0.71618798       0.28235315      -0.02191229
H        6.89132846       4.63435311       5.42200777       0.16048854      -0.22277440      -0.25318567      -0.19326232       0.51987111      -0.48921581
N        6.02820091       6.38650898       6.88265530      -0.21806625      -0.12701031       0.66585559       1.66933632       1.60432082      -1.66770802
8
Lattice="12.0 0.0 0.0 0.0 12.0 0.0 0.0 0.0 12.0" Properties=species:S:1:pos:R:3:momenta:R:3:forces:R:3 energy=-440.4234638834715 free_energy=-440.4234638834715 stress="2.5435266168416605e-05 -5.516022600811917e-05 0.0005598652377125499 -5.516022600811917e-05 -0.000539858247896689 -0.00012450680492856155 0.0005598652377125499 -0.00012450680492856155 -0.0012771250939702437" pbc="T T T"
B        6.06932683       5.54561143       5.23800575      -0.00285827       0.60925378       1.46778472      -0.56591337       0.54913925       1.37660258
H        6.98721491       6.61261871       7.10968485      -0.09040725       0.05757433      -0.17698133      -1.42703536      -0.52389522      -0.79537452
H        5.53652221       5.71197575       7.41817455      -0.15107389      -0.21740546       0.21319562       0.07902552      -0.11224269       0.03317327
H        5.42260815       7.19998751       6.56272840      -0.05910351      -0.09877778       0.16164739       0.76188185      -1.05551847       0.27455418
H        6.21158646       6.45423922       4.58182545      -0.11928413       0.31411992       0.12084220       0.47978070       0.52233936      -1.41990667
H        5.01278509       5.11959681       5.23197024      -0.02531574      -0.00935810       0.13518708      -0.83325670      -0.67276332      -0.62349285
H        6.89781303       4.80001249       5.40632751      -0.05352479       0.04218993       0.34650987       1.05557943      -1.00978252      -0.50251555
N        6.01949352       6.30239393       6.69165195       0.11253914      -0.71538801      -2.12906569       0.44993793       2.30272362       1.65695956
8
Lattice="12.0 0.0 0.0 0.0 12.0 0.0 0.0 0.0 12.0" Properties=species:S:1:pos:R:3:momenta:R:3:forces:R:3 energy=-440.51391428268914 free_energy=-440.51391428268914 stress="0.000747042244934208 9.25490484098183e-05 -0.0003648890881199438 9.25490484098183e-05 0.001084091408151805 -0.00028740614459843834 -0.0003648890881199438 -0.00028740614459843834 0.0017542639690929917" pbc="T T T"
B        6.06471280       5.56155387       5.19586707       0.23522873      -1.25616348      -2.21506910       0.21834462      -0.35585996       1.14730511
H        6.96439684       6.80201129       6.87691760      -0.26748427       0.21342823       0.07809870      -0.27782135      -0.00463592       0.30126642
H        5.79256736       5.62872794       7.57706871      -0.01460441      -0.02234604       0.31815837       0.52380392       2.00253767      -1.82647073
H        5.25526014       7.16507996       6.81357885      -0.05123968      -0.12357924       0.23174267       0.17923093      -0.22292807      -0.00389513
H        6.33201194       6.38203891       4.42293129      -0.17487743       0.08671929       0.20301138      -0.14928140       0.48736863      -0.12860457
H        5.01217716       5.04105726       5.07423946       0.08649875       0.10967462       0.08088420       0.26824206       0.18343425       0.06250365
H        6.98782284       4.83492004       5.37068914      -0.23973235       0.03551466       0.16815812      -0.48890842       0.11727333      -0.00745151
N        5.99071846       6.40597324       6.79286069       0.03103786       0.93867957       1.27633279      -0.27361035      -2.20718992       0.45534676
8
Lattice="12.0 0.0 0.0 0.0 12.0 0.0 0.0 0.0 12.0" Properties=species:S:1:pos:R:3:momenta:R:3:forces:R:3 energy=-440.104756556198 free_energy=-440.104756556198 stress="0.0012023557335532299 -0.00017249029924596966 -0.0002536026702821364 -0.00017249029924596966 0.0018173856987103998 0.0003823207260977309 -0.0002536026702821364 0.0003823207260977309 0.0029417366290975075" pbc="T T T"
B        6.09100393       5.59738362       5.17036064      -0.09637561       0.66202537       0.97153776       0.56298418      -0.38175849      -0.54306115
H        6.79769913       7.20429068       6.94931612      -0.06403011       0.11019374      -0.17434060       0.34180215       0.18237565       0.09234286
H        6.03745376       5.71776505       7.64707483      -0.01541040       0.20410073      -0.31993249       0.00655708       1.91802023      -1.56583560
H        5.06870388       6.97174158       6.80653671      -0.08955327      -0.21576904      -0.03339999       0.26395247       0.03032564       0.26802002
H        6.38104122       6.41798571       4.35292517      -0.02217177      -0.07156642       0.06186246      -0.54691596       0.17346680       0.79250344
H        4.99041843       5.11185814       5.01939563      -0.05449727       0.02670082       0.09501137       0.92437976       0.58862915       0.56982278
H        7.00958157       4.79570932       5.14105424      -0.00396003       0.03529586       0.04893715      -0.99517987       0.72085748       0.99654415
N        6.01728520       6.52090234       6.88244337      -0.04880126      -0.76903638      -0.50849194      -0.55757981      -3.23191646      -0.61033650
8
Lattice="12.0 0.0 0.0 0.0 12.0 0.0 0.0 0.0 12.0" Properties=species:S:1:pos:R:3:momenta:R:3:forces:R:3 energy=-440.23537858435884 free_energy=-440.23537858435884 stress="0.00043025458286570354 0.0002875016598447253 -0.00018507056264717632 0.0002875016598447253 -0.0009372704414321273 -0.0011756366692389831 -0.00018507056264717632 -0.0011756366692389831 -0.0037174996593661775" pbc="T T T"
B        6.05823799       5.61214096       5.37754141      -0.35536903      -0.03112137       0.26863454       0.77771574      -2.25440907      -4.60328093
H        6.68913569       7.11933751       6.70711630       0.00464766       0.04199115      -0.18681461      -0.62563132      -0.65287978       0.11538315
H        6.21578622       5.67272492       7.44699509      -0.14571755       0.14244998      -0.38331801       0.29543756      -0.88267146       1.20522641
H        5.02155394       6.72924475       6.91558686       0.00564302      -0.09842867       0.06868661       0.46871337      -0.17170882      -0.24535258
H        6.27026164       6.41371097       4.55300491       0.10968227      -0.09398430      -0.14320883      -0.19472416       0.12945069       0.01858755
H        5.07089323       5.03914533       5.17220613      -0.08888608      -0.26058872      -0.23596491      -0.26080491      -0.11708287       0.11103406
H        6.97844606       4.88066249       5.42066841       0.27858104      -0.02769695      -0.30850705      -0.16252116       0.04997653       0.18106858
N        5.97799754       6.30831758       6.67798108      -0.20149179       0.30940996       1.06100037      -0.29818513       3.89932479       3.21733376
8
Lattice="12.0 0.0 0.0 0.0 12.0 0.0 0.0 0.0 12.0" Properties=species:S:1:pos:R:3:momenta:R:3:forces:R:3 energy=-440.11958964932575 free_energy=-440.11958964932575 stress="-0.001501354342719539 0.0001915480258314536 -0.00032540612445232283 0.0001915480258314536 -0.000727096295059602 0.0019083652029027885 -0.00032540612445232283 0.0019083652029027885 0.0007531645154258802" pbc="T T T"
B        6.06334616       5.42934397       5.07045738      -0.24875427      -0.23110604      -0.42036192      -0.50241371       1.71877011       2.18043685
H        6.60698731       7.19383927       6.86283649      -0.21720363      -0.10619063       0.08361053      -0.22790577      -0.46500558      -0.31833629
H        6.16657265       5.78076320       7.62727962      -0.16335844      -0.07418985       0.22721186       0.66109630      -2.05835053       1.87280732
H        4.96848239       6.74015622       6.98321504       0.15098139      -0.10498987       0.02578591      -0.26885598      -0.04996831      -0.26194685
H        5.97980435       6.34736789       4.37272038      -0.03787007      -0.16236776      -0.14402311       0.28525727       0.34688091      -0.38575195
H        5.12599807       4.80616073       5.16133759       0.07277955      -0.10301429       0.01244619      -1.17450623      -0.86252628       0.00666083
H        7.03151761       4.87591047       5.25963586       0.14132776       0.03720797      -0.28350855       1.30987460      -0.48269894      -0.14549551
N        5.93781097       6.36985248       6.85466689      -0.08276906       0.72704940       0.63647071      -0.08254648       1.85289863      -2.94837439
8
Lattice="12.0 0.0 0.0 0.0 12.0 0.0 0.0 0.0 12.0" Properties=species:S:1:pos:R:3:momenta:R:3:forces:R:3 energy=-440.50489283727404 free_energy=-440.50489283727404 stress="-0.0014291767615415237 -0.0007253092203659053 0.00040008232341728466 -0.0007253092203659053 0.0002869819814851224 -0.00040318550073034724 0.00040008232341728466 -0.00040318550073034724 0.0005814249657581001" pbc="T T T"
B        5.97937926       5.63594413       5.21574144      -0.17961468       0.84952522       1.59814831      -0.85887828       0.80207641       0.61010666
H        6.53238285       7.22135984       6.82573051      -0.07332263      -0.13082894      -0.09966549       1.81772165       1.97554492       0.04823315
H        6.05731923       5.73149776       7.50735769      -0.08474978      -0.16166273       0.06905850      -0.36159680       0.95259976      -0.64976144
H        4.91476087       6.83373172       6.80267041       0.04378458       0.00755717       0.08060771      -1.89479043       0.67195960       0.27716381
H        5.62412430       6.52561971       4.49264231      -0.17394299      -0.04972196       0.29740600       0.62739046      -0.80783239       0.11452463
H        5.16800071       4.77864016       5.33482410       0.26008524       0.15558426       0.16755271       0.28081017       0.27759230      -0.08475884
H        7.08523913       5.24399177       5.23089026      -0.18344915       0.24766266       0.25137366      -0.02251045       0.22813210      -0.35753508
N        5.86036925       6.48416017       6.76544608       0.01139987      -0.93548545      -2.22865828       0.41185368      -4.10007270       0.04202712
8
Lattice="12.0 0.0 0.0 0.0 12.0 0.0 0.0 0.0 12.0" Properties=species:S:1:pos:R:3:momenta:R:3:forces:R:3 energy=-440.5565162834855 free_energy=-440.5565162834855 stress="7.563150152628484e-05 -0.00032465537994331615 0.00028667422411539806 -0.00032465537994331615 0.0007447796583264824 -0.0008970699404682885 0.00028667422411539806 -0.0008970699404682885 0.000697288360838083" pbc="T T T"
B        5.93472742       5.77155517       5.27491732       0.24426564      -1.14422758      -1.92174413      -0.13076860      -0.32303016      -0.84472712
H        6.54123890       7.27303595       6.73388930       0.15590277       0.31296509       0.05288641       1.10599530       1.31317756       0.21744575
H        5.99779844       5.85282258       7.53823300      -0.13781106       0.10269982       0.00005257      -0.30434313       0.81913203      -0.52986101
H        4.87150412       7.00344242       6.84815833      -0.26237148       0.06502204       0.09470787      -1.00097760       0.41494903       0.30442708
H        5.44349766       6.54134160       4.46176700      -0.32796935       0.08762357      -0.07345831       0.53087516      -0.87676883       0.94399649
H        5.32888080       4.72696405       5.41869965       0.04595533      -0.16521261      -0.10400876       0.56344263       1.09680300      -0.16797954
H        7.12849588       5.63727912       5.14694159       0.08534227      -0.08346709      -0.02428761      -1.01464609       0.04838762       0.07686854
N        5.80229687       6.57764361       6.77411478      -0.17425123       0.80763273       2.10850223       0.25042232      -2.49265024      -0.00017019
8
Lattice="12.0 0.0 0.0 0.0 12.0 0.0 0.0 0.0 12.0" Properties=species:S:1:pos:R:3:momenta:R:3:forces:R:3 energy=-440.11685780843766 free_energy=-440.11685780843766 stress="9.278903864673572e-05 0.0006861128535653251 -0.0006049436018226888 0.0006861128535653251 9.212813810842584e-05 0.0020268358802081206 -0.0006049436018226888 0.0020268358802081206 0.0012306968593738556" pbc="T T T"
B        6.02567084       5.59538231       5.08942873      -0.07487419       0.37800710       0.62345801       0.26588253       0.56723601       1.83463098
H        6.53385636       7.40947929       6.92740582       0.11234146       0.20462613      -0.15517007      -0.97193844      -1.31743201      -0.36100474
H        6.07541107       5.90876066       7.62161295      -0.02223061      -0.09599563      -0.08944204       0.43869238      -1.56179021       1.44636063
H        4.84771498       6.87236822       6.90609962      -0.21928376      -0.09786267      -0.01966226       1.03335814      -0.36205495      -0.03264505
H        5.47815828       6.28822382       4.37838705      -0.18518581       0.09072469      -0.15983869      -1.00117048       0.85316478      -0.43872889
H        5.51955330       4.59052071       5.36222191      -0.02831653      -0.12478259       0.13691884      -0.15399077      -0.34626746       0.11253920
H        7.15228502       5.60245179       4.84867099       0.11800584       0.01746005       0.01272325       0.75166179      -0.18550694       0.42052926
N        5.87093350       6.54952941       6.86952528      -0.06103780      -0.38866749      -0.22004007      -0.36249516       2.35265078      -2.98168140
8
Lattice="12.0 0.0 0.0 0.0 12.0 0.0 0.0 0.0 12.0" Properties=species:S:1:pos:R:3:momenta:R:3:forces:R:3 energy=-440.303309360166 free_energy=-440.303309360166 stress="0.0001819512734817458 0.0004542013540164088 -5.332161290791544e-05 0.0004542013540164088 -0.0006498807863516643 -0.0010979054773528724 -5.332161290791544e-05 -0.0010979054773528724 -0.003184542540953634" pbc="T T T"
B        6.00450210       5.70562081       5.32864554      -0.30381939       0.41204131       1.05092096       0.85319597      -1.52363796      -2.69855437
H        6.43470541       7.35471313       6.65524349      -0.19045828      -0.06004230      -0.11841350      -0.77552243      -1.05627039      -0.14526453
H        6.29493529       5.84155873       7.42638123       0.14726487      -0.14277567       0.27335330      -0.31003512       0.14596131      -0.14601712
H        4.86533020       6.68370365       6.93610745       0.05641154      -0.14050208       0.10549059       0.82281009      -0.38614979      -0.30505380
H        5.43856561       6.32375162       4.57361877       0.27735099      -0.08762270       0.14560185      -0.80303375       0.59338549      -0.99896615
H        5.58539564       4.64528687       5.45906761       0.05571524       0.15151647      -0.01304159      -0.21358553      -0.60597254       0.03649805
H        7.13466980       5.73536213       5.08456677      -0.25751150       0.12687670      -0.00678890       0.44276594      -0.28049735      -0.10651667
N        5.87156047       6.41927841       6.63648790      -0.14137224      -0.27579177      -1.30966435      -0.01659517       3.11318124       4.36387458
8
Lattice="12.0 0.0 0.0 0.0 12.0 0.0 0.0 0.0 12.0" Properties=species:S:1:pos:R:3:momenta:R:3:forces:R:3 energy=-440.26562757818874 free_energy=-440.26562757818874 stress="0.002195333797862799 -0.0007629162572380456 0.0007622504880779833 -0.0007629162572380456 0.0011496968858327866 6.0514689995342916e-05 0.0007622504880779833 6.0514689995342916e-05 0.0025548064226007493" pbc="T T T"
B        6.00517144       5.57852001       5.11396989      -0.06687066      -0.69715724      -1.02244356      -0.09966631       0.18034021       1.07722812
H        6.11925028       7.48164685       6.68140888      -0.23261557      -0.00714453       0.18537013       0.11605430       0.39591722      -0.07178348
H        6.47489080       5.99368221       7.58328700       0.01957324       0.04776115       0.17743399      -1.83583560       1.16810069      -1.90279437
H        4.78937249       6.43061553       7.03594153       0.08625460      -0.11176684       0.21279305       0.36250579      -0.04084545       0.16604056
H        5.31441593       6.27956248       4.41671300       0.20622095      -0.12719077      -0.04396241       0.77491210      -0.40196484       0.47647173
H        5.49522729       4.51835315       5.37098856      -0.02582915      -0.01560659      -0.09945388       0.40103310       0.73248794      -0.10244923
H        7.21062751       5.53873983       4.95616570      -0.05502329      -0.00737873      -0.23222403      -1.23139454       0.28391260       0.09321261
N        5.82033622       6.49340491       6.82012779      -0.28147171       0.90248793       0.94756442       1.51239115      -2.31794837       0.26407407
8
Lattice="12.0 0.0 0.0 0.0 12.0 0.0 0.0 0.0 12.0" Properties=species:S:1:pos:R:3:momenta:R:3:forces:R:3 energy=-440.47325370690044 free_energy=-440.47325370690044 stress="0.0013771175944837268 -0.0005256171203538468 0.0006205909574283134 -0.0005256171203538468 0.0006397000924942996 0.000286788864833695 0.0006205909574283134 0.000286788864833695 0.001331291137863771" pbc="T T T"
B        5.98646168       5.56782853       5.23527178      -0.32611061       1.05441900       1.56719866      -0.52036856       0.59975992       1.29631012
H        5.91044268       7.47981892       6.71496284      -0.04400867       0.02007110      -0.26003454      -0.06997541      -0.10054381       0.02259093
H        6.61813772       6.07702763       7.48008786      -0.26742017       0.09402620      -0.37407607      -1.34563653       0.39917522      -0.58097058
H        4.83603747       6.20478280       7.23800924       0.07273223      -0.13962067       0.00936650       0.39497662       0.06769467       0.12275381
H        5.30240530       6.24228295       4.51991214      -0.12829910       0.06026907       0.02599923       0.75894233      -0.33370071       0.28591248
H        5.51740728       4.52018108       5.48992212      -0.08151512      -0.12471389       0.12482548       0.00033325       0.05915294      -0.04962573
H        7.16396253       5.53457858       5.17253226       0.21155645       0.07177641       0.17978997      -0.30290051       0.28941306      -0.43706091
N        5.79782537       6.44746518       6.88068342       0.21639337      -1.05208151      -1.14909653       1.08462881      -0.98095130      -0.65991011
8
Lattice="12.0 0.0 0.0 0.0 12.0 0.0 0.0 0.0 12.0" Properties=species:S:1:pos:R:3:momenta:R:3:forces:R:3 energy=-440.4753927826032 free_energy=-440.4753927826032 stress="-0.0013620564419177582 4.458160584478308e-05 -0.00039652382499728476 4.458160584478308e-05 -0.0004010700494438328 -0.0004448726141707649 -0.00039652382499728476 -0.0004448726141707649 -0.002195902253992149" pbc="T T T"
B        5.99065125       5.61602925       5.32879757       0.15926625      -0.79113090      -1.82228409      -0.65161075       0.72194698      -0.56511963
H        5.81756021       7.43871591       6.56371668      -0.04640560       0.01594745      -0.01538362      -0.04411631      -1.18098323       0.12284814
H        6.59622391       6.18739766       7.34923692      -0.25256534       0.02699275      -0.05780647       1.68100103      -0.72334322       1.55364452
H        4.90191367       6.11642455       7.19270202       0.03170879      -0.08637857      -0.06213137       0.53793094       0.07102120      -0.13740979
H        5.29242108       6.25571275       4.65076308      -0.31019522      -0.07981649       0.01077175       0.01691740      -0.22835527      -0.53307520
H        5.64003142       4.56128409       5.51955071       0.04382127      -0.10387611      -0.00750043      -0.41749919      -1.32312559       0.01884472
H        7.09808633       5.70109542       5.12672610       0.14340355      -0.06267753       0.01303987       1.25387362       0.03785499      -0.64881456
N        5.82631698       6.36676248       6.72364792      -0.11349541       1.06518618       2.06447678      -2.37649674       2.62498413       0.18908179
8
Lattice="12.0 0.0 0.0 0.0 12.0 0.0 0.0 0.0 12.0" Properties=species:S:1:pos:R:3:momenta:R:3:forces:R:3 energy=-440.2407539468768 free_energy=-440.2407539468768 stress="-0.001078280558343918 -9.130938690618175e-05 -0.00045141459516157337 -9.130938690618175e-05 0.0002429727953812322 0.0012639456620812237 -0.00045141459516157337 0.0012639456620812237 0.0018898390771326112" pbc="T T T"
B        6.03869715       5.55241602       5.14373900       0.05355510      -0.21713767      -0.23112101      -0.47822417       0.96525577       1.04596725
H        5.83578301       7.54976572       6.80305455       0.02283617      -0.26727873       0.09900118       0.01599940       0.19762122      -0.47159409
H        6.57865941       6.24696935       7.54387800       0.12611381      -0.13374388       0.16509459       0.93584114      -0.66066460       0.60534737
H        4.89930324       6.22628199       7.28584228       0.15342947       0.11241392       0.05641263      -0.43252429      -0.33950899       0.09392664
H        5.22257429       6.04932233       4.45612200      -0.14917252      -0.07861957       0.21356443      -0.26124943      -0.08287475       0.44754762
H        5.86867032       4.45023428       5.49733319       0.19385713       0.23502833       0.00182235      -0.02459826      -0.01649253       0.03132976
H        7.10069676       5.84818002       4.78285034      -0.16851950       0.04934830       0.21092937       0.55074115       0.06546049       0.35719293
N        5.82267391       6.50960709       6.90305831      -0.57262756       0.28441599      -0.39392788      -0.30598554      -0.12879661      -2.10971749
8
Lattice="12.0 0.0 0.0 0.0 12.0 0.0 0.0 0.0 12.0" Properties=species:S:1:pos:R:3:momenta:R:3:forces:R:3 energy=-440.34891713155486 free_energy=-440.34891713155486 stress="0.0001834565161705286 -0.0003862930837491715 0.000893400884573156 -0.0003862930837491715 -0.0009059460615371946 -0.0010558319674405642 0.000893400884573156 -0.0010558319674405642 -0.0009040551732440486" pbc="T T T"
B        6.06877976       5.73896723       5.36072441      -0.26518185       0.81487530       1.59901497       0.64946429      -1.83572026      -3.52232269
H        6.01065419       7.45681156       6.54278224      -0.00847392      -0.02013437      -0.06368374       0.21133890       2.76642663      -0.26067005
H        6.69062335       6.14518149       7.37458248      -0.05340933      -0.01054882       0.13973814      -1.32969885       0.49622055      -0.48375692
H        4.96250054       6.31376467       7.13044146      -0.00453024      -0.00050035      -0.00175496      -1.35835310      -0.35845355       0.90154972
H        5.16122669       5.98552129       4.62541752      -0.03059277      -0.00543819       0.03420594       0.10305986      -0.13105567       0.84525830
H        6.17112915       4.54318844       5.57230601       0.11224005       0.14391873       0.10699766      -0.09973675       1.33135109      -0.05081774
H        7.03749946       6.21434517       4.81966242      -0.22782111       0.08718526       0.01334284      -0.46732422      -0.47839213       0.85578597
N        5.88366887       6.48217309       6.72772747       0.13664743      -1.02495804      -1.70587284       2.29124988      -1.79037665       1.71497342
8
Lattice="12.0 0.0 0.0 0.0 12.0 0.0 0.0 0.0 12.0" Properties=species:S:1:pos:R:3:momenta:R:3:forces:R:3 energy=-440.5228751991781 free_energy=-440.5228751991781 stress="-0.00020376990830432208 -9.321756206078764e-05 -0.00024145083738983693 -9.321756206078764e-05 0.000499010055362001 0.000739177472590366 -0.00024145083738983693 0.000739177472590366 0.001113296696621978" pbc="T T T"
B        6.15447092       5.61409671       5.15912328       0.17898448      -0.62683906      -0.80182635       0.51094957       0.17007223       0.63270513
H        5.99339373       7.51756761       6.61411066      -0.04188991       0.39637143       0.01634751      -0.00450729       0.53993351      -0.10617854
H        6.69681171       6.14507543       7.40905643      -0.14678832       0.02430874      -0.07303687      -0.35617770       0.10982725      -0.01386322
H        4.97492281       6.19259150       7.03820543      -0.18463672      -0.15128174       0.16621650      -0.33826285      -0.09626453       0.45727370
H        5.11794116       5.73534281       4.66788383      -0.11430056      -0.07000666      -0.36925480      -0.52214204       0.23738192      -0.14113988
H        6.37884910       4.48243239       5.43809267       0.08932989      -0.29704450      -0.09015457       0.04040461       0.55339170       0.21665425
H        7.02507719       6.18375442       4.59094357      -0.01623683       0.03998004      -0.40293685      -0.23325472      -0.12921149       0.47412152
N        5.93115970       6.49602523       6.77651119      -0.10344438       0.66900912       1.67586839       0.90299043      -1.38513059      -1.51957296
8
Lattice="12.0 0.0 0.0 0.0 12.0 0.0 0.0 0.0 12.0" Properties=species:S:1:pos:R:3:momenta:R:3:forces:R:3 energy=-440.2734494638978 free_energy=-440.2734494638978 stress="-0.0014496984616010132 0.00034714794541284796 -0.001250068741883727 0.00034714794541284796 0.0005538281587289546 0.0010410660424645458 -0.001250068741883727 0.0010410660424645458 0.000636775674389989" pbc="T T T"
B        6.14098500       5.51928462       5.08431832      -0.31878358       0.71175505       1.43815907       0.52967851       1.02203520       2.95585763
H        5.87203391       7.48874930       6.58467146      -0.06357695       0.04618732      -0.27036281      -0.03920228      -1.92065987       0.09276569
H        6.72358215       6.21678849       7.32456776       0.16041718      -0.04852785      -0.10141523       1.61559752      -0.63262507       1.10986092
H        5.00196199       6.10942599       7.25268943      -0.04664238      -0.17492901       0.02490213       1.00958112       0.10641625      -0.61879588
H        5.10051403       5.56740252       4.67543224       0.17583297      -0.01037424       0.04884781      -1.50411221       0.25736242      -0.99317644
H        6.46065231       4.51125070       5.49737059      -0.04540581      -0.04879888      -0.05228865       0.32798252      -1.20881634       0.15001781
H        6.99803801       6.16402876       4.69661231      -0.10413104       0.08854271       0.03750802       0.53738458       0.53026501      -0.80059620
N        5.90971634       6.40297793       6.75240055      -0.09568162      -0.57931149      -1.00448897      -2.47690975       1.84602240      -1.89593353
8
Lattice="12.0 0.0 0.0 0.0 12.0 0.0 0.0 0.0 12.0" Properties=species:S:1:pos:R:3:momenta:R:3:forces:R:3 energy=-440.39752640619304 free_energy=-440.39752640619304 stress="0.0016911544971134696 0.0002412945416462138 0.000501795004106496 0.0002412945416462138 0.0002801511288207421 -0.001412432463708417 0.000501795004106496 -0.001412432463708417 -0.00197847351418804" pbc="T T T"
B        6.11734550       5.66630360       5.26579703      -0.02289277      -0.57267378      -1.62316115       0.09566388      -0.79281216      -1.95500209
H        5.62405075       7.42218518       6.47617534      -0.12029862      -0.14995625       0.12709876       0.24860593      -0.94615945      -0.06279306
H        6.78796553       6.45298137       7.24263298       0.24416182       0.14479815       0.27720485      -0.48431699      -0.35885243      -0.44610582
H        5.12686264       5.95467614       7.18859653       0.10807171      -0.10124749       0.05966372       0.70828865       0.16085988      -0.33356999
H        5.00524954       5.76328039       4.79623660       0.18233050      -0.10092197       0.21998097       1.20382878      -0.35878418      -0.16209131
H        6.46007051       4.57781482       5.57345513      -0.12863541       0.13654998       0.10785917      -0.23663185       0.14238923      -0.46864079
H        6.99475046       6.29236874       4.75736702      -0.01149522      -0.09271034       0.12374888      -0.60874195      -0.47722012      -0.26173318
N        5.92240845       6.38922810       6.60811515      -0.58958507       0.72068831       0.82859914      -0.92669645       2.63057924       3.68993624
8
Lattice="12.0 0.0 0.0 0.0 12.0 0.0 0.0 0.0 12.0" Properties=species:S:1:pos:R:3:momenta:R:3:forces:R:3 energy=-440.1648874296985 free_energy=-440.1648874296985 stress="0.002674718987297713 0.00023377432391430203 0.000468012404183192 0.00023377432391430203 0.0006414294707319674 0.000970085184337381 0.000468012404183192 0.000970085184337381 0.0024610972680263543" pbc="T T T"
B        6.10376860       5.62574052       5.15623879      -0.10201404      -0.26548562      -0.39674092      -0.66978525       0.85125319      -0.31732716
H        5.35193378       7.46757430       6.73418104      -0.04674477      -0.06792311       0.10564910      -0.38204315       0.78401090      -0.31624212
H        6.86325264       6.71870205       7.27121998      -0.04908910       0.10657720      -0.01563094      -2.62162918      -0.49612235      -0.81614624
H        5.24723963       5.90163048       7.43711962       0.12825990       0.09446525       0.16549201       0.25512475       0.10678925       0.07937175
H        5.02753212       5.73258228       4.56288038      -0.26274913       0.05017197       0.08543802       1.19446947      -0.18760720       1.15204914
H        6.44182437       4.53242570       5.48766728       0.07687320      -0.09391171       0.09398307      -0.34974129       0.52807509       0.15154459
H        6.97246788       6.23572856       4.59195507       0.23373001       0.18953197       0.14950865      -0.52211844      -0.13874093       0.74350116
N        5.83171167       6.56353140       6.86406068      -0.31445187      -0.02880069      -0.06747611       3.09572310      -1.44765794      -0.67675113
8
Lattice="12.0 0.0 0.0 0.0 12.0 0.0 0.0 0.0 12.0" Properties=species:S:1:pos:R:3:momenta:R:3:forces:R:3 energy=-440.46953010424033 free_energy=-440.46953010424033 stress="-0.0006521695939411095 0.00011030212245434484 0.00024352239115576365 0.00011030212245434484 -0.0010922037261313967 -0.0002085250127932597 0.00024352239115576365 -0.0002085250127932597 -0.0006548321807868806" pbc="T T T"
B        6.10604078       5.74548049       5.26042106      -0.34580365       0.88508300       1.98731797      -0.34186985      -0.69693411      -1.41899328
H        5.26570376       7.31738313       6.41702398      -0.13393384      -0.01475993      -0.12818443       0.11946922      -0.02223809       0.44047847
H        6.84090883       6.84996325       6.98060083      -0.39166904      -0.13378961      -0.13695001      -0.75725687      -0.32250322       0.27798128
H        5.39941034       5.87890293       7.37367132       0.04985138      -0.08553476      -0.11589208       0.26117468       0.16283178       0.08690738
H        5.14951839       5.76615216       4.62632868      -0.09565318       0.01796682      -0.08003409      -1.02046517      -0.01352211       0.28232669
H        6.45744471       4.68261687       5.44058900       0.11257790       0.07607485      -0.04961564       0.35921719      -0.96132178       0.51336510
H        6.85048161       6.32311429       4.63853702      -0.07632257      -0.07541767      -0.11190891       1.21328690       0.91096409      -0.14934420
N        5.88273970       6.49764161       6.66894679       0.54360900      -0.68505040      -1.24409574       0.16644390       0.94272343      -0.03272144
8
Lattice="12.0 0.0 0.0 0.0 12.0 0.0 0.0 0.0 12.0" Properties=species:S:1:pos:R:3:momenta:R:3:forces:R:3 energy=-440.54723417467955 free_energy=-440.54723417467955 stress="-0.0013558303708113893 -0.0007374935187387991 -0.0007417226710609412 -0.0007374935187387991 0.0007892649219006109 0.0002856267078184323 -0.0007417226710609412 0.0002856267078184323 0.0005954108425099647" pbc="T T T"
B        6.19448624       5.65893466       5.22338526       0.13100443      -0.46842471      -0.59837132      -0.05282063       0.34539285       1.15407115
H        5.26266240       7.35167184       6.69261380       0.00721162       0.01162236       0.00418229       0.79237420      -0.98904389      -0.05968233
H        6.81778917       6.82158249       7.14736051      -0.12388750      -0.15519089      -0.07634156       2.40287952       0.66716623       1.02672115
H        5.48540748       5.77305417       7.39429152       0.01091114       0.04751102       0.00980854       0.25033627       0.31507759      -0.00359568
H        5.13056913       5.51422835       4.80164493       0.19249599      -0.20608061      -0.40097579      -0.56798321       0.08667221      -0.13319363
H        6.65687341       4.64832816       5.58648215       0.11590173       0.12227716      -0.33425130       0.28233003       0.05949979      -0.04485522
H        6.86943087       6.37553128       4.60570848      -0.27165589      -0.31059908      -0.34179426       0.23898245       0.10685767      -0.04145367
N        5.93601162       6.51284959       6.79042214      -0.39942344       0.94345256       1.85841548      -3.34609864      -0.59162245      -1.89801178
8
Lattice="12.0 0.0 0.0 0.0 12.0 0.0 0.0 0.0 12.0" Properties=species:S:1:pos:R:3:momenta:R:3:forces:R:3 energy=-440.2935163337032 free_energy=-440.2935163337032 stress="-0.000269245604483577 -0.00019229463469756217 -0.00031586027211113116 -0.00019229463469756217 0.0007398576109471131 0.00031033942963404836 -0.00031586027211113116 0.00031033942963404836 0.0004829818856639973" pbc="T T T"
B        6.19420857       5.56287864       5.06520838      -0.13029762       0.59046781       1.23009412       0.57536165       0.92360504       2.95596604
H        5.36632603       7.30720241       6.54338675       0.14628154      -0.25956910      -0.11033702      -0.36294115       0.36552868      -0.46994829
H        6.82754560       6.73427607       7.07729397       0.24760494       0.01818916       0.08227979       0.85479464      -0.04019511       0.22609118
H        5.39391984       5.88923739       7.41926615       0.00570578       0.07873979      -0.14046971      -0.16536661      -0.72731068       0.22719440
H        5.07407358       5.25961794       4.91922878       0.08451347      -0.03159676       0.07370775       0.02236261      -0.07998648      -0.82557417
H        6.92592642       4.69279759       5.49036092      -0.00479630       0.06375892      -0.07406433      -0.49688568       0.66217006      -0.91525744
H        6.68002521       6.54643672       4.58073385      -0.28246173       0.02143449       0.03451676      -0.31373975      -1.05120712      -0.51856727
N        5.91143639       6.43386188       6.70116541      -0.40326561      -0.49682327      -0.97531503      -0.11358571      -0.05260438      -0.67990445
8
Lattice="12.0 0.0 0.0 0.0 12.0 0.0 0.0 0.0 12.0" Properties=species:S:1:pos:R:3:momenta:R:3:forces:R:3 energy=-440.32235876653306 free_energy=-440.32235876653306 stress="0.0009189858270149949 0.0009538884384959957 0.0008664043636498347 0.0009538884384959957 -0.0009122530891886083 -0.0008759130233068413 0.0008664043636498347 -0.0008759130233068413 -0.0017469172378550167" pbc="T T T"
B        6.06442613       5.56987336       5.36796251       0.04861007      -0.62077657      -1.37618044       1.21547614      -0.49009605      -0.81524978
H        5.29902175       7.15778030       6.63764213      -0.05957819       0.06867167       0.25009163      -1.34752763       2.10482393      -0.49475481
H        6.74635341       6.60237830       7.26101153       0.06734592       0.02707199       0.12333304      -1.06084196      -0.55390510      -0.72170244
H        5.28619613       5.70219183       7.35651357       0.00231028      -0.00974162       0.08380724      -0.52371059      -0.94872681       1.02705106
H        5.00963404       5.02619203       5.24077540      -0.06170636      -0.11546144       0.29636388       0.70254987       0.18959682      -0.67421247
H        6.99036596       4.84221970       5.66877904       0.14324309      -0.07659733       0.28671898      -0.93187535       0.35367580      -0.86321452
H        6.38083639       6.49079341       4.64348643      -0.02990863       0.28861171       0.02414068      -0.45742172      -1.23642254       0.16569046
N        5.83353029       6.31099682       6.74176105      -0.44704542       0.42282201       0.43214220       2.40335124       0.58105393       2.37639250
8
Lattice="12.0 0.0 0.0 0.0 12.0 0.0 0.0 0.0 12.0" Properties=species:S:1:pos:R:3:momenta:R:3:forces:R:3 energy=-440.34276667562665 free_energy=-440.34276667562665 stress="-0.0009160381693009896 8.119398241924774e-05 -0.0005703125619683674 8.119398241924774e-05 -0.0006740743140668497 0.001562631620191887 -0.0005703125619683674 0.001562631620191887 0.0013994752406283374" pbc="T T T"
B        6.00477837       5.43979321       5.23831391      -0.32673711      -0.26913380      -0.49868883      -0.61556551       1.05926442       0.96340443
H        5.08645586       7.16408986       6.71979803      -0.27391181       0.18574994      -0.11964830      -0.18923943       0.10686574      -0.12574659
H        6.66644878       6.64529341       7.18562640      -0.22764989       0.07143456      -0.02049648      -0.35730690      -0.19394523       0.08444425
H        5.25547944       5.65507486       7.54523877      -0.04696613      -0.04643686       0.25373082       0.08327922      -0.13143642       0.16997435
H        5.06235093       4.84707544       4.99083203      -0.13290159      -0.06599029       0.25131347      -0.92481330      -0.44631591       0.32095159
H        6.93764907       4.83591014       5.39694489       0.18441987      -0.00808543       0.21893385       1.16290797      -0.97144941       0.79763619
H        6.21270951       6.23735442       4.45476123       0.08632570       0.40635717       0.10176894       0.01362627       1.26741582      -0.33561697
N        5.70095729       6.33694669       6.89087637       0.40227568      -0.28922244      -0.06706269       0.82711170      -0.69039901      -1.87504726
8
Lattice="12.0 0.0 0.0 0.0 12.0 0.0 0.0 0.0 12.0" Properties=species:S:1:pos:R:3:momenta:R:3:forces:R:3 energy=-440.41265186510304 free_energy=-440.41265186510304 stress="-7.610462402051289e-05 -0.0006174119107347485 8.394556855520378e-05 -0.0006174119107347485 -0.00010524641820133328 -0.0009052531470567885 8.394556855520378e-05 -0.0009052531470567885 -0.0006833811330386712" pbc="T T T"
B        6.08539074       5.62804841       5.36829494      -0.31888073       0.46017229       1.07827455      -0.58840276      -1.27094600      -2.92671178
H        4.99293144       7.06715992       6.54789091      -0.19379344      -0.05414407       0.01400733       1.41884789      -1.14423870       0.62314202
H        6.64515576       6.90781057       7.01366904       0.00831830       0.04275442      -0.08594242       1.50570763       0.88727108       0.84982550
H        5.51894601       5.65662156       7.48614148       0.11430983      -0.18697805      -0.02692421       0.48100391       0.89480157      -0.45328531
H        5.10925007       5.03350934       5.05255258       0.28623325       0.19855672       0.06318670       0.21958559       0.06652133       0.72214422
H        7.00706856       4.93284008       5.39899808      -0.30102241       0.28228547      -0.15339232       0.37158798      -0.18356385       0.60302377
H        6.22029795       6.40493317       4.51385852       0.07965593      -0.39072492       0.15027061       0.26021215       0.64836300       0.26113594
N        5.82699941       6.37192848       6.74066881      -0.00977945      -0.36724048      -0.91969617      -3.66854239       0.10179157       0.32072565
8
Lattice="12.0 0.0 0.0 0.0 12.0 0.0 0.0 0.0 12.0" Properties=species:S:1:pos:R:3:momenta:R:3:forces:R:3 energy=-440.4334833633023 free_energy=-440.4334833633023 stress="0.0021165441416662076 -1.5644719339133877e-05 0.00027302328377936595 -1.5644719339133877e-05 0.0021391670364137305 -0.0004725265496469032 0.00027302328377936595 -0.0004725265496469032 0.001543268817199903" pbc="T T T"
B        6.15338868       5.57358228       5.22379591       0.03801668      -0.30354834      -0.19319360      -0.77043150      -0.13854858       0.55898770
H        4.90429849       6.95100021       6.81398601       0.06143470      -0.16254119       0.01042465       1.13078266      -0.71870747      -0.15976220
H        6.63319699       7.10849123       6.93358316       0.20511612       0.25949889      -0.04166326      -0.08421844      -0.29595351       0.16559888
H        5.83903570       5.64960346       7.54092367       0.11022918       0.06250974       0.03389954       0.13443894       0.80458773      -0.53599716
H        5.10008822       4.93631793       5.01604930      -0.07198263      -0.12832714      -0.39751016       1.60878695       0.95259382       0.34494136
H        7.09570151       4.89150877       5.59850206       0.14124763      -0.09863999      -0.34465140      -0.86398344       0.71864400      -0.84457625
H        6.34398651       6.50723428       4.45907633       0.05232288      -0.16623517      -0.32403120      -0.01405046      -1.11616040       0.77326382
N        5.84752661       6.41684643       6.79236346      -0.86978556       0.52203581       1.37595244      -1.14132473      -0.20645559      -0.30245615
8
Lattice="12.0 0.0 0.0 0.0 12.0 0.0 0.0 0.0 12.0" Properties=species:S:1:pos:R:3:momenta:R:3:forces:R:3 energy=-440.2732472065025 free_energy=-440.2732472065025 stress="-0.0011314688362854186 0.0006581688897705616 -0.00024851766590610746 0.0006581688897705616 0.0005321937363919284 0.0004764261960798126 -0.00024851766590610746 0.0004764261960798126 -7.451117898227325e-05" pbc="T T T"
B        6.19022223       5.46105405       5.07688282      -0.06066774       0.61148167       0.97426497      -0.32080170       0.88541768       2.98192759
H        4.91501081       6.64747475       6.62631863       0.08631154      -0.17947687      -0.10915225      -1.10667827       0.30311840      -0.25760589
H        6.52774900       7.18507870       6.73851291      -0.05429619       0.00663849      -0.02811564      -1.12916504      -2.14796465      -0.13905574
H        5.96314270       5.68106914       7.49622865       0.04349884       0.04357017      -0.11056615       0.30701144      -0.17704057      -0.12343756
H        5.19533095       4.91567809       5.06437631      -0.29764424      -0.06495659       0.14573845      -0.92568161      -0.76448177      -0.85490868
H        7.08498919       4.81492130       5.40437819       0.06001487       0.00794734       0.22679362       0.75954950      -0.29744404      -0.55452092
H        6.29660370       6.43927602       4.50377135      -0.14772792       0.19784406       0.00006734       0.35271857       0.29916828      -1.34549484
N        5.87838919       6.28300311       6.63742610       0.03899573      -0.63820942      -0.98047772       2.06304711       1.89922667       0.29309603
8
Lattice="12.0 0.0 0.0 0.0 12.0 0.0 0.0 0.0 12.0" Properties=species:S:1:pos:R:3:momenta:R:3:forces:R:3 energy=-440.6378321965909 free_energy=-440.6378321965909 stress="-0.000451691298343599 0.00019057006681386863 -2.653151239704598e-05 0.00019057006681386863 0.0003821843937060279 -0.000356980480085813 -2.653151239704598e-05 -0.000356980480085813 -0.0008169874954993032" pbc="T T T"
B        6.12054956       5.55734640       5.29796722       0.43089220      -0.91120760      -2.05332902       0.99486359       0.41665506      -0.04047940
H        4.85008320       6.66455843       6.85051909      -0.10032465       0.16491649       0.24183445      -0.62428490       0.08535809      -0.24738814
H        6.46526699       7.18542948       6.84022500      -0.20122109      -0.29125636       0.05802044      -0.49540864      -1.09047192      -0.07534465
H        6.01075895       5.62810723       7.48294739       0.00500886       0.09794271       0.08174621       0.17874979      -0.02080446       0.27096501
H        5.25660014       4.81457052       5.21050142       0.07765276       0.00765398       0.35616472      -0.68361372      -0.50236668      -0.38714396
H        7.14991680       5.02201830       5.50913913      -0.05986426       0.10756911       0.32035095      -0.13967513       0.12430080      -0.27352865
H        6.17967114       6.43271003       4.51705261      -0.22340153       0.18336972       0.30233579      -0.12074296      -0.33593434      -0.12482125
N        5.82631522       6.32014797       6.71798737      -0.25927868       0.62589558       0.81107907       0.89011196       1.32326345       0.87774104
8
Lattice="12.0 0.0 0.0 0.0 12.0 0.0 0.0 0.0 12.0" Properties=species:S:1:pos:R:3:momenta:R:3:forces:R:3 energy=-440.1784678069871 free_energy=-440.1784678069871 stress="2.8341431985705052e-05 -0.0011835383312136284 -0.0005523193869769961 -0.0011835383312136284 -0.0003531980300551712 0.0009703149101857718 -0.0005523193869769961 0.0009703149101857718 0.0025498599093110364" pbc="T T T"
B        6.10189508       5.64363014       5.25655735      -0.25121926       0.02286875      -0.05617054       0.68363052       0.14091886      -1.12446597
H        4.75924049       6.86711309       6.79676397      -0.00524107      -0.01553832      -0.10073364       1.05352803      -0.40873387       0.19756517
H        6.41614076       7.26752720       6.90468174      -0.16020026      -0.12647743       0.12318065       1.91195858       2.03948899       0.28397093
H        5.86803907       5.81026120       7.66388252      -0.10007023       0.09085735       0.04924792       0.11005800       0.21360476      -0.13200637
H        5.38209890       4.73247280       5.08002108       0.15156648       0.01064307       0.30873990      -0.25414003       0.16325811       0.94512115
H        7.24075951       5.31547808       5.19470577       0.01538924       0.07722329       0.06716155      -0.32336684       0.14687234       1.02472628
H        5.97358466       6.38916086       4.33611748      -0.17647717       0.14436332       0.16664992      -0.40235348       0.45243752       1.05528790
N        5.76937460       6.50883999       6.88269261       0.19792240      -0.21895549      -0.44066224      -2.77931478      -2.74784670      -2.25019910
8
Lattice="12.0 0.0 0.0 0.0 12.0 0.0 0.0 0.0 12.0" Properties=species:S:1:pos:R:3:momenta:R:3:forces:R:3 energy=-440.31078234307233 free_energy=-440.31078234307233 stress="-9.012292137711765e-06 0.000145493561429016 0.00030283379464391254 0.000145493561429016 -0.0005843518220275834 -0.000977191262290033 0.00030283379464391254 -0.000977191262290033 -0.0015476467196326338" pbc="T T T"
B        6.05825572       5.77471107       5.43702223      -0.49190545       0.35074158       0.95330014       0.17808453      -2.22326694      -4.95471804
H        4.78496554       6.87122573       6.71958958       0.15581773      -0.08772656       0.04763103       0.06997154       0.04703698       0.26849198
H        6.42519127       7.25312265       6.92132899       0.27147837       0.13461940      -0.02106197       1.00240920       1.12303401       0.51825477
H        5.81987051       5.75623654       7.51072589       0.07365439      -0.03297039      -0.14190054       0.11460211       0.13618968       0.60966173
H        5.42611168       4.74687735       5.37130248       0.21763955      -0.03431317      -0.17064165       0.62414171       0.77550737       0.64959128
H        7.21503446       5.60111024       5.25438523      -0.00251036       0.05877545      -0.24797210      -0.28844466      -0.01563533       0.77022979
H        5.68639377       6.40622560       4.48927411       0.11585770      -0.24142477      -0.21745617       0.03936175       0.21161626       1.03762546
N        5.76688695       6.48811433       6.76619640      -0.66735139      -0.16267080      -0.08484654      -1.74012619      -0.05448204       1.10086303
8
Lattice="12.0 0.0 0.0 0.0 12.0 0.0 0.0 0.0 12.0" Properties=species:S:1:pos:R:3:momenta:R:3:forces:R:3 energy=-440.4170204026579 free_energy=-440.4170204026579 stress="-0.0011634632228794872 0.0009676830899120208 -0.0004878997942707142 0.0009676830899120208 0.000417902030045355 0.0009888303293401387 -0.0004878997942707142 0.0009888303293401387 0.0005975417206644983" pbc="T T T"
B        6.08933180       5.66990219       5.15582611       0.03674139      -0.16647974       0.24492990      -1.49567979       0.36214860       2.07406517
H        4.76948647       6.89630538       6.84655073      -0.04682600      -0.14592461      -0.11689943      -1.91771521       0.50791019      -0.19473511
H        6.40442418       7.35711623       6.83315514       0.13121581       0.19852976      -0.06236067      -0.83972547      -1.23155439       0.01011199
H        5.87445868       5.86609553       7.56692782       0.08212829      -0.01188996       0.03829351       0.33476879      -0.63339705       0.62057383
H        5.53532708       4.64288377       5.32016801      -0.12383768      -0.22381782      -0.28984687       0.32285085       0.05874399      -0.14729860
H        7.23051353       5.71250833       5.21949859       0.24999988      -0.01148225      -0.43009329       0.88639098      -0.20219068      -0.22869779
H        5.55405363       6.39121230       4.43307218      -0.04651866      -0.03950211      -0.37137295      -0.06214022       0.35324978      -0.55651418
N        5.71042925       6.52492546       6.79131356      -0.60852687       0.38567502       1.10379565       2.77125009       0.78508955      -1.57750530
8
Lattice="12.0 0.0 0.0 0.0 12.0 0.0 0.0 0.0 12.0" Properties=species:S:1:pos:R:3:momenta:R:3:forces:R:3 energy=-440.47383278945915 free_energy=-440.47383278945915 stress="-0.0011964915367017115 0.0002268406035025602 -0.00010344623950387126 0.0002268406035025602 -6.227238073428362e-05 0.0003008688644066155 -0.00010344623950387126 0.0003008688644066155 -0.0005739575011584914" pbc="T T T"
B        6.11063403       5.62520720       5.15752839      -0.06787715       0.57163771       1.02868600      -0.38614731       0.28597885       2.42330967
H        4.75204372       6.55633401       6.70304220      -0.29441406      -0.09333201       0.04908377      -0.46139869      -0.10085996      -0.13457578
H        6.21030950       7.38102476       6.76882590      -0.17546145      -0.16947546      -0.03479321      -0.02818328      -1.07282471      -0.29632433
H        6.02613349       5.82523112       7.49882954       0.16802510      -0.06489512       0.04216681       0.37335745      -0.19370157      -0.03871473
H        5.60611776       4.61897524       5.40179805      -0.11931626       0.23349610       0.14802900      -0.25006452      -0.69669528      -0.58022741
H        7.24795628       5.60804350       5.20617161      -0.32791711       0.15885717       0.21292868       1.05060722      -0.08438657      -0.71041786
H        5.54914380       6.36015043       4.50117046       0.02687613      -0.11895817       0.24914076      -0.24110390       0.36612358      -1.36540820
N        5.78425252       6.39532913       6.64962827       0.46420509      -0.53223364      -1.57870446      -0.05706697       1.49636566       0.70235864
8
Lattice="12.0 0.0 0.0 0.0 12.0 0.0 0.0 0.0 12.0" Properties=species:S:1:pos:R:3:momenta:R:3:forces:R:3 energy=-440.4715588205658 free_energy=-440.4715588205658 stress="0.0026056065063724634 -0.000802752060419995 7.501411754833707e-05 -0.000802752060419995 0.0007439786270710285 -0.0007242475620498712 7.501411754833707e-05 -0.0007242475620498712 0.0010228774962924277" pbc="T T T"
B        6.08141923       5.69295285       5.30906900       0.42819546      -0.86475753      -1.95273705       1.06155124      -0.48089582      -0.65738879
H        4.67428157       6.46845340       7.06566796      -0.15869342       0.03449524       0.25840571       1.72446034      -0.19952915      -0.56891786
H        6.04466946       7.43088847       6.69792662      -0.19696517      -0.03401280       0.11503208       0.60960306       1.28034923       0.10753785
H        6.28943745       5.93390113       7.54880583       0.08001018       0.17795565       0.24748428      -0.47404837       0.64017703      -0.54621216
H        5.63075054       4.56911153       5.40528435      -0.06872653      -0.03641569       0.08438044       0.08977418       1.20139735      -0.16850584
H        7.32571843       5.62216380       5.30916509      -0.08958482       0.06289665       0.21605373      -1.81602009       0.37479144      -0.07934801
H        5.61318519       6.43893372       4.45119417      -0.07479353       0.07120963       0.18995384       0.50494612      -1.04587964       1.07371713
N        5.73933038       6.45738400       6.79060176      -0.24569074       0.57370857       0.95809622      -1.70026648      -1.77041043       0.83911767
8
Lattice="12.0 0.0 0.0 0.0 12.0 0.0 0.0 0.0 12.0" Properties=species:S:1:pos:R:3:momenta:R:3:forces:R:3 energy=-440.288023901759 free_energy=-440.288023901759 stress="0.0011145866698237183 -0.0005268185599744929 -0.0004737937914723207 -0.0005268185599744929 0.00022200664071247257 0.0007193301688724419 -0.0004737937914723207 0.0007193301688724419 0.0022688179098746624" pbc="T T T"
B        6.12382117       5.60260446       5.24648882      -0.34272335       0.63949130       0.81318167       0.76067262       0.45751195      -0.50960425
H        4.70428797       6.18269966       7.03963170       0.21670385      -0.06925448      -0.09231290       1.40863227       0.43378043      -0.00139490
H        5.84486675       7.46389301       6.67608295      -0.08541537       0.24572916      -0.05706820       0.28305627       0.35066879       0.28885188
H        6.38792166       6.01985849       7.61520405      -0.02167225       0.01901247      -0.09832108      -0.50226132       0.64995613      -0.50445686
H        5.67935614       4.53610699       5.27098598      -0.00151822      -0.25400702       0.18146970      -0.55393153      -0.27153135       0.64015733
H        7.29571203       5.52088792       5.05838710       0.21089838      -0.11394332      -0.04253746      -0.33423288       0.46845662       0.90042414
H        5.66248770       6.26265679       4.38479595      -0.13893222       0.15978485      -0.10550179      -0.30714241       0.21853954       0.65992595
N        5.74095071       6.44975864       6.88411296      -0.16373808      -0.64174003      -0.48218752      -0.75479302      -2.30738212      -1.47390329
8
Lattice="12.0 0.0 0.0 0.0 12.0 0.0 0.0 0.0 12.0" Properties=species:S:1:pos:R:3:momenta:R:3:forces:R:3 energy=-440.3144625092508 free_energy=-440.3144625092508 stress="-0.0018070087766394328 6.152439400759829e-05 0.0005712239629821354 6.152439400759829e-05 -0.0003578374572165553 -0.0009097832340704533 0.0005712239629821354 -0.0009097832340704533 -0.00272497489422909" pbc="T T T"
B        6.07340930       5.64072391       5.40761588      -0.50811245       0.05990569       0.43269997       0.58736304      -0.67618016      -2.64672321
H        4.80493712       6.07299159       7.05310464       0.14353147       0.03349772      -0.08614268      -1.12240171      -0.16939728       0.40445082
H        5.79374085       7.42346067       6.64207093       0.06859071       0.08361862      -0.18850039       0.13421139      -1.91043263       0.40527337
H        6.43708245       5.96567526       7.44344292       0.00288992      -0.03441326      -0.18309248       0.05324313       0.37917183       0.26574700
H        5.70660409       4.57653933       5.45336609       0.39121156       0.04189885      -0.26546001      -0.26503582      -1.37801335       0.34076067
H        7.19506288       5.73859676       5.26718287      -0.04260208      -0.05176742      -0.27961092       1.16156100      -0.09547236      -0.04034145
H        5.54657358       6.17517543       4.55655708       0.14188338      -0.17814073      -0.12156271      -0.68414439       0.73792019      -0.59844021
N        5.75115513       6.32272257       6.72971687      -0.52694025       0.03032937       0.80951828       0.13520337       3.11240376       1.86927301
8
Lattice="12.0 0.0 0.0 0.0 12.0 0.0 0.0 0.0 12.0" Properties=species:S:1:pos:R:3:momenta:R:3:forces:R:3 energy=-440.2790331012565 free_energy=-440.2790331012565 stress="-0.0005127100759321847 -3.027912109200506e-05 -0.0003545255969849927 -3.027912109200506e-05 0.0014209100244780665 0.0004672180900097861 -0.0003545255969849927 0.0004672180900097861 0.0013133719972822843" pbc="T T T"
B        6.15152948       5.60016725       5.07491811      -0.11840635      -0.28400105      -0.09889308      -1.70587121       0.58821401       2.22835059
H        4.75024975       6.29657804       7.08561938      -0.17336524      -0.07504587      -0.08856261      -1.16637768      -0.51131718      -0.10159528
H        5.82200490       7.51711366       6.63609498      -0.01997468      -0.26771802       0.10204730       0.13660147      -1.40399031       0.04766785
H        6.33529447       6.13913230       7.55644781      -0.05671199      -0.03089857       0.03137470       0.63039780      -0.25507876       0.08901240
H        5.87062337       4.48288634       5.39337144       0.17862325       0.14943806      -0.22268248       0.65454466       0.40918097      -0.43289075
H        7.24975025       5.99760299       4.99770695      -0.11724815      -0.02146896      -0.31834511       0.14079041      -0.33904008      -0.32480227
H        5.29704276       6.12880806       4.44355219       0.07629451      -0.25471228      -0.09516481       0.53295362      -0.13821269      -0.13256444
N        5.72082382       6.44524747       6.77277030      -0.10151952       0.76920928       0.80906230       0.77696093       1.65024403      -1.37317810
8
Lattice="12.0 0.0 0.0 0.0 12.0 0.0 0.0 0.0 12.0" Properties=species:S:1:pos:R:3:momenta:R:3:forces:R:3 energy=-440.4483606621663 free_energy=-440.4483606621663 stress="0.0014643940995475212 -3.6908684564094796e-05 0.0002288539575237115 -3.6908684564094796e-05 -0.00037117635150301357 -0.0006439570801021011 0.0002288539575237115 -0.0006439570801021011 -0.0001253168977348435" pbc="T T T"
B        6.18185459       5.70863516       5.18878967      -0.13941137       0.69102279       1.31500274      -0.67115056      -0.52988479       1.12363875
H        4.77421288       6.25116704       6.88664762      -0.03561872       0.06846727       0.11541299       1.14211077       0.11429358      -0.19268876
H        5.91350943       7.45857096       6.67736832      -0.01100437      -0.24770518       0.06613273       0.57117078       2.61575902      -0.14957597
H        6.39044916       6.01607133       7.43172496      -0.02665026       0.01862920      -0.03051476       0.09566831       0.20718631      -0.02646213
H        6.19677603       4.54142904       5.58680649      -0.09291912       0.06716117       0.25072737       0.18258661       1.31000931      -1.00606481
H        7.22578712       6.22566892       4.95004098      -0.09815476       0.27866607       0.17984635      -0.43590082      -0.50425239      -0.43962955
H        5.19423045       6.01416363       4.56827504      -0.19142514      -0.04245769       0.20390360       1.07444361      -0.32797441      -0.04521808
N        5.81226594       6.46137254       6.67401333       0.25713041      -0.84924378      -1.97962029      -1.95892870      -2.88513663       0.73600055
8
Lattice="12.0 0.0 0.0 0.0 12.0 0.0 0.0 0.0 12.0" Properties=species:S:1:pos:R:3:momenta:R:3:forces:R:3 energy=-440.59629395684226 free_energy=-440.59629395684226 stress="0.00026110377903541853 -0.00047245434071683693 -6.0987649034202383e-05 -0.00047245434071683693 -0.0009771604779674496 0.00027325307303922787 -6.0987649034202383e-05 0.00027325307303922787 0.00022830724101571717" pbc="T T T"
B        6.22425299       5.68551388       5.20972207       0.51799465      -0.81258869      -1.98233041       0.50194939      -0.03051579       0.83278590
H        4.82346246       6.25041577       6.98325638       0.14539642       0.05184076       0.10063953       0.59690873      -0.01722841       0.01661725
H        5.95811879       7.42679180       6.53397297      -0.10678710       0.33809074       0.06854333       0.43265249       2.10925291      -0.03929651
H        6.49754154       6.05502090       7.45144675      -0.06500896       0.16503767       0.15690239       0.04622924       0.25654841       0.17136135
H        6.50420958       4.57320820       5.48605883       0.01944162      -0.36174862       0.13073667      -0.44432642       0.18165586      -0.09571138
H        7.17653754       6.28343299       4.90263961       0.08568720       0.22761151       0.08334761       0.06488266       0.15298723      -0.22290130
H        5.28788703       5.88403475       4.54855325      -0.32266547      -0.00055139      -0.02340770      -0.15889057      -0.11413435      -0.09907735
N        5.83817451       6.44818284       6.74153094      -0.61807977       0.37657494       1.58859355      -1.03940552      -2.53856586      -0.56377796
8
Lattice="12.0 0.0 0.0 0.0 12.0 0.0 0.0 0.0 12.0" Properties=species:S:1:pos:R:3:momenta:R:3:forces:R:3 energy=-440.161270499142 free_energy=-440.161270499142 stress="-0.00201799850225958 -0.0010183341605012448 -0.0008300923267949758 -0.0010183341605012448 0.00012036323902066521 0.00128056636322198 -0.0008300923267949758 0.00128056636322198 0.001552147327446508" pbc="T T T"
B        6.21553706       5.57306576       5.12672418      -0.41518947       0.48538931       0.57483475       0.09713676       1.18236925       1.11889363
H        4.87269891       6.02526595       7.08806845       0.12081513      -0.17292241      -0.09799550      -1.76420680      -0.88178742       0.44820926
H        5.66112783       7.48549307       6.65499210      -0.14280903       0.17023886      -0.15132353       0.50328865      -1.70764396       0.38053283
H        6.50025733       6.13721927       7.51024288       0.10666864      -0.04960487      -0.16982556       0.61941244       0.12555277       0.37785795
H        6.48296154       4.51450693       5.39544332       0.06656573       0.10091953       0.11803569      -0.05031363      -1.43230263       0.79078645
H        7.12730109       6.09086799       4.66258522      -0.13146570      -0.15162390       0.13956456       0.64701387       0.93358682       0.29085765
H        5.29213586       5.72471955       4.48975712       0.10965823       0.02849005       0.12421905      -1.30120245       0.16911527      -0.29893830
N        5.76931411       6.41747356       6.83552886      -0.06462859      -0.42691068      -0.41220880       1.24887116       1.61110989      -3.10819946
8
Lattice="12.0 0.0 0.0 0.0 12.0 0.0 0.0 0.0 12.0" Properties=species:S:1:pos:R:3:momenta:R:3:forces:R:3 energy=-440.2064692060267 free_energy=-440.2064692060267 stress="0.000429722514594308 0.0002713075863585207 0.0009542669706884359 0.0002713075863585207 0.00037093198147295647 -0.0017900192736467655 0.0009542669706884359 -0.0017900192736467655 -0.0028165751320269805" pbc="T T T"
B        6.07392960       5.73328466       5.39993127      -0.35039407       0.00199535       0.17632116       1.43369923      -1.48399627      -5.28495256
H        4.95967513       5.91024925       7.22458841      -0.16252318      -0.19626658       0.21975763      -0.51091412      -0.46747087       0.03297159
H        5.39622771       7.40638663       6.59091892      -0.07602946      -0.23481459      -0.17330412       0.65426940      -1.14788231       0.02703455
H        6.54549031       6.35581214       7.35078906       0.14915065       0.09237447       0.00941913       0.30828044       0.23876916       0.06867170
H        6.30334332       4.59361337       5.61029696       0.15410211       0.20551542      -0.20113263       0.07769704       0.36249140      -0.03092698
H        7.04032487       6.35796052       4.98158849      -0.10999114      -0.24228979      -0.07282852      -1.01171880      -0.86409224       0.41364024
H        5.14140262       5.84753205       4.64921094       0.24794400       0.06808063       0.04053207       0.64581876      -0.04405647       0.64512014
N        5.73061625       6.37081243       6.68481514      -0.21359061       0.28888035       0.13045056      -1.59713195       3.40623761       4.12844132
8
Lattice="12.0 0.0 0.0 0.0 12.0 0.0 0.0 0.0 12.0" Properties=species:S:1:pos:R:3:momenta:R:3:forces:R:3 energy=-440.1494936231302 free_energy=-440.1494936231302 stress="0.0016720380868783665 0.0012239328886289565 -0.0005289965679642221 0.0012239328886289565 0.0008221066103094994 0.00040382299884265466 -0.0005289965679642221 0.00040382299884265466 0.002265147583589533" pbc="T T T"
B        6.11799546       5.71043473       5.10678209      -0.04940963      -0.48777811      -0.53132841      -1.20980369       1.10792284       1.29064462
H        4.96464655       5.90059389       7.41183459      -0.01905360      -0.10557944       0.16902554       1.23676894       1.01508303      -1.25333461
H        5.13007315       7.41901302       6.63352590      -0.08708533      -0.11512080       0.23763458      -0.61148395       1.49384170      -0.46049672
H        6.49614258       6.74431462       7.45100492      -0.01313816       0.09726904       0.14738245      -0.53574879      -0.10873379      -0.73591893
H        6.24467628       4.58098698       5.46637607       0.09313105      -0.13299298      -0.02677748       0.52754345       0.56285426      -0.15762743
H        7.03535345       6.44937100       4.81425420       0.23431996       0.11808789      -0.20004467      -0.73020295      -0.99907648       0.08121913
H        5.05099222       5.86626291       4.54899508      -0.13324245      -0.03049670      -0.19212420       1.06658014       0.10155074       0.28733415
N        5.63704494       6.55979995       6.84037473      -0.39567892       0.63968277       0.52860349       0.25634685      -3.17344231       0.94817980
8
Lattice="12.0 0.0 0.0 0.0 12.0 0.0 0.0 0.0 12.0" Properties=species:S:1:pos:R:3:momenta:R:3:forces:R:3 energy=-440.5084870827579 free_energy=-440.5084870827579 stress="-0.0006173846502672801 -3.17510902162844e-05 -0.0002455640074947676 -3.17510902162844e-05 -0.0004929455539570957 0.00039211481549580955 -0.0002455640074947676 0.00039211481549580955 0.0003197985792868899" pbc="T T T"
B        6.12544832       5.73396848       5.23565199      -0.32902436       0.74483050       1.68926975      -1.48399536      -0.02803208       1.93614304
H        5.17333097       5.71858445       7.34496545       0.18097811       0.19745288      -0.11177761       0.40598061       0.86778761      -0.41128416
H        5.05774900       7.31652321       6.63235130      -0.17568061       0.15094419      -0.14360934       0.14997828       0.22013124       0.13764550
H        6.61930782       6.70650753       7.24101657      -0.07364100      -0.04624485      -0.13767780      -0.69695042       0.20331195      -0.03993831
H        6.37730268       4.68347679       5.60208332      -0.17077557       0.05219247       0.18296867       0.67187721      -0.84363289       0.10819978
H        6.94225100       6.40715478       4.88294335      -0.02686584       0.38449472       0.16563699       1.41289029       0.92002248      -0.75551582
H        5.14572829       5.74057087       4.65503455      -0.21640653      -0.08561553       0.18167437      -0.80504653       0.22867961      -0.66339056
N        5.67860773       6.49150758       6.80220413       0.42796988      -1.41559044      -1.68936151       0.34526591      -1.56826792      -0.31185947
8
Lattice="12.0 0.0 0.0 0.0 12.0 0.0 0.0 0.0 12.0" Properties=species:S:1:pos:R:3:momenta:R:3:forces:R:3 energy=-440.5897379422162 free_energy=-440.5897379422162 stress="0.00015363610781118293 -0.0014145597495523108 0.0007288959313548601 -0.0014145597495523108 2.7462224614485136e-05 -8.596021681512152e-05 0.0007288959313548601 -8.596021681512152e-05 -0.0004544645891283653" pbc="T T T"
B        6.18602933       5.73180310       5.26038670       0.86811163      -0.87551485      -2.36759970       0.35096646      -0.62686183       0.17753626
H        5.24504587       5.77155243       7.29896636       0.05414806       0.10475513      -0.09033099      -0.75669302      -0.93263704       0.89002742
H        5.12232723       7.26689869       6.43059840      -0.06379531       0.09828621       0.00503095       1.48351920      -1.33743730       1.00059570
H        6.65292514       6.72523939       7.22602673      -0.09989073      -0.03955604       0.05127152       0.02170664       0.34773137       0.14859944
H        6.77236546       4.73310131       5.50135297      -0.15433397       0.04357343      -0.01706600      -0.44581257       0.20955929       0.02113379
H        6.87767277       6.50438524       4.77112273      -0.29742534       0.02892837       0.03452059       0.42353083       0.58053160      -0.34860127
H        5.17178261       5.63871940       4.70103364       0.06087573      -0.27246293       0.15907753      -0.19891344      -0.28398019      -0.05516989
N        5.77946705       6.43250850       6.73171174      -0.76416129       0.89385892       2.36687757      -0.87830410       2.04309410      -1.83412145
8
Lattice="12.0 0.0 0.0 0.0 12.0 0.0 0.0 0.0 12.0" Properties=species:S:1:pos:R:3:momenta:R:3:forces:R:3 energy=-440.0243591727013 free_energy=-440.0243591727013 stress="0.0015661906656339844 -0.0009216671124931179 -0.0003605559767356606 -0.0009216671124931179 0.0007802433233623973 0.0008118086547381916 -0.0003605559767356606 0.0008118086547381916 0.00257663468597283" pbc="T T T"
B        6.12407630       5.52983665       5.15503657      -0.17219679       0.23674518       0.30648680       0.78954209       0.58216128       0.33959915
H        5.04809827       5.70050203       7.47571700      -0.12059008      -0.15654042       0.05877382      -0.21041722      -0.59320945       0.03846753
H        5.00850492       7.26155941       6.82981291       0.20961037      -0.30888839       0.04815456       0.72170390      -0.47213742      -0.25345195
H        6.48250888       6.57914437       7.49593385       0.02892238      -0.11218527      -0.03859538       0.41283463       0.27120451      -0.09381850
H        6.99149508       4.73844059       5.50505328       0.11386028       0.08631868       0.02671249      -1.43537588       0.51347002      -0.05855727
H        6.66251042       6.39958595       4.50406615      -0.19742626      -0.05224524       0.04064956      -0.70019844      -0.23578121       0.88087799
H        5.05891318       5.19265264       4.69488963       0.03100855      -0.11839802       0.05158541       0.78762848       0.03815795       0.78937293
N        5.61714797       6.39336617       6.94527695      -0.29693928       0.40672880      -0.34938254      -0.36571755      -0.10386568      -1.64248988
8
Lattice="12.0 0.0 0.0 0.0 12.0 0.0 0.0 0.0 12.0" Properties=species:S:1:pos:R:3:momenta:R:3:forces:R:3 energy=-440.33891331582845 free_energy=-440.33891331582845 stress="-2.0297782021713332e-05 0.0015009477111797185 0.00016831645358444255 0.0015009477111797185 -0.00168465843851987 -0.0012961744675795256 0.00016831645358444255 -0.0012961744675795256 -0.0019021096165490429" pbc="T T T"
B        6.03136054       5.59164758       5.39393968      -0.86590979       0.78682674       1.99262501       1.16028051      -0.65921870      -3.17898913
H        5.00885869       5.57244635       7.33067257       0.01705771       0.09059081       0.04530570       0.93061226       0.74272502      -0.71792031
H        5.10829547       7.04956389       6.56434678      -0.04927947      -0.15408057      -0.05095484      -1.62489005       2.95737072      -0.42495905
H        6.50486360       6.43940669       7.29500519      -0.09309808      -0.00669385       0.06696924      -0.22469760       0.22921960      -0.01510223
H        6.99114131       4.95043611       5.58861389       0.37803952       0.12426463      -0.05489676      -0.23087146      -0.28549806       0.03935891
H        6.31220935       6.49103509       4.66932743      -0.02579223      -0.00753590      -0.10066142      -0.21297743      -0.30764678       0.30634470
H        5.08997690       5.01478202       5.01332952      -0.17962598      -0.00793732      -0.08096825       0.08379764      -0.17782362      -0.05730800
N        5.63917296       6.22767829       6.72671912       0.40297488      -0.84444265      -1.66878463       0.11874613      -2.49912816       4.04857511
8
Lattice="12.0 0.0 0.0 0.0 12.0 0.0 0.0 0.0 12.0" Properties=species:S:1:pos:R:3:momenta:R:3:forces:R:3 energy=-440.3021849656204 free_energy=-440.3021849656204 stress="-0.001718881137232781 -6.553702756927453e-05 -0.0009610597457996905 -6.553702756927453e-05 -0.0007629341099716806 0.001023059039745042 -0.0009610597457996905 0.001023059039745042 0.0010051295505035637" pbc="T T T"
B        6.14285157       5.56750498       5.20380268       0.13674261      -0.80042066      -1.16537452      -1.20351318       1.72376569       1.71780359
H        5.15580919       5.58238166       7.43018334       0.18735801       0.18127858       0.04184440       0.14408456       0.05168721       0.00126724
H        4.95637471       7.10986821       6.67621996      -0.43960895       0.22521407       0.10152907      -0.21066171       0.60846751      -0.10708923
H        6.51683357       6.66144999       7.35632879      -0.07081765       0.03465620       0.07167940       0.00012261       0.25318628       0.04689538
H        7.04362529       4.98313041       5.47420235       0.17180544       0.09803917      -0.15704567       2.02343585      -0.81089175       0.60660873
H        6.25132051       6.51502815       4.56981666       0.12108032      -0.11534634      -0.27391880       0.19228344       0.54737456      -0.53907170
H        5.27032948       4.89013179       5.00016136      -0.00340233       0.02078215      -0.16299602      -1.48814382      -0.67028583      -0.39131572
N        5.62754205       6.35680452       6.90287422      -0.52238043       0.33662457       1.69419981       0.54239224      -1.70330367      -1.33509829
8
Lattice="12.0 0.0 0.0 0.0 12.0 0.0 0.0 0.0 12.0" Properties=species:S:1:pos:R:3:momenta:R:3:forces:R:3 energy=-440.2305762535934 free_energy=-440.2305762535934 stress="0.001126300277021879 -0.0011879412806177988 -5.7024396318165156e-05 -0.0011879412806177988 0.0006522090182586713 0.0008570711539968595 -5.7024396318165156e-05 0.0008570711539968595 0.0011432412361560783" pbc="T T T"
B        6.24057638       5.65885247       5.14764680      -0.46710836       0.41125413       1.33755522      -0.96856780       0.03918833       1.80602371
H        5.49362788       5.67977817       7.49731074       0.15323929      -0.11852720      -0.00384705      -0.46187089      -1.79662559       1.26900106
H        4.81733182       7.08047006       6.73497746      -0.12797056      -0.19064476      -0.19224061       2.04502780      -1.26731501       0.20757854
H        6.53401924       6.96955548       7.22295145       0.05402647       0.03779294      -0.17333850       0.34381102       0.45070194       0.07176059
H        7.18266818       5.05349066       5.53744360      -0.35769765       0.14492780      -0.06857746       0.03111406       0.52248799      -0.39780295
H        6.32985191       6.65446441       4.50268926      -0.06856958      -0.02150251       0.28238386       0.16899705      -0.58215574       0.14906162
H        5.31643453       4.91952994       4.96072888       0.23458520       0.16269372       0.13610219       0.35327772       0.68630103      -0.09568775
N        5.71105519       6.44182430       6.87604064       0.16155724      -0.44510761      -1.16857951      -1.51178895       1.94741705      -3.00993480
8
Lattice="12.0 0.0 0.0 0.0 12.0 0.0 0.0 0.0 12.0" Properties=species:S:1:pos:R:3:momenta:R:3:forces:R:3 energy=-440.2293682140099 free_energy=-440.2293682140099 stress="0.0015106442528816041 0.0003696865022154858 0.0013710571919884908 0.0003696865022154858 0.0002946050761426242 -0.0016969321273241223 0.0013710571919884908 -0.0016969321273241223 -0.0025058733593368615" pbc="T T T"
B        6.18403567       5.66172238       5.29203631       0.41667721      -0.38447292      -1.25938787       1.15045700      -2.51219640      -3.96865708
H        5.75071777       5.58783860       7.43604301       0.11777297      -0.18117682       0.30025790       0.08452110      -0.08557712      -0.45069449
H        4.77793186       6.63601546       6.54254233       0.15383689      -0.24752160       0.08606342       0.48750008       0.04950891      -0.02079349
H        6.40415017       7.04069504       6.91012718       0.02205272       0.14210209       0.02564573      -0.06164102       0.09072850      -0.13589365
H        7.22206814       5.03362785       5.50154246      -0.04036922      -0.17715021       0.12217065      -1.31739277       0.81307383      -0.49439146
H        6.30759884       6.60952115       4.56395699      -0.04557151       0.24652219      -0.10447701       0.09645191      -0.82075182       0.29715295
H        5.23518717       4.95930496       4.95728453      -0.06777557      -0.20724776       0.04727401       1.30361958       0.65889598       0.22751355
N        5.77234394       6.25002749       6.59840017      -0.96821281       0.79012188       0.92964098      -1.74351590       1.80631812       4.54576367
8
Lattice="12.0 0.0 0.0 0.0 12.0 0.0 0.0 0.0 12.0" Properties=species:S:1:pos:R:3:momenta:R:3:forces:R:3 energy=-440.02809385924036 free_energy=-440.02809385924036 stress="-0.0012200680095440625 -0.00022348530154164608 -0.0005401462844695656 -0.00022348530154164608 0.00013907252959214923 0.0009474678875480162 -0.0005401462844695656 0.0009474678875480162 0.0022964808333132154" pbc="T T T"
B        6.26556117       5.49989242       5.09130420       0.13051305      -0.11436884      -0.41810232      -0.00432596       0.35260457       1.90486316
H        5.93928087       5.53428942       7.60397398       0.01095992       0.13123922       0.10209709      -0.45302849       1.49252972      -1.48707820
H        4.69746506       6.48433382       6.88578274      -0.07879786      -0.06962579       0.16409622      -2.25122755       0.54550972      -0.22212956
H        6.27915342       7.17987117       7.05655775      -0.05167435       0.01941405       0.10808707      -0.50728226      -0.61225056      -0.30721123
H        7.30253494       5.05204956       5.35937112       0.18884278      -0.09357401       0.10105190       0.09531793      -0.39114659       0.44254664
H        6.37729737       6.37263771       4.39602602      -0.12127693       0.18737344      -0.09237881      -0.07930205       1.64043034      -0.69302000
H        5.39020325       4.82012883       4.80813711      -0.17863029      -0.20124174      -0.02550103      -0.65507337      -0.70754104       0.22957035
N        5.68806884       6.31360371       6.86623460      -0.29127415       0.12288666       0.20059559       3.85492174      -2.32013617       0.13245884
8
Lattice="12.0 0.0 0.0 0.0 12.0 0.0 0.0 0.0 12.0" Properties=species:S:1:pos:R:3:momenta:R:3:forces:R:3 energy=-440.6461138169598 free_energy=-440.6461138169598 stress="0.0003788814643681884 2.5890434694927282e-05 -0.00015727763701206174 2.5890434694927282e-05 -0.0006940918428356387 0.0001769567415716754 -0.00015727763701206174 0.0001769567415716754 -8.924092993168685e-05" pbc="T T T"
B        6.22930566       5.60420533       5.22872922      -0.78893809       0.88585208       2.08075584       0.42209023       0.39530664       0.33512644
H        6.00631120       5.61744817       7.50575552      -0.07072621       0.20045196      -0.24405796       0.01742075      -0.05594128       0.26902150
H        4.68285128       6.36871684       6.64504991      -0.23884648      -0.12536501      -0.15160466       1.02586344       0.19068138       0.37151199
H        6.24981923       7.19011851       6.79815940       0.02811392      -0.15482652      -0.07814564      -0.22667186       0.02977555       0.29426733
H        7.31714872       5.23081652       5.37499950      -0.11387928       0.27592750      -0.13181330       0.20594512      -0.30696048       0.25641252
H        6.21558778       6.49126921       4.49424448      -0.08145578      -0.37813731       0.22874429      -0.24025317       0.53192141      -0.29952143
H        5.43782445       4.80988149       4.99793330       0.13611090       0.20966090       0.02167533      -0.42672127      -0.64607085      -0.08189445
N        5.74683462       6.27120686       6.73343466       0.76051641      -0.93044381      -1.59355896      -0.77767325      -0.13871238      -1.14492389
8
Lattice="12.0 0.0 0.0 0.0 12.0 0.0 0.0 0.0 12.0" Properties=species:S:1:pos:R:3:momenta:R:3:forces:R:3 energy=-440.5106868068945 free_energy=-440.5106868068945 stress="0.0019547822382393948 -0.00014475524099781165 5.018132885776915e-05 -0.00014475524099781165 0.000602201071135971 -1.5677540702817853e-05 5.018132885776915e-05 -1.5677540702817853e-05 7.44466943764263e-06" pbc="T T T"
B        6.21703968       5.72004522       5.26354464       0.21830152      -0.63239639      -1.29650934      -0.21436106       0.53988304       0.26502866
H        5.96409248       5.71409654       7.50659044      -0.01793456      -0.03873791      -0.01166881       0.42677705      -1.27079379       1.45705999
H        4.62231284       6.53561976       6.78039551       0.00308135      -0.03744257       0.06400515       2.09902286      -0.11154662       0.10079444
H        6.22355375       7.28704796       6.94918687       0.09057736      -0.07225161       0.07603562       0.02606531       0.39876289       0.09222783
H        7.37768716       5.50504755       5.48147090       0.07088044       0.15811201      -0.29168416      -0.68229546       0.24817186      -0.44313308
H        5.94366138       6.64161724       4.49340956       0.10359723      -0.34880963      -0.26710002       0.42632945      -1.40957163       0.74617806
H        5.56151762       4.71295204       5.22221383       0.16536022      -0.01227846      -0.18901219       0.38398524       0.77839403      -0.30593656
N        5.71513766       6.39047265       6.79625915      -0.97364182       0.96826553       2.03744132      -2.46552339       0.82670023      -1.91221934
8
Lattice="12.0 0.0 0.0 0.0 12.0 0.0 0.0 0.0 12.0" Properties=species:S:1:pos:R:3:momenta:R:3:forces:R:3 energy=-440.3034246987518 free_energy=-440.3034246987518 stress="-0.00014337245158825145 -0.0005829192771144722 -0.0003000399691908112 -0.0005829192771144722 0.0009584399523757227 0.0001460775010799713 -0.0003000399691908112 0.0001460775010799713 0.0015435097461029778" pbc="T T T"
B        6.22060842       5.73098022       5.08843397      -0.33531358       0.21787640       0.69455371      -1.35962180       0.95615612       2.10052540
H        5.82779892       5.77473831       7.57785855      -0.01676869      -0.11140909       0.14919271       0.06239169       0.10196003      -0.51789536
H        4.62753671       6.68742186       6.80293915       0.29095574      -0.14511508      -0.12643446      -0.65511622       0.04422360      -0.36277591
H        6.17416786       7.34742608       7.01806326       0.08584710      -0.03038054      -0.04999707       0.14073197       0.07039695      -0.27943172
H        7.37246329       5.74780536       5.30173111       0.14093139       0.12900598       0.05360076       0.15487752       0.24917265      -0.44359499
H        5.66985587       6.57209196       4.42214145      -0.23540041       0.20330542       0.11035766       0.73135051      -0.94324587       0.03571442
H        5.74518934       4.65257392       5.22772394       0.01048162      -0.11848340       0.17686855      -0.05680077       0.37132851      -0.51714020
N        5.64285370       6.46876383       6.79580673      -0.25017522      -0.15895136      -0.89748277       0.98218711      -0.84999199      -0.01540164
8
Lattice="12.0 0.0 0.0 0.0 12.0 0.0 0.0 0.0 12.0" Properties=species:S:1:pos:R:3:momenta:R:3:forces:R:3 energy=-440.34689410933726 free_energy=-440.34689410933726 stress="-0.00253942671104069 0.0004909522541525632 0.0008089375223667074 0.0004909522541525632 -0.0008786122767700021 -0.00114017059174619 0.0008089375223667074 -0.00114017059174619 -0.0021867755661369253" pbc="T T T"
B        6.15978684       5.81496675       5.29828619       0.14833265      -0.19359867      -0.61575730       0.38493916      -1.20147015      -1.97994408
H        5.87048743       5.72831509       7.48646964       0.01306923       0.08644418      -0.02194284      -0.04570639       0.62618763      -1.02192280
H        4.71610869       6.57168718       6.61107590      -0.12368831      -0.04048856       0.20407450      -2.36290288       0.49415571      -0.02465663
H        6.20388577       7.28882317       6.86598167      -0.03597791      -0.01700443       0.11963993      -0.11014266      -0.05753984      -0.07968132
H        7.28389131       5.93844764       5.27346578       0.02778790       0.01368394       0.29772429       1.23658783       0.17526590      -0.24598130
H        5.58937652       6.42062864       4.51353036      -0.28649028       0.25162968       0.04331002      -0.21419506       0.43314976      -0.73188212
H        5.85722650       4.71117683       5.29618259       0.05931209      -0.09664416       0.32200154      -0.26560681      -0.75742181      -0.10308808
N        5.70656209       6.38280320       6.63368338      -0.08915945      -0.01713881      -0.24648300       1.37702681       0.28767280       4.18715633
8
Lattice="12.0 0.0 0.0 0.0 12.0 0.0 0.0 0.0 12.0" Properties=species:S:1:pos:R:3:momenta:R:3:forces:R:3 energy=-440.37939726919944 free_energy=-440.37939726919944 stress="0.0004076240902527004 0.00010565865362693298 -0.0010508004703460316 0.00010565865362693298 -0.00027317061287089795 0.0012638507655421162 -0.0010508004703460316 0.0012638507655421162 0.0014465972109539923" pbc="T T T"
B        6.23927434       5.73973745       5.26089612       0.23462936      -0.25202224      -0.89916372       0.28303831      -0.18841905       0.66234124
H        6.05443089       5.76710685       7.60095578      -0.06327336       0.28246646       0.04774000       0.10627163      -0.20636259       0.38502899
H        4.60301687       6.46171831       6.94088381      -0.30014299      -0.11003674       0.09184743       0.64375993       0.13156251      -0.04838568
H        6.11667113       7.38432873       7.01073403      -0.10023362       0.02633419       0.05007525      -0.13902162       0.21307448       0.02209030
H        7.39698313       5.92397046       5.20185140      -0.22019225      -0.11615933       0.12792536      -0.06329731       0.00910674       0.61636191
H        5.72180150       6.27951464       4.39904422      -0.04131232       0.00115593       0.15213915      -0.81976603       0.99923451      -0.18723567
H        5.92164072       4.61567127       5.24467625       0.07769314       0.15903873       0.04793214      -0.02199784      -0.09229309       0.64569623
N        5.66428049       6.44709629       6.91774317       0.14292586      -0.00312057       0.47802511       0.01101292      -0.86590351      -2.09589730
8
Lattice="12.0 0.0 0.0 0.0 12.0 0.0 0.0 0.0 12.0" Properties=species:S:1:pos:R:3:momenta:R:3:forces:R:3 energy=-440.49505794740975 free_energy=-440.49505794740975 stress="0.0022501482279184805 0.000981033372950223 -0.00021048727201389273 0.000981033372950223 0.0007434998940340782 8.327441980730078e-05 -0.00021048727201389273 8.327441980730078e-05 -0.00036373925789221845" pbc="T T T"
B        6.18116274       5.75822245       5.28962670      -0.55943672       0.77296609       1.73802083       0.98326787      -0.57881613      -1.89867944
H        6.14349078       5.91634280       7.53741492       0.17351726      -0.02607675      -0.03384339       0.62139538      -0.63306695       1.17912726
H        4.60024841       6.18278387       6.77251832       0.09453709      -0.20310947      -0.06486282       1.76904718       0.56477146       0.26076665
H        5.88983583       7.39980745       6.73213316       0.01477289       0.00015510      -0.16117791      -0.13817600       0.25207806       0.21959699
H        7.39975159       5.93517823       5.17695276      -0.09027192      -0.05130750      -0.09769860      -1.62355497      -0.41875267       0.57519277
H        5.62895541       6.42883885       4.46258508       0.09226000      -0.14107138       0.01144808       0.16676855      -0.34368931       0.67162079
H        5.79663845       4.60019255       5.21509544      -0.01985479       0.08740188      -0.12409762       0.58763231       1.26631902       0.41182058
N        5.67908521       6.37594520       6.75103148       0.03401792      -0.45086949      -1.17464649      -2.36638031      -0.10884349      -1.41944561
8
Lattice="12.0 0.0 0.0 0.0 12.0 0.0 0.0 0.0 12.0" Properties=species:S:1:pos:R:3:momenta:R:3:forces:R:3 energy=-440.65682850294684 free_energy=-440.65682850294684 stress="0.00019705440939744704 3.3940646680665455e-05 6.512640086746455e-05 3.3940646680665455e-05 7.049009916782177e-05 -5.805654943940727e-05 6.512640086746455e-05 -5.805654943940727e-05 0.0002768878454898584" pbc="T T T"
B        6.18172440       5.70782985       5.25402888       0.08358430      -0.31705274      -0.67143300       0.12585323       0.68704388       1.35120855
H        6.30675668       5.94749674       7.51840705       0.19828977      -0.06608994       0.13074078      -0.37347719       0.20080992      -0.38468040
H        4.66578639       6.03077655       7.01567999       0.23457145      -0.06712935      -0.00020447       0.14373056       0.10985598      -0.18985117
H        5.70790609       7.39418497       6.80436391       0.02084724       0.09142805       0.00162633      -0.02788844      -0.19351593      -0.09885901
H        7.33421361       5.89410244       5.38030369       0.34055125       0.08110369      -0.21697886      -0.01359967      -0.22650589      -0.40764967
H        5.65571485       6.39887971       4.48159295       0.06659158      -0.07267857      -0.36130285      -0.14957714      -0.09696980      -0.33918359
H        5.82764574       4.60581503       5.35398789      -0.05104755      -0.32627028      -0.24726917       0.02820718      -0.30787320      -0.39646541
N        5.64879862       6.33934057       6.77809723      -1.14876481       0.66501003       1.45614615       0.26675147      -0.17284497       0.46548070
8
Lattice="12.0 0.0 0.0 0.0 12.0 0.0 0.0 0.0 12.0" Properties=species:S:1:pos:R:3:momenta:R:3:forces:R:3 energy=-440.3640528723961 free_energy=-440.3640528723961 stress="-0.0015696355853001484 -0.001119005662218695 4.1936314812856454e-05 -0.001119005662218695 -0.0006159612850203239 0.00047902168277803576 4.1936314812856454e-05 0.00047902168277803576 0.0012602463892781679" pbc="T T T"
B        6.20764803       5.67775951       5.09024336      -0.37674496       0.13858104       0.43356300      -1.39312880       1.38006465       2.36452423
H        6.27536124       6.05029138       7.55299370      -0.14257234       0.09676340      -0.00043870      -0.79087698       0.29968504      -1.42062992
H        4.69166698       6.00366816       6.93024311      -0.00529910      -0.10156165      -0.03837301      -1.68301227      -0.73196383       0.09832532
H        5.59638656       7.40236878       6.69462299       0.05326590      -0.05904839      -0.05159614       0.15215956      -0.49696156      -0.18997637
H        7.30833302       5.89782875       5.17040042      -0.12565967       0.18211231       0.07882594       1.52754536       0.40190661      -0.26107705
H        5.53972181       6.35592557       4.44700630       0.01895712      -0.03383550       0.29089785      -0.18419838       0.08596612      -0.89742227
H        5.92463938       4.59763122       5.24873732      -0.01572338       0.19392682       0.20609875      -0.42094463      -1.44826198      -0.26428564
N        5.62893510       6.33969946       6.72095026       0.33899437      -0.42858995      -0.82786547       2.79245614       0.50956494       0.57054170
8
Lattice="12.0 0.0 0.0 0.0 12.0 0.0 0.0 0.0 12.0" Properties=species:S:1:pos:R:3:momenta:R:3:forces:R:3 energy=-440.5372317571033 free_energy=-440.5372317571033 stress="0.0006437422957596532 9.631100921458548e-05 0.0008780898843386622 9.631100921458548e-05 0.0004666060073126963 -0.0008050620419129445 0.0008780898843386622 -0.0008050620419129445 -0.0013813100390114054" pbc="T T T"
B        6.17108172       5.79322785       5.35519812       0.38805606      -0.57893433      -1.29272605       0.34235323      -1.20867000      -3.29441614
H        6.31792717       6.01580091       7.48802444      -0.19280416       0.07101271      -0.16432393       0.05141308      -0.01304458       0.24790661
H        4.69625079       6.00506233       6.93926555      -0.20602372      -0.02564153       0.25381825       0.35217540       0.24296224      -0.02888302
H        5.68334618       7.40336851       6.72922787       0.05336835      -0.06215906       0.22947485      -0.07766946       0.00057690       0.04865569
H        7.30374921       6.11349998       5.23171168      -0.12508001       0.13776463       0.21644768      -0.42350489       0.13980055       0.03948536
H        5.42463189       6.26473654       4.51197556      -0.13649359       0.06299495       0.20588904       0.88785910      -0.44283861       0.89978090
H        6.09738399       4.59663149       5.38049861       0.09355820       0.11122844       0.32609522      -0.12479491       0.80099540       0.18979186
N        5.68011084       6.34861662       6.72310612      -0.13404049       0.27186838       0.31810979      -1.00783156       0.48021810       1.89767874
8
Lattice="12.0 0.0 0.0 0.0 12.0 0.0 0.0 0.0 12.0" Properties=species:S:1:pos:R:3:momenta:R:3:forces:R:3 energy=-440.2287225337218 free_energy=-440.2287225337218 stress="0.0008377220857037735 0.00045596783842165957 -0.0012319427764171246 0.00045596783842165957 0.00012613446737921445 0.0012326457584410566 -0.0012319427764171246 0.0012326457584410566 0.0018412359018976942" pbc="T T T"
B        6.28077138       5.75303845       5.27972546       0.02757558       0.00131702      -0.02236431       0.17892664      -0.85200972      -0.71023159
H        6.32050443       5.98457672       7.60816407      -0.07087830       0.03908624       0.15105653       1.13714147      -0.75376548       1.39313474
H        4.66461631       6.06273195       7.05009793       0.04155142       0.00060397      -0.06282422       1.60548666       0.65983996      -0.08375335
H        5.79041260       7.43462259       6.87906723       0.03123231      -0.01632919      -0.00067779      -0.12138553       0.55867495       0.08306487
H        7.33538369       6.22728804       5.03517245       0.01922722       0.03261598      -0.04019250      -0.32020563       0.29983968       0.71095879
H        5.51840943       5.96564414       4.39183593      -0.28231569      -0.00349105      -0.09237006      -0.22999165       0.60293871       1.01409682
H        6.38330634       4.56537741       5.34125852       0.16185899      -0.06550752       0.00526231      -0.17510273       0.61001667       0.84342255
N        5.69146333       6.40440518       6.93712111      -0.19593496      -0.00053738       0.15783590      -2.07486922      -1.12553478      -3.25069282
8
Lattice="12.0 0.0 0.0 0.0 12.0 0.0 0.0 0.0 12.0" Properties=species:S:1:pos:R:3:momenta:R:3:forces:R:3 energy=-440.6031495198175 free_energy=-440.6031495198175 stress="-0.0008667949634803186 0.0001898963842137804 0.00020237826114277176 0.0001898963842137804 -0.00032033134720076985 -0.000338986072177238 0.00020237826114277176 -0.000338986072177238 -0.0010345207620229696" pbc="T T T"
B        6.28830614       5.77434567       5.25018742      -0.68806754       0.87569736       1.78580075       0.80805794      -0.79413094      -1.53988205
H        6.33960703       5.96468161       7.48190103       0.24425766      -0.13506961       0.03291435      -0.07971897       0.14223926      -0.20587251
H        4.78742438       6.02240707       6.75972254       0.28016969      -0.06868217      -0.10073274      -0.48502928      -0.06263101       0.27097225
H        5.82561278       7.37307799       6.63353681       0.08588050       0.03960837      -0.11776429      -0.06776902       0.24042403       0.18582425
H        7.21257562       6.39994306       4.91229835      -0.02636925      -0.15666903      -0.17681403       0.20651372       0.01851457       0.29853655
H        5.42154468       5.94117641       4.51809897       0.09524078      -0.26792202      -0.30368530      -0.68702600       0.28414245      -0.35661844
H        6.48858144       4.62692201       5.33219370       0.08800626       0.00226333      -0.24409424       0.15728568      -0.00230707       0.35931766
N        5.77858289       6.32680126       6.65881013      -0.36203024      -0.30216462      -0.77445272       0.14768594       0.17374870       0.98772230
8
Lattice="12.0 0.0 0.0 0.0 12.0 0.0 0.0 0.0 12.0" Properties=species:S:1:pos:R:3:momenta:R:3:forces:R:3 energy=-440.3892525771388 free_energy=-440.3892525771388 stress="-0.0013966991805171942 -0.0007172069479913466 1.5933226241413324e-05 -0.0007172069479913466 -0.0002714468755387165 0.0004139305531983607 1.5933226241413324e-05 0.0004139305531983607 0.0006419902386366269" pbc="T T T"
B        6.29979609       5.68958044       5.15325896       0.17446514      -0.10127572      -0.43833262      -0.04960456       1.22271313       2.69994028
H        6.45662401       5.99671677       7.47721008       0.06362848       0.10916137       0.03336178      -1.00442551       0.51847093      -1.10035669
H        4.82286392       5.93622545       7.06579236      -0.00119302      -0.18844130       0.06525659      -2.09387132      -1.01192333       0.31232316
H        5.65539029       7.37654269       6.80310510      -0.03572291       0.08039500      -0.03281759       0.03282746      -0.32862328      -0.31345640
H        7.17713608       6.43604181       5.02945937      -0.00914038      -0.12619587      -0.29670830       0.51460657      -0.08722247      -0.43554359
H        5.38997808       5.88473914       4.52278992       0.23699560      -0.18072454      -0.16997117      -1.12677119      -0.02013296      -1.22576439
H        6.52833890       4.62345731       5.51202464      -0.00564214      -0.12696150      -0.38309159       0.29585968      -0.80644922      -0.35338417
N        5.70394472       6.31908875       6.75736955      -0.72864537       0.52008239       1.33146453       3.43137887       0.51316719       0.41624180
8
Lattice="12.0 0.0 0.0 0.0 12.0 0.0 0.0 0.0 12.0" Properties=species:S:1:pos:R:3:momenta:R:3:forces:R:3 energy=-440.4473885245931 free_energy=-440.4473885245931 stress="0.0011797543538715402 0.00022509712220923872 6.0409275656812627e-05 0.00022509712220923872 0.0010123288211383262 -0.00026275129171688907 6.0409275656812627e-05 -0.00026275129171688907 0.0006685383915475712" pbc="T T T"
B        6.22634034       5.76018769       5.09598834      -0.45512233       0.27831041       0.71329515      -0.18484030       1.18893170       1.85197704
H        6.34717890       6.35236565       7.49123842      -0.22222817       0.19086139      -0.15818871       0.37006122      -0.10674049      -0.17333006
H        4.82156147       5.77279480       6.97848575      -0.09977127      -0.31097614       0.12554747       0.61606175       0.45193305      -0.27482692
H        5.32964260       7.36214255       6.55434775      -0.04044185      -0.07752890      -0.01683197       0.10059519      -0.14575329      -0.00601328
H        7.17843853       6.49660049       4.96722503      -0.20540214       0.07949455       0.19743134      -0.71781392      -0.83036902      -0.42936946
H        5.21258573       6.05146857       4.50876158       0.17779110       0.05959154       0.37446337       1.02243181      -0.62631864      -0.10545210
H        6.45424313       4.63785745       5.43609609      -0.21584863       0.20586733       0.20574346      -0.10968892       0.40751887      -0.83304696
N        5.66359446       6.37045039       6.69329579       0.72356129      -0.44105329      -1.32078084      -1.09680683      -0.33920218      -0.02993826
8
Lattice="12.0 0.0 0.0 0.0 12.0 0.0 0.0 0.0 12.0" Properties=species:S:1:pos:R:3:momenta:R:3:forces:R:3 energy=-440.45018016659213 free_energy=-440.45018016659213 stress="0.001076463226609437 0.00047186736283811556 -0.00014199552988362836 0.00047186736283811556 0.0013228522322450227 -0.0011115187099737475 -0.00014199552988362836 -0.0011115187099737475 -0.0005084288135142933" pbc="T T T"
B        6.09029301       5.84805892       5.41545064       0.22405586      -0.70777301      -1.68512285       0.46476051      -0.59394556      -2.22809933
H        6.40730647       6.50349334       7.39538710      -0.04361715       0.15855508       0.05496857       1.34166403       0.31266987       1.34249999
H        4.90375238       5.62981314       7.33207447       0.08417823       0.00170578       0.23233595       1.24268014       1.73657674      -0.92929492
H        5.05610940       7.30532269       6.75195265      -0.03151055       0.03244848       0.21034127      -0.08517417       0.01486708       0.10927487
H        7.09624762       6.48006333       5.18724770       0.27605555       0.35787750       0.15205849      -1.02950233      -0.28116242       0.14327858
H        5.17796072       6.02876608       4.60461290      -0.27647126       0.14323063      -0.11578792       1.23465950      -0.29173343       1.09335578
H        6.39941897       4.69467731       5.58106341       0.09941443      -0.26852094       0.32476868      -0.49590362       0.83757133      -0.08106585
N        5.56047548       6.38818505       6.84844405      -0.70872530       0.26525256       0.96112036      -2.67318405      -1.73484360       0.55005087
8
Lattice="12.0 0.0 0.0 0.0 12.0 0.0 0.0 0.0 12.0" Properties=species:S:1:pos:R:3:momenta:R:3:forces:R:3 energy=-440.04876526175667 free_energy=-440.04876526175667 stress="-0.0011500334465764448 -0.0004727073172426585 -0.000939163016692102 -0.0004727073172426585 -0.0015728486803712834 0.001370292116868481 -0.000939163016692102 0.001370292116868481 0.0018129703092432691" pbc="T T T"
B        6.20586101       5.79945270       5.23152403      -0.18344612       0.13453889       0.48308276      -1.75454260       0.20253698       1.34889233
H        6.43974977       6.68239227       7.49385108       0.13316439       0.14307278       0.17334595      -0.47544659      -0.10586107      -0.16028032
H        5.03551852       5.61188957       7.36135164       0.22842467       0.17926432      -0.23289403       0.25304225       0.45721370      -0.12962805
H        4.95884477       7.24773721       6.72037418       0.01049734      -0.01067368      -0.12684892       0.07021867      -0.01837403       0.13808717
H        7.04115523       6.42118088       4.91011999      -0.02009207      -0.12586931      -0.16587516       1.93450880       2.17240140      -0.18142483
H        5.34081666       5.82726457       4.50614892      -0.20382192      -0.01527771       0.03180969      -1.46492472       0.48229548      -0.34154248
H        6.54430262       4.75226279       5.32541204       0.19101551       0.11927202      -0.06800052       0.52633454      -2.12669991       1.13769201
N        5.57008264       6.42699274       6.94947953      -0.56722982      -0.44314583       0.05253184       0.91080965      -1.06351255      -1.81179583
8
Lattice="12.0 0.0 0.0 0.0 12.0 0.0 0.0 0.0 12.0" Properties=species:S:1:pos:R:3:momenta:R:3:forces:R:3 energy=-440.3487966815065 free_energy=-440.3487966815065 stress="0.00036954806316557074 -3.3711169845924397e-05 0.002091772965224354 -3.3711169845924397e-05 0.00025361448591022627 -0.0001958925815151281 0.002091772965224354 -0.0001958925815151281 -0.001602526002750434" pbc="T T T"
B        6.23055607       5.88317139       5.29883131      -0.66752680       0.61017265       1.43864625       0.99280757      -1.37298483      -2.50274692
H        6.50983807       6.70206068       7.37670398       0.10134065      -0.07115208      -0.23648616      -1.20052365      -0.55052020      -1.31099787
H        5.20615136       5.65347379       7.13267367       0.09693865      -0.06124682      -0.08713469      -1.44904734      -2.07592668       1.30498250
H        5.06373565       7.19656733       6.54126058       0.12938128       0.06464320      -0.04774079       0.27269500      -0.12486481       0.10537421
H        6.93626435       6.77366625       4.91423738      -0.23434021      -0.42704855      -0.04519615      -0.27666854      -0.87930502       0.00844635
H        5.25158558       5.73216341       4.62329602       0.35200619      -0.26506227      -0.10619738       0.64884455       0.20377742       0.37498879
H        6.73627811       4.80343267       5.53161370       0.09439214       0.40410307      -0.33521174      -0.12571155       1.17427479      -0.40100106
N        5.72467071       6.37452574       6.66982472      -0.30805034      -0.27434225      -0.42481266       1.13760396       3.62554932       2.42095401
8
Lattice="12.0 0.0 0.0 0.0 12.0 0.0 0.0 0.0 12.0" Properties=species:S:1:pos:R:3:momenta:R:3:forces:R:3 energy=-440.1619525557926 free_energy=-440.1619525557926 stress="0.0003829997758708929 -0.00029446245014861137 -7.31360423105564e-05 -0.00029446245014861137 0.001087361714837925 -7.39458142829889e-05 -7.31360423105564e-05 -7.39458142829889e-05 0.001250953690900301" pbc="T T T"
B        6.25767952       5.67385630       5.06900979       0.26669604      -0.04925888      -0.86738285      -0.92509951       1.16427807       2.90130125
H        6.46275139       6.48334271       7.34412504      -0.37970222       0.03089774       0.03112455       0.04997559      -0.00195526      -0.23573827
H        5.05903542       5.56249481       7.30871318      -0.18466612      -0.25628958       0.17633606      -0.25159946      -0.59435653      -0.16220909
H        5.03172019       7.15239508       6.73101494       0.09853555       0.02055680       0.01828605      -0.06155509       0.05939126      -0.42608459
H        6.62301849       6.79285034       4.75132758      -0.07538539       0.01352099      -0.24688141       0.18835810      -1.49145442      -0.25726147
H        5.20582055       5.31164980       4.65587496      -0.07439172      -0.30255611      -0.13880208       0.55351950      -0.10425127      -0.43385570
H        6.96827981       4.84760492       5.60732679       0.16930790      -0.12707062      -0.13996583      -0.17841679       0.68758636      -1.32713537
N        5.60321414       6.27190165       6.77039076      -0.26130753       0.65003542       1.32495991       0.62481766       0.28076179      -0.05901677
8
Lattice="12.0 0.0 0.0 0.0 12.0 0.0 0.0 0.0 12.0" Properties=species:S:1:pos:R:3:momenta:R:3:forces:R:3 energy=-440.36832308736484 free_energy=-440.36832308736484 stress="-0.001073220215089413 8.123623405025133e-05 -0.0013500247833717711 8.123623405025133e-05 0.0005764928988910759 -0.0004010563438236324 -0.0013500247833717711 -0.0004010563438236324 0.00024619305975165465" pbc="T T T"
B        6.14366853       5.61200796       5.10091718      -0.32095621       0.38336341       0.75847134       0.07160456       1.93591536       1.83579532
H        6.25285222       6.42043733       7.40878818      -0.04333548       0.06000360       0.01546205       2.07396141       0.61746808       1.56752160
H        4.92593830       5.35778070       7.11147003       0.09364931      -0.02818219       0.03163630       1.10364538       1.61474266      -0.54871472
H        4.93125830       7.00831299       6.53506799       0.07104577       0.04876238       0.04827596      -0.43735819       0.55732222      -0.06537617
H        6.30358238       6.66901632       4.59121182      -0.35860078       0.33652364       0.26342834       0.27060318      -0.53454675      -0.07099129
H        5.18857799       5.08148938       4.79009340      -0.19238326      -0.00083271       0.43603671      -0.71992667      -0.81240892      -0.62159713
H        7.07406170       4.99168701       5.42563902       0.04017847      -0.03796489       0.49820300       0.17448379      -0.20664838      -0.29066011
N        5.53328167       6.19753647       6.75159564       0.27223123      -0.78171206      -1.89482005      -2.53701346      -3.17184427      -1.80597751
8
Lattice="12.0 0.0 0.0 0.0 12.0 0.0 0.0 0.0 12.0" Properties=species:S:1:pos:R:3:momenta:R:3:forces:R:3 energy=-440.48966849993144 free_energy=-440.48966849993144 stress="-0.0011340408323497182 0.00033921217624826607 -7.181539702844457e-05 0.00033921217624826607 -0.0010644623006337533 -0.0002773803525714235 -7.181539702844457e-05 -0.0002773803525714235 -0.001186080729113766" pbc="T T T"
B        6.09979021       5.71616476       5.35333886       0.61994395      -0.98029418      -2.19814068       0.69424500       0.15133321      -1.32435654
H        6.43575894       6.52583853       7.26221206       0.19458748       0.25146248       0.17271777      -0.10588765       0.23950942       0.44155356
H        5.12220182       5.39367431       7.30238954       0.24776564       0.18120392       0.02782618       0.06266998       0.45044230      -0.00712305
H        4.88513128       6.99660511       6.65575263      -0.09197867       0.11081946       0.09046827      -0.26781336       0.15929854       0.22877398
H        6.31058946       6.62820127       4.69761046      -0.14673393       0.30833001       0.06903878      -0.26004735       0.98413101      -0.23020343
H        5.38475022       5.00339489       4.83465505      -0.10064871       0.06681426       0.16332092      -0.91843694      -0.66351143      -0.05249981
H        7.11486872       5.26450492       5.55526420       0.07451273       0.02398117       0.32896472       1.00245339      -0.91812782       0.49317626
N        5.56069787       6.20842625       6.78414882      -1.22656505       0.01805817       1.49925976      -0.20718308      -0.40307522       0.45067901
8
Lattice="12.0 0.0 0.0 0.0 12.0 0.0 0.0 0.0 12.0" Properties=species:S:1:pos:R:3:momenta:R:3:forces:R:3 energy=-440.0514550643106 free_energy=-440.0514550643106 stress="0.0018807905706508122 0.0003058159275964351 -0.0003150413071294508 0.0003058159275964351 0.00010014486698633817 0.001953747585952927 -0.0003150413071294508 0.001953747585952927 0.0024877750567467035" pbc="T T T"
B        6.26367298       5.77096073       5.19671915      -0.35186779      -0.09597902       0.24648526      -0.81629048      -0.64677934      -0.44315384
H        6.34533805       6.98289746       7.45772024      -0.09507621       0.18350517       0.00883305      -1.50692083      -1.20248351      -1.07054186
H        5.37584228       5.53028054       7.48699743       0.20904346      -0.12647408      -0.04106748      -0.38573835      -1.97253047       1.21846469
H        4.69609842       6.90913297       6.75215164      -0.06649525      -0.08907408      -0.16534508       0.58964449      -0.22040173       0.11637984
H        6.41762517       6.72339644       4.51300257       0.10623329      -0.26971625       0.00968502      -0.46781604       0.25807648       0.67934822
H        5.39628270       5.01710254       4.77022896       0.17079369       0.22437465       0.05089898       0.69573686       0.96348970       0.88922248
H        7.30390158       5.21909157       5.30299781      -0.21171353       0.21336436      -0.16673038      -0.33897705       0.10895066       0.94021625
N        5.58351790       6.36138830       6.95909468      -0.17439707      -0.05891035       0.20510437       2.23036141       2.71167822      -2.32993578
8
Lattice="12.0 0.0 0.0 0.0 12.0 0.0 0.0 0.0 12.0" Properties=species:S:1:pos:R:3:momenta:R:3:forces:R:3 energy=-440.42957305231494 free_energy=-440.42957305231494 stress="0.0010521704417007294 0.0004897404224030796 0.0013580089611758728 0.0004897404224030796 0.0014261775791016768 -0.0009119685793174199 0.0013580089611758728 -0.0009119685793174199 -0.0013315189245594967" pbc="T T T"
B        6.27315322       5.75618537       5.24709027      -0.79318357       0.65698102       2.06809278       0.29028010      -1.84937644      -2.21497950
H        6.29926218       7.00949957       7.04856291      -0.16987219      -0.13193062      -0.33573849      -0.18819977      -0.19975613      -0.21904396
H        5.78032401       5.41349978       7.36098698       0.21760236      -0.18225118       0.21248680      -0.05178843       0.54395704      -0.65723151
H        4.71790715       6.51646329       6.59517050       0.02422834      -0.00918114       0.08030168       0.36831724       0.01255746      -0.05098713
H        6.39101900       6.78021979       4.63901302       0.17949294       0.01609069      -0.16979974       0.13205342      -0.83471013       0.09217626
H        5.39765404       4.99050043       4.81209049      -0.07316277      -0.15099510      -0.20925269       1.29853928       1.16134710       0.39612330
H        7.28209285       5.14143881       5.52741466       0.16846691       0.02151492      -0.21255002      -0.73602213       0.76839690      -0.63549624
N        5.73597880       6.20677837       6.63335397       0.04758907      -0.23846864      -1.29091215      -1.11317970       0.39758421       3.28943879
8
Lattice="12.0 0.0 0.0 0.0 12.0 0.0 0.0 0.0 12.0" Properties=species:S:1:pos:R:3:momenta:R:3:forces:R:3 energy=-440.19163012262584 free_energy=-440.19163012262584 stress="-0.0013207580856313707 -0.0009585345724445756 -0.0005156378558058913 -0.0009585345724445756 -0.0013539862610310895 -0.00012623472847786928 -0.0005156378558058913 -0.00012623472847786928 0.0013991961676124952" pbc="T T T"
B        6.38112643       5.64970077       4.98570847       0.50129108      -0.11763545      -1.22649903      -1.16598874       0.23531825       3.14439754
H        6.18776804       7.06668311       6.92483972      -0.23960831       0.05470384       0.19668314       0.83631330       1.44959573       0.29682045
H        5.95429007       5.43173393       7.45102933       0.00672678       0.06414649       0.09913779      -0.48133431       1.53135079      -1.77542731
H        4.68462839       6.33075057       6.61108806       0.00220885       0.01474448       0.03240326       0.17096718      -0.00689742      -0.05160609
H        6.35662153       6.67352754       4.54897067      -0.05028700      -0.00426638      -0.13940446       0.44589604       1.57537537      -1.29310867
H        5.56747192       4.93331689       4.67757841      -0.15783303      -0.28518117      -0.05872894      -1.03236453      -0.94389673      -0.62678978
H        7.31537161       5.16960141       5.39466168       0.08151873      -0.06945327      -0.06552914       1.57498274      -0.41845810      -0.15012989
N        5.72657905       6.19490122       6.67709188      -0.52274079       0.32562135       1.29737217      -0.34847169      -3.42238788       0.45584375
8
Lattice="12.0 0.0 0.0 0.0 12.0 0.0 0.0 0.0 12.0" Properties=species:S:1:pos:R:3:momenta:R:3:forces:R:3 energy=-440.5455388906556 free_energy=-440.5455388906556 stress="0.0004120363633265881 -0.000400251647679226 -0.0005247391203552397 -0.000400251647679226 0.00034386432257417466 0.0001143262454276889 -0.0005247391203552397 0.0001143262454276889 0.0014225628632269184" pbc="T T T"
B        6.29492975       5.67682866       5.17836168      -0.34972262       0.46473439       0.67716633       0.19352181       1.23805032       0.86236767
H        6.06138254       7.14006424       7.12391308       0.07367985       0.13242627      -0.02463141      -0.27077582      -0.46458662      -0.17464676
H        5.91079319       5.44364091       7.50921054      -0.00742619       0.27373763      -0.29379931      -0.01536142       0.12543878      -0.02113825
H        4.59909638       6.24108659       6.72866105       0.05479818       0.07355899      -0.03532062       0.06628390       0.19268414       0.03891804
H        6.19505525       6.64597118       4.49078946      -0.30787380      -0.13736387       0.46859864       0.07201786      -0.38146915       0.51159913
H        5.53373730       4.85993576       4.92581428       0.14463951       0.09675810       0.31676456      -0.46038376      -0.70341697      -0.19557162
H        7.40090362       5.30491062       5.38765101      -0.33176292       0.12844390       0.34014523      -0.42183851       0.21625461       0.09101924
N        5.64291025       6.20769790       6.83774980       0.36376737      -1.04875468      -1.32021991       0.83653593      -0.22295509      -1.11254745
8
Lattice="12.0 0.0 0.0 0.0 12.0 0.0 0.0 0.0 12.0" Properties=species:S:1:pos:R:3:momenta:R:3:forces:R:3 energy=-440.3163441089447 free_energy=-440.3163441089447 stress="0.000739613657574554 0.0011074499074084775 0.000418998726457056 0.0011074499074084775 0.00035136338310997527 -6.242592340088217e-05 0.000418998726457056 -6.242592340088217e-05 -0.0016519070823530645" pbc="T T T"
B        6.19109000       5.81999256       5.36566695       0.60412203      -0.41648118      -1.61049528       2.04929971       0.10327487      -4.45832765
H        6.16280611       7.18231785       6.98905298      -0.06044187      -0.03849917       0.06175808      -0.97988108      -1.20326173      -0.04107448
H        5.86097244       5.57052683       7.46147668      -0.01698536       0.03973050       0.02011172       0.55798604      -1.72037211       1.87263560
H        4.60164512       6.40379661       6.74190655       0.00240190       0.12283060      -0.00259115       0.03063825       0.15789250       0.04796459
H        6.00282400       6.70847102       4.53852332      -0.23042885       0.03583560      -0.09686510      -0.31156900      -0.83571869       1.31442411
H        5.69208793       4.81768215       4.97772881       0.02918800      -0.09376047       0.10764885       0.08763321       0.28002958       0.60214073
H        7.39835488       5.75874166       5.42100437       0.15203913       0.05704014       0.00181782      -1.06699281      -0.30007111       0.50118180
N        5.64535861       6.25076093       6.75371989      -0.82165507       0.27767432       1.64083136      -0.36711432       3.51822669       0.16105531
8
Lattice="12.0 0.0 0.0 0.0 12.0 0.0 0.0 0.0 12.0" Properties=species:S:1:pos:R:3:momenta:R:3:forces:R:3 energy=-440.26174626826855 free_energy=-440.26174626826855 stress="-0.0003051387110843252 -0.00020458761316274646 -0.0010764540716509908 -0.00020458761316274646 -0.00014239477766229242 0.0005612940968272941 -0.0010764540716509908 0.0005612940968272941 0.0023234721014563607" pbc="T T T"
B        6.28191347       5.83756102       5.16898652      -0.34978066      -0.18399854       0.55400969      -0.38778959       0.87272338       0.46230350
H        6.03724785       7.25168849       7.30597548      -0.16264208      -0.21018733      -0.02623672       0.32979368       0.53434146      -0.03495248
H        5.74732041       5.58199440       7.60107389       0.09306337      -0.24397801       0.12635283       0.18692296      -0.04419997      -0.05967705
H        4.56174900       6.50662587       6.80578156       0.03923672       0.04736624      -0.05133342      -0.33593589       0.18110329      -0.11815541
H        5.84106462       6.61607172       4.39892611      -0.00118421       0.01213392      -0.29917686      -0.39380333      -0.00807124       0.53502825
H        5.88113626       4.74831151       5.04093462       0.07639590      -0.06327078      -0.11192280      -0.13950916      -0.09120636       0.34608709
H        7.43825100       5.97000314       5.21317772       0.15521759       0.18895433      -0.22690000       0.22437877      -0.14742333       0.65030209
N        5.58620459       6.38916096       6.95127808      -0.17263164       0.43823933       0.15047342       0.51594257      -1.29726724      -1.78093599
8
Lattice="12.0 0.0 0.0 0.0 12.0 0.0 0.0 0.0 12.0" Properties=species:S:1:pos:R:3:momenta:R:3:forces:R:3 energy=-440.4759114980929 free_energy=-440.4759114980929 stress="-0.001603161730068881 -0.00040367488577421295 0.0002211965088789596 -0.00040367488577421295 -0.0010427293770808048 -0.0011065542085541798 0.0002211965088789596 -0.0011065542085541798 -0.001642031887169422" pbc="T T T"
B        6.24724774       5.93424790       5.26728579      -0.85990973       0.27148352       2.06330308      -0.34141312      -1.08878876       0.02498531
H        6.14285450       7.20112232       6.97626384       0.04593761       0.10465685      -0.11066470       0.88355999       1.96798380       0.75689090
H        5.88056952       5.58410593       7.43811513       0.09576815       0.05051582      -0.04522870      -0.18982066       1.04890108      -0.96387242
H        4.64540748       6.50593243       6.69478769      -0.01168869       0.01446685      -0.03601120      -0.59493373       0.11928729      -0.11312838
H        5.65204450       6.59648329       4.56188487       0.14677191      -0.00808813      -0.09882627      -0.25195778       0.48479323      -1.05492301
H        6.00842804       4.79887768       5.22552600       0.04903084       0.13485096      -0.07519354      -0.03037695      -0.25469709      -0.48238889
H        7.35459252       6.15365695       5.37394465      -0.12324414       0.18139842      -0.16478622       1.18066288       0.23989180      -0.31684709
N        5.67491913       6.35339128       6.69442232       0.34822025      -0.76342095      -1.42205075      -0.65572062      -2.51737135       2.14928358
8
Lattice="12.0 0.0 0.0 0.0 12.0 0.0 0.0 0.0 12.0" Properties=species:S:1:pos:R:3:momenta:R:3:forces:R:3 energy=-440.50322534401846 free_energy=-440.50322534401846 stress="0.00020595448850848892 5.629974564594479e-05 -0.00034566252089992313 5.629974564594479e-05 0.0007844649693215861 0.0005083079607602128 -0.00034566252089992313 0.0005083079607602128 0.0008424229956357987" pbc="T T T"
B        6.28641283       5.85767692       5.11796393       0.55757719      -0.34149708      -1.37756988      -0.59278415      -0.95968037       2.34312144
H        5.94871030       7.31891884       7.03596201      -0.10475275       0.35171921       0.16585891      -0.17944117      -0.47068185      -0.19325230
H        5.95821466       5.65324190       7.51632549       0.02779740       0.20074829      -0.05035911       0.17909817      -0.04720678      -0.01138533
H        4.57842231       6.29226660       6.73212122      -0.13975227      -0.06748666       0.05951512      -0.02662711       0.09468512      -0.05206279
H        5.58881358       6.53072632       4.48367451       0.17938734      -0.12625241      -0.00181671       0.16427085       0.24720852      -0.60050862
H        6.04102680       4.68108116       5.13067557       0.00536013       0.13297687      -0.02948118       0.07135185       0.82370403      -0.25482184
H        7.42157769       6.08776309       5.29931796      -0.15619984      -0.10016512      -0.23585749      -0.00949118       0.26211310      -0.47659779
N        5.62509884       6.33702036       6.79449402      -0.66609453      -0.06361100       1.57580467       0.39362274       0.04985823      -0.75449278
8
Lattice="12.0 0.0 0.0 0.0 12.0 0.0 0.0 0.0 12.0" Properties=species:S:1:pos:R:3:momenta:R:3:forces:R:3 energy=-440.416384703768 free_energy=-440.416384703768 stress="0.0013549558234081834 0.0004985376111802227 -0.0004168866282336923 0.0004985376111802227 0.0021484681344810363 0.0007269969891939819 -0.0004168866282336923 0.0007269969891939819 0.0012579945797897144" pbc="T T T"
B        6.25016915       5.81523636       5.17227546      -0.54514053       0.56196248       0.98380294      -0.04607688      -0.43991546       1.06141716
H        5.71394699       7.36845479       7.02108458      -0.09146269      -0.05269095      -0.15107516      -0.32107906      -1.90119647      -0.33171510
H        6.10310971       5.76177083       7.56759701       0.23378041       0.04366529       0.03272521       0.81505693      -0.69868310       0.90368446
H        4.55922769       6.00438031       6.89136722      -0.01224584      -0.05376657      -0.00701356       0.53092550       0.36613975      -0.06788509
H        5.62105943       6.52205491       4.43240299      -0.12595759       0.06696700       0.22293121       0.54995370      -0.37638037       0.51996288
H        5.96029973       4.63154521       5.11963507      -0.05169626      -0.13285870       0.11068769       0.25029808       1.23856564       0.08132278
H        7.44077231       6.01688976       5.32331600      -0.07458234      -0.03425268       0.33669281      -1.21868093      -0.01868181      -0.28709182
N        5.58351224       6.29043789       6.86196493       0.37996911      -0.41216656      -1.42599744      -0.56039734       1.83015182      -1.87969527
8
Lattice="12.0 0.0 0.0 0.0 12.0 0.0 0.0 0.0 12.0" Properties=species:S:1:pos:R:3:momenta:R:3:forces:R:3 energy=-440.51224927420117 free_energy=-440.51224927420117 stress="-0.00014242763182842374 0.0002764221860225516 0.0007516814635318568 0.0002764221860225516 -0.0005778602992772164 -0.0008674496695261712 0.0007516814635318568 -0.0008674496695261712 -0.001772948414362659" pbc="T T T"
B        6.19684267       5.82582037       5.29353970       0.44167926      -0.05962887      -1.33132240       0.88926023       0.04202362      -2.25445392
H        5.59821061       7.26987270       6.72685922      -0.16556933      -0.21174760       0.08956762      -0.17471657      -0.17390834       0.28697289
H        6.27980070       5.85875114       7.46995374       0.15479767       0.00983927       0.24511843      -0.64247353       0.37780161      -0.61826584
H        4.66538497       5.80389213       6.85928219      -0.01779503      -0.00901174      -0.02003643       0.36787796       0.37548075      -0.10089281
H        5.67285527       6.52045020       4.53004626      -0.21743121       0.04489402      -0.09307660      -0.32453050       0.17680004      -0.24025819
H        5.93810155       4.73012730       5.12018222      -0.05498625      -0.34700270      -0.02621249      -0.08560840      -0.95866345      -0.11069261
H        7.33461503       6.05026786       5.29673545       0.27280870      -0.04931171       0.03032978       0.32289548      -0.06061949       0.19153382
N        5.63368023       6.21418678       6.68236257      -0.69468189       0.60911026       1.20618374      -0.35270466       0.22108526       2.84605667
8
Lattice="12.0 0.0 0.0 0.0 12.0 0.0 0.0 0.0 12.0" Properties=species:S:1:pos:R:3:momenta:R:3:forces:R:3 energy=-440.20122992924075 free_energy=-440.20122992924075 stress="-4.219215917139883e-06 -0.00044632766257865063 -0.000475793708067296 -0.00044632766257865063 -0.0015753863201124682 0.00021789203178071927 -0.000475793708067296 0.00021789203178071927 0.0026137785691960065" pbc="T T T"
B        6.25699128       5.79220839       5.10493813      -0.02387668      -0.03488474      -0.08367559      -0.55456630       1.89775985       1.25177131
H        5.41274637       7.30576563       6.95902857      -0.02503239       0.01690431      -0.00069871      -0.15633997       1.41310558      -0.01165859
H        6.24256342       5.91849896       7.64602531      -0.03338633       0.06386393      -0.12496794      -1.16791967       0.77827451      -1.51108283
H        4.64754087       5.75211245       6.95690522       0.00541941       0.08570045       0.03417408       0.06407140       0.27345936      -0.07279440
H        5.66060322       6.44094573       4.35397469       0.07760303      -0.16824489       0.05725731      -0.64246960       0.24606842       0.00793167
H        6.03855312       4.69423437       5.07832568       0.08159157       0.16465731       0.00526882      -0.29421173      -1.66684045       0.16743002
H        7.35245913       6.12943825       5.13195149      -0.14459783       0.05724295      -0.08488569       0.81381487       0.05926443       0.46192290
N        5.54613732       6.29657144       6.88489551      -0.21385056      -0.19786753       0.29627407       1.93762099      -3.00109171      -0.29352007
8
Lattice="12.0 0.0 0.0 0.0 12.0 0.0 0.0 0.0 12.0" Properties=species:S:1:pos:R:3:momenta:R:3:forces:R:3 energy=-440.56947166880946 free_energy=-440.56947166880946 stress="0.00038643320974881363 0.00018814378405148996 0.0006894297404035972 0.00018814378405148996 0.0013109795570601897 -0.0005722992815491493 0.0006894297404035972 -0.0005722992815491493 -0.0012462597550048117" pbc="T T T"
B        6.20484386       5.87379893       5.30828151      -0.78264029       0.13367994       1.75484620       0.57673990      -0.10940884      -2.17875075
H        5.56102422       7.32510938       6.78540948       0.01943419       0.08945400      -0.06349169      -0.10870463      -0.74707125       0.14373351
H        6.28103371       5.93744370       7.47977778      -0.19667333       0.08300087      -0.27511717       0.51140304      -0.14006101       0.54339742
H        4.69230221       5.83264112       6.95566573       0.04066771       0.06988998      -0.13417060      -0.26277555       0.06028391      -0.15583647
H        5.44873771       6.41852656       4.52022222       0.09356147      -0.07333246       0.05723891       0.86111255      -0.70813101       0.71946184
H        6.21104720       4.67489062       5.24701470       0.03249596       0.27009548       0.03927064      -0.01080196       0.86236995      -0.00605443
H        7.30769779       6.36481674       5.31333035      -0.23761719       0.17740106      -0.07064449      -0.84923893      -0.47310741      -0.17488815
N        5.62861323       6.25798367       6.73798558       0.75351589      -0.76286857      -1.20878286      -0.71773442       1.25512566       1.10893702
8
Lattice="12.0 0.0 0.0 0.0 12.0 0.0 0.0 0.0 12.0" Properties=species:S:1:pos:R:3:momenta:R:3:forces:R:3 energy=-440.48056079050616 free_energy=-440.48056079050616 stress="7.905167439063048e-05 0.00013329894698307964 -0.0009163416127089083 0.00013329894698307964 0.0010915325636151755 0.0006012353390748526 -0.0009163416127089083 0.0006012353390748526 0.0003679236077998272" pbc="T T T"
B        6.29370820       5.84339404       5.13653991       0.52289295      -0.48956853      -1.12117503      -0.48999644      -0.65465625       1.56792428
H        5.57261418       7.33873515       6.92147585      -0.08290149      -0.10462730       0.16402974       0.00550137      -1.20679831      -0.21245978
H        6.21121362       5.87120202       7.52214902       0.00104623      -0.01652079       0.07669927       1.69019334      -0.96178347       1.68901608
H        4.68631920       5.83200199       6.86035387      -0.04725451       0.08809448       0.04876950      -0.31379859       0.02854032      -0.10034855
H        5.35404060       6.14771908       4.47785098      -0.16434569      -0.03626182      -0.28693997       0.62966348       0.01807541      -0.01394291
H        6.44925278       4.66126485       5.29071912       0.11069145      -0.11585426      -0.06997761      -0.15381490       0.77708907      -0.31709963
H        7.31368080       6.44211590       5.08607521       0.15876480       0.17329536      -0.26836383      -0.46729793       0.04911213      -0.16729775
N        5.63333681       6.26852870       6.80537837      -0.77971298       0.48860021       1.55738127      -0.90045034       1.95042110      -2.44579174
8
Lattice="12.0 0.0 0.0 0.0 12.0 0.0 0.0 0.0 12.0" Properties=species:S:1:pos:R:3:momenta:R:3:forces:R:3 energy=-440.3884907871333 free_energy=-440.3884907871333 stress="-0.0010802049898301239 -0.0005765242395585251 -0.0007904892320750292 -0.0005765242395585251 -0.0015560231246250277 0.00046858889131016454 -0.0007904892320750292 0.00046858889131016454 0.0011094359165335055" pbc="T T T"
B        6.38364852       5.82139102       5.10178445      -0.53339726       0.44958403       0.99715909      -0.24322689      -0.59944949       2.79708246
H        5.69464599       7.27720597       6.90704891       0.00824060      -0.21606491      -0.17736553      -0.10872226       1.68236311       0.02949246
H        6.35356847       5.83421352       7.53642176       0.21504335      -0.05784283       0.09449484      -0.19520338       0.25016072      -0.41765642
H        4.75322681       5.84768060       6.93083612      -0.01435046       0.06858164      -0.01120941      -0.53198457      -0.11670295      -0.10032204
H        5.47225470       5.97607123       4.46357824      -0.19013957      -0.05395592       0.15331204      -1.14519784       0.39185185      -1.06712386
H        6.72007799       4.72279403       5.26607655       0.06225901       0.04150202       0.17073341      -0.06087666      -0.38610355       0.00959948
H        7.24677319       6.54841974       5.08098899      -0.04408876       0.04328452       0.22672173       0.94454822       1.04619147      -0.40287743
N        5.69738004       6.26486466       6.82427950       0.20539169      -0.28839869      -1.34976732       1.34066337      -2.26831116      -0.84819464
8
Lattice="12.0 0.0 0.0 0.0 12.0 0.0 0.0 0.0 12.0" Properties=species:S:1:pos:R:3:momenta:R:3:forces:R:3 energy=-440.448059688068 free_energy=-440.448059688068 stress="-0.0006663489198767876 8.184304936890467e-05 0.001217994435580392 8.184304936890467e-05 -0.0011155919201667314 -0.000836695967526892 0.001217994435580392 -0.000836695967526892 -0.0020749083003689783" pbc="T T T"
B        6.32062938       5.86965197       5.26760506       0.42157504      -0.25054980      -1.85382190       1.25552388      -0.66898026      -2.42670531
H        5.63020959       7.22936030       6.72379967      -0.25192812       0.21777490       0.12763915      -0.43688240       1.98094331       0.26844424
H        6.42776743       5.90965182       7.45245103       0.02311996       0.07599339       0.02542711      -0.76144955       0.52323897      -0.93902933
H        4.85852645       5.72972130       6.80391548      -0.04922680      -0.12594637      -0.05962131      -0.55588539      -0.07147062       0.16854186
H        5.42452434       5.98222343       4.54754897      -0.04334672      -0.08793143       0.26502049      -0.32671735      -0.03441981      -0.40240267
H        6.72617573       4.77063970       5.32060697       0.01864074       0.03227794       0.07039977      -0.03159309       0.11117006      -0.01040122
H        7.14147355       6.66517757       5.04065485      -0.02326885      -0.15480917       0.20481672       0.23009032      -0.02777456      -0.04503385
N        5.76203297       6.22742922       6.65183516      -0.41123604       0.27875402       1.33302650       0.62691357      -1.81270708       3.38658629
8
Lattice="12.0 0.0 0.0 0.0 12.0 0.0 0.0 0.0 12.0" Properties=species:S:1:pos:R:3:momenta:R:3:forces:R:3 energy=-440.10796136411227 free_energy=-440.10796136411227 stress="0.0004519350547466395 -0.00023897760118725742 -0.0011801170289761 -0.00023897760118725742 0.0018956528798320191 8.665735890905342e-05 -0.0011801170289761 8.665735890905342e-05 0.0028162358147721836" pbc="T T T"
B        6.30760079       5.83449583       5.14783563      -0.03774052       0.06629278      -0.48806073      -0.29084608       0.45169031      -0.30345047
H        5.20938302       7.30484016       6.98317606      -0.22192797       0.25456126      -0.05936344       0.39945111      -1.47560276      -0.14383921
H        6.34519711       6.15872214       7.64831141      -0.04838313       0.19606170      -0.13552806       0.73077647       0.04339416       0.33912252
H        4.83481466       5.56488399       7.17774503      -0.05248720      -0.10333313       0.18445015      -0.02178426       0.36810546      -0.27642688
H        5.41185142       5.97873515       4.35168859       0.05155411       0.01761878       0.07544468       0.12143879      -0.17116299       1.13961003
H        6.64054395       4.69515984       5.29481887       0.00673189      -0.07116354       0.01374224      -0.11409777       0.70740650       0.20771342
H        7.16518534       6.64215245       4.86251585      -0.00971813      -0.01864385       0.09268754      -0.54004559      -0.62990908       1.07676745
N        5.57720639       6.28564176       6.96461602      -0.03997321      -0.35748940       0.44248583      -0.28489268       0.70607840      -2.03949686
8
Lattice="12.0 0.0 0.0 0.0 12.0 0.0 0.0 0.0 12.0" Properties=species:S:1:pos:R:3:momenta:R:3:forces:R:3 energy=-440.5521171247323 free_energy=-440.5521171247323 stress="0.00028461500450745024 -0.0002170807649078223 0.00018189995137504633 -0.0002170807649078223 0.0014203460728388056 -0.0006534851469184801 0.00018189995137504633 -0.0006534851469184801 -0.0002520160686145007" pbc="T T T"
B        6.16870789       5.89778408       5.32624806      -1.09451734       0.53456001       2.64136812       0.01001060       1.27003990      -1.69670700
H        4.99453727       7.19450343       6.65910687      -0.03259935      -0.22095916      -0.06588834       0.87712248      -1.90527940       0.63637963
H        6.36753988       6.46006727       7.44782419       0.16831344       0.15874636       0.08822263       0.47731462       0.18483288       0.50790283
H        4.98728689       5.47215445       7.23827607       0.09412219      -0.09531503      -0.04801629       0.14511537       0.77486707      -0.39480525
H        5.28456135       6.11343902       4.55217581       0.06168909       0.07702883      -0.11862481       0.30461905      -0.29244938       0.58185517
H        6.53917452       4.80549657       5.28428847      -0.02130411      -0.12938252      -0.05856156       0.17401299      -0.40817617       0.33965774
H        7.01271311       6.72589849       5.15872068       0.00211848       0.13502077      -0.23393109      -0.25521813      -0.60092100       0.18696367
N        5.57153841       6.26314225       6.81108305       0.42367617      -0.47792387      -2.06206119      -1.73297697       0.97708609      -0.16124679
8
Lattice="12.0 0.0 0.0 0.0 12.0 0.0 0.0 0.0 12.0" Properties=species:S:1:pos:R:3:momenta:R:3:forces:R:3 energy=-440.3846259625677 free_energy=-440.3846259625677 stress="-0.0002577048827111094 0.00030872842066238836 -4.746939594830044e-05 0.00030872842066238836 -0.0011815112734346739 0.0006840186511609301 -4.746939594830044e-05 0.0006840186511609301 0.0008534100657922695" pbc="T T T"
B        6.29388638       5.95379558       5.14928661       0.50146747      -0.66828347      -1.17363381      -1.32773942       1.00784836       2.06782646
H        4.88568174       7.07286513       6.75354251       0.09761468      -0.23027084       0.17654324      -0.21023266       0.08711643       0.03204851
H        6.45087923       6.64776008       7.46419244       0.14193360       0.11579731       0.18958508      -1.46626810      -0.43594402      -1.18263061
H        5.28077508       5.38390854       7.10858910       0.00614305       0.04000280       0.05797494      -0.10909335       0.84577526      -0.04729411
H        5.33920817       6.00962765       4.53580756       0.15164235      -0.06751386      -0.37752458      -0.70338065       0.19999419      -0.91871433
H        6.64997444       4.92713487       5.36278678       0.10331070       0.04492028      -0.30239104       0.79067274      -2.08616302       0.14719821
H        7.11431826       6.71521089       5.03135826      -0.05595584       0.11135845      -0.35232976       0.89269215       1.14625050      -0.49173698
N        5.62990178       6.34213505       6.80502542      -1.38005151       0.63414605       1.93694062       2.13334928      -0.76487769       0.39330285
8
Lattice="12.0 0.0 0.0 0.0 12.0 0.0 0.0 0.0 12.0" Properties=species:S:1:pos:R:3:momenta:R:3:forces:R:3 energy=-440.1151895642256 free_energy=-440.1151895642256 stress="0.0014404856681633567 0.0005241502759841129 8.333929884003412e-05 0.0005241502759841129 0.0004848391912901175 0.00048767530695596067 8.333929884003412e-05 0.00048767530695596067 0.0020334175098390105" pbc="T T T"
B        6.37695067       5.93814439       5.05272215      -0.28344162       0.17131063       0.66124228      -0.34769674      -0.60371096       2.63377024
H        4.94498066       7.07147783       6.76182341      -0.01887901       0.06641337      -0.21046481      -1.05330351       0.83441914      -0.22568568
H        6.48131689       6.74201774       7.47457468      -0.21067041      -0.10638748      -0.27516529      -1.53083328      -0.81375532      -1.27116795
H        5.26896072       5.49226509       7.40002644      -0.00038407       0.12371751      -0.05538829      -0.09316879       0.06345197      -0.44507136
H        5.31383661       5.82480558       4.52542532       0.08113872      -0.08804528       0.34220193       0.74844362       0.17754262      -0.21657900
H        6.99425535       4.92852217       5.33026386      -0.15692633       0.41329464       0.05806604      -0.64518507       0.80610824      -0.49739526
H        7.05501934       6.90842091       5.00404978      -0.28324879      -0.10001650       0.13251776      -0.42424124      -0.14548700      -0.51985573
N        5.64195046       6.33328433       6.88638514       0.41694826      -0.50111651      -0.49013212       3.34598502      -0.31856869       0.54198473
8
Lattice="12.0 0.0 0.0 0.0 12.0 0.0 0.0 0.0 12.0" Properties=species:S:1:pos:R:3:momenta:R:3:forces:R:3 energy=-440.06960395360306 free_energy=-440.06960395360306 stress="0.0002410404867191967 -0.0008261595687200246 0.0013552787460316934 -0.0008261595687200246 0.001112569191971269 -0.000829246313764551 0.0013552787460316934 -0.000829246313764551 -0.0037052654967273434" pbc="T T T"
B        6.18407451       5.88351903       5.32391573      -0.12269678       0.00530831      -0.37093855       3.26664657      -1.50236715      -5.94288785
H        4.90203350       6.95741270       6.64255537      -0.10377655       0.05378982       0.18816752       0.63418117      -1.02267736      -0.01599244
H        6.34028489       6.51344221       7.36158314      -0.32977735      -0.19696449      -0.19317061       1.41526426       0.57744172       0.77979103
H        5.26071234       5.31804853       7.08930340       0.03658540       0.03542703      -0.14290029      -0.53185501      -0.26714451       0.17531322
H        5.27597927       5.48375514       4.63841686      -0.32409398      -0.31418070       0.18604834       0.65419980       0.28462508       0.69256342
H        7.09796650       5.04258730       5.39468828       0.20228366       0.01456000       0.27337307      -1.51113527       1.16752148       0.16213504
H        6.63489862       6.90406628       4.87787374      -0.00710591       0.24877426       0.11438342      -0.38306599      -0.65583539       0.31328593
N        5.66713932       6.18372331       6.66088926       0.18054361       0.13188108       0.11241142      -3.54423553       1.41843614       3.83579164
8
Lattice="12.0 0.0 0.0 0.0 12.0 0.0 0.0 0.0 12.0" Properties=species:S:1:pos:R:3:momenta:R:3:forces:R:3 energy=-439.97644165596535 free_energy=-439.97644165596535 stress="-0.0016745368658835165 -0.0015802593371653261 -0.0020958191181787832 -0.0015802593371653261 -0.0012432683773152546 0.0004146873558193038 -0.0020958191181787832 0.0004146873558193038 0.0018283526997558389" pbc="T T T"
B        6.22074387       5.70780991       5.12687214      -0.11704596      -0.19174022      -0.64780367       0.15797863      -0.17965777       1.18353854
H        4.79960830       6.88561718       6.87530749       0.15733502      -0.18730589       0.09330446       0.42436300      -0.94460556      -0.08432301
H        6.29674666       6.35120517       7.45532280       0.05238240       0.10806979       0.18414522       2.63470196       0.94416434       1.56731556
H        5.13071667       5.18443507       7.29103525      -0.08481693       0.10316311       0.20887271      -0.49986965      -0.39796947       0.00853286
H        5.46444373       5.11438282       4.54467720       0.04297091      -0.14631798      -0.12937115      -1.56116357      -1.05277689       0.03587585
H        7.20039170       5.11672247       5.28584778       0.35294339       0.04730985      -0.13960613       0.33836517      -0.18078708       0.74341280
H        6.37933121       6.66230583       4.54696574      -0.06678878       0.09229400      -0.05680124       0.18506695       1.78468297       0.22971650
N        5.50025202       6.08232862       6.93029306      -0.79905458       0.15339534       0.65250156      -1.67944249       0.02694945      -3.68406909
8
Lattice="12.0 0.0 0.0 0.0 12.0 0.0 0.0 0.0 12.0" Properties=species:S:1:pos:R:3:momenta:R:3:forces:R:3 energy=-440.4772990663764 free_energy=-440.4772990663764 stress="-0.0008004020216825714 0.0008858343304295834 -7.988989228105935e-05 0.0008858343304295834 -0.0006064487880283493 0.0004891739431116391 -7.988989228105935e-05 0.0004891739431116391 0.0007253548759481303" pbc="T T T"
B        6.13177240       5.83975802       5.10886305      -1.19124468       0.59932314       2.40574610      -1.20769620       0.59687147       0.69340420
H        4.81264881       6.86297522       6.54009350       0.08181897      -0.18026851      -0.14531281      -2.50859898       2.09062906      -0.39866149
H        6.26614714       6.57622041       7.35538669       0.21642813       0.12270509       0.05314637      -0.70348574      -0.43032811      -0.50714716
H        5.10380727       5.29722704       7.16379140       0.12280340      -0.12004928      -0.16879675      -0.41441291      -0.55419784       0.30472999
H        5.34564756       5.06976959       4.68969005       0.27959050       0.21708591      -0.04746740       0.19947157       0.09820800      -0.02323538
H        7.18735119       5.41362001       5.31682656      -0.06861290       0.07322040      -0.19522401       0.42169754      -0.04053853      -0.06473596
H        6.02207125       6.93023041       4.64461331      -0.01945621      -0.40260703      -0.25337762       0.37235795      -0.57719772       0.07519124
N        5.47954033       6.16694729       6.75680650       0.12890904      -0.32997871      -1.48787455       3.84066678      -1.18344634      -0.07954544
8
Lattice="12.0 0.0 0.0 0.0 12.0 0.0 0.0 0.0 12.0" Properties=species:S:1:pos:R:3:momenta:R:3:forces:R:3 energy=-440.3021899610855 free_energy=-440.3021899610855 stress="-0.0001049846877367413 0.0009959865833351184 0.0009233295513042235 0.0009959865833351184 0.0011110622185080148 0.00011204718192220039 0.0009233295513042235 0.00011204718192220039 -0.0008719748221673519" pbc="T T T"
B        6.20498308       5.88442720       5.15097561       0.41549073      -0.26018501      -1.23371503      -1.33951220       0.52824517       0.95795713
H        4.72873457       6.73387810       6.73951625      -0.39869548       0.12724435      -0.03143384      -1.74056856       0.87250017      -0.17831194
H        6.34208713       6.71945204       7.27734236       0.00336212       0.12252102      -0.12970561      -1.14313120      -0.62091747      -0.90807755
H        5.47223868       5.25806895       7.12134711       0.16254793      -0.12936404       0.10907226      -0.33530315      -0.33333770       0.33192458
H        5.42956985       4.98864166       4.88217005       0.15226256       0.05436385      -0.33190725       0.95140872       0.92021651      -0.71140678
H        7.27126543       5.53670460       5.50971968      -0.04564415      -0.03080622      -0.15883293       0.16945278      -0.03293817      -0.86972368
H        6.07184832       7.01135834       4.72265764       0.00255382      -0.14234698      -0.17492593       0.41933434      -1.37723762      -0.54579523
N        5.58736008       6.19605943       6.68673117      -0.71865265       0.23905538       2.10406671       3.01831927       0.04346910       1.92343348
8
Lattice="12.0 0.0 0.0 0.0 12.0 0.0 0.0 0.0 12.0" Properties=species:S:1:pos:R:3:momenta:R:3:forces:R:3 energy=-440.21542443129704 free_energy=-440.21542443129704 stress="0.0016281235647934331 -0.00044384721253185126 -0.0004089135629169787 -0.00044384721253185126 0.0008655794009543853 -0.00019568939436670694 -0.0004089135629169787 -0.00019568939436670694 0.0016954532604455872" pbc="T T T"
B        6.32041850       5.84827737       4.93737773       0.06958369       0.00717028      -0.01312415      -1.06029661       0.46721965       2.14516170
H        4.58964932       6.51265275       6.61496735      -0.31349552      -0.04598656      -0.07113311       1.86359488      -0.79804205       0.11122075
H        6.14141907       6.96024180       7.17357683      -0.26220672       0.01155153      -0.05241177       0.72598750       0.89097041       0.08117517
H        5.67222906       5.38120751       7.42912726       0.12231770      -0.03423259       0.11276306      -0.06039208      -0.11494570      -0.70256392
H        5.50793323       5.00266784       4.63898543      -0.27523093      -0.06300129       0.31533976       0.79759440       0.81975082      -0.24810695
H        7.41035068       5.49016119       5.22985807      -0.02984508      -0.07975220       0.21773020      -0.21463266      -0.03390116      -0.33524660
H        6.22992715       6.99733216       4.57087274      -0.19271907       0.26829811       0.29355367      -0.03917123      -1.12647992      -0.16730722
N        5.63412852       6.17820409       6.72916405       0.48635075      -0.08212298      -0.66137463      -2.01268421      -0.10457204      -0.88433293
8
Lattice="12.0 0.0 0.0 0.0 12.0 0.0 0.0 0.0 12.0" Properties=species:S:1:pos:R:3:momenta:R:3:forces:R:3 energy=-440.255735625601 free_energy=-440.255735625601 stress="0.00023264111244475144 -0.0002990336386223092 0.0006479569439493823 -0.0002990336386223092 -0.0016850111865205162 -0.00036291672526029493 0.0006479569439493823 -0.00036291672526029493 -0.002269521313439276" pbc="T T T"
B        6.28874614       5.81581037       5.28976465      -0.23503920       0.13916654      -0.03937770       1.48114543      -0.71076221      -2.17128429
H        4.64140839       6.10903700       6.66806843       0.13306885      -0.03908875       0.24536064       2.16436945      -0.11557093       0.44404576
H        6.10012003       6.96314504       7.12195762      -0.05049392       0.19110713       0.11733868       0.14993610       0.71864262       0.21115939
H        6.10157865       5.28055946       7.33635841       0.07433319       0.07165895       0.09676237      -0.70955378       0.52951345      -0.32547865
H        5.65485579       5.03685496       4.77930859      -0.17592241      -0.25661301       0.17903291      -0.98092060      -1.00054853      -0.30054714
H        7.35859161       5.44286904       5.35764940      -0.02576047       0.03559507       0.39318624       0.96383259      -0.48281860       0.54044994
H        6.32754798       6.73969476       4.66364159      -0.00321814       0.30890485       0.10498905      -0.41569868       1.76111130      -0.55577701
N        5.75273305       6.07600297       6.70387712      -0.08197611      -0.46742365      -0.96676218      -2.65311051      -0.69956711       2.15743199
8
Lattice="12.0 0.0 0.0 0.0 12.0 0.0 0.0 0.0 12.0" Properties=species:S:1:pos:R:3:momenta:R:3:forces:R:3 energy=-440.32142103955437 free_energy=-440.32142103955437 stress="0.001010360667081836 -0.00022890372399241368 -0.00061200916240693 -0.00022890372399241368 0.0006599365680140715 0.0004972297801954258 -0.00061200916240693 0.0004972297801954258 0.0018906385743747756" pbc="T T T"
B        6.26934155       5.76370857       5.14728866       0.10449456      -0.16555117      -0.75751737       0.72070674       0.12101822      -0.21240253
H        4.56178454       6.03374528       6.77848474       0.27524110       0.02753818      -0.01930143      -0.12648933      -0.14560331       0.26998256
H        5.98657705       7.06440996       7.06849937      -0.05139080       0.17168260       0.11314442      -0.81276008      -1.67716029      -0.18224686
H        6.08505096       5.33130539       7.44626274      -0.11910599       0.07324196       0.11354124      -0.76074700       0.43385350      -0.18849949
H        5.65762821       4.93559004       4.61279640       0.25819955       0.11510806       0.03835428      -0.46196893      -0.50348851       0.59800898
H        7.43821546       5.49492143       5.18431140      -0.25764365       0.18856330      -0.25665189      -0.84409068       0.17168643       0.77582248
H        6.11343455       6.74857301       4.55373726       0.05198599      -0.28414055       0.02367574      -0.20809420       0.60622305       0.36276549
N        5.60347143       6.06586500       6.84579070      -0.59992312      -0.14190660       0.86567757       2.49344349       0.99347092      -1.42343062
8
Lattice="12.0 0.0 0.0 0.0 12.0 0.0 0.0 0.0 12.0" Properties=species:S:1:pos:R:3:momenta:R:3:forces:R:3 energy=-440.47026003087205 free_energy=-440.47026003087205 stress="0.0009240621070001502 0.00013797310645741285 0.0008197980603478787 0.00013797310645741285 0.002111771709024519 -5.336128492231896e-05 0.0008197980603478787 -5.336128492231896e-05 0.0006867446789294135" pbc="T T T"
B        6.19512633       5.89330506       5.17784272      -0.84114458       0.27139233       1.93542809       0.48813729      -0.36589239       0.21292063
H        4.57982992       6.12787553       6.65369307      -0.03107125       0.01732842      -0.12270108      -1.48397352      -0.14567292       0.18463175
H        5.88714660       7.14126605       7.15187131       0.04313860      -0.25584432      -0.20667199      -0.44728093      -1.61783206      -0.66879224
H        5.94714433       5.41850086       7.43881365       0.10828599      -0.03458348      -0.35433328      -0.23973465       0.07341419      -0.22374185
H        5.60853061       4.85873395       4.90767911       0.09894481      -0.06007550      -0.12766813       0.80463621       0.99115549       0.01032239
H        7.42017008       5.78374964       5.37872604       0.18707506       0.11248162      -0.15099127      -1.81622727       0.24885215      -0.65230453
H        5.77732972       6.86202950       4.56118635      -0.03165975      -0.14084963      -0.17222975       0.68159787      -1.02176471       0.59239262
N        5.59432674       6.15524093       6.76814652       0.14644561       0.07551671      -0.68640308       2.01284501       1.83774025       0.54457122
8
Lattice="12.0 0.0 0.0 0.0 12.0 0.0 0.0 0.0 12.0" Properties=species:S:1:pos:R:3:momenta:R:3:forces:R:3 energy=-440.4215010159568 free_energy=-440.4215010159568 stress="-0.00071056396943278 -0.0003507748657228936 -8.209116777379088e-05 -0.0003507748657228936 -0.001298066980965447 -5.596781510019757e-05 -8.209116777379088e-05 -5.596781510019757e-05 -0.0006121828615901448" pbc="T T T"
B        6.28766758       5.98055790       5.14285529       0.17373819      -0.06065228      -1.21420812      -1.05335283       0.16580675       2.17503013
H        4.62810603       6.31933584       6.81272056      -0.15835522       0.08484977      -0.07593990       0.46602471      -0.29703209      -0.38270181
H        6.06319597       7.11471381       7.11334118      -0.10753975      -0.26909617      -0.16290352       0.45689016       0.97581533       0.00940341
H        6.00641235       5.49997556       7.38914296      -0.06392134       0.06938592       0.05856105       0.12002242      -0.66538601       0.03405334
H        5.96268518       4.88528619       5.02851988       0.02995887      -0.13020773      -0.08862009      -0.02090573      -0.62785009      -0.87776434
H        7.37189397       6.14940946       5.44791323       0.23075842       0.14668201       0.05482027       1.27635020       0.12326277      -0.79049162
H        5.69931537       6.81542309       4.61085704      -0.16153710      -0.04139112      -0.20600164       0.11209358       0.21708796      -0.95207329
N        5.68870103       6.23421086       6.71851471      -0.25075572       0.18635972       1.74431150      -1.35712251       0.10829539       0.78454418
8
Lattice="12.0 0.0 0.0 0.0 12.0 0.0 0.0 0.0 12.0" Properties=species:S:1:pos:R:3:momenta:R:3:forces:R:3 energy=-440.4716606814289 free_energy=-440.4716606814289 stress="3.779183716207111e-05 -0.0008452441610371997 -0.0008564707849205881 -0.0008452441610371997 -0.00127600146229589 -5.8800256623248137e-05 -0.0008564707849205881 -5.8800256623248137e-05 0.0009073230460794351" pbc="T T T"
B        6.30904204       6.00249200       5.09963380      -0.07841108       0.04678412      -0.22931271      -1.63053992       0.21726866       1.27996823
H        4.59626534       6.32667479       6.73588141       0.17596412       0.00692874       0.10465264       0.79824999      -0.20776031      -0.03772936
H        5.98545840       7.14770693       7.20180075      -0.12781958       0.07143408       0.22422341       0.94431245       2.30055576       0.63642137
H        5.93818233       5.51593953       7.45904021      -0.00155331       0.05569481       0.00300623       0.17082260      -0.67461930       0.18120387
H        6.13140971       4.85229307       4.95472660      -0.06843066       0.11080017       0.40380597      -0.10572959       0.08616301      -0.08974366
H        7.40373466       6.32864760       5.13275565      -0.16735782       0.03493461       0.37057879       0.89015015       0.27423640       0.21831767
H        5.58609999       6.74427409       4.54095979      -0.17693699      -0.10070942       0.40703956       0.18884924      -0.27378489      -0.20249297
N        5.66090052       6.27997143       6.81412242       0.14414203      -0.23960541      -1.17656714      -1.25611493      -1.72205933      -1.98594514
8
Lattice="12.0 0.0 0.0 0.0 12.0 0.0 0.0 0.0 12.0" Properties=species:S:1:pos:R:3:momenta:R:3:forces:R:3 energy=-440.31442327929244 free_energy=-440.31442327929244 stress="-0.0013952365135958351 0.0001304440776616714 0.0005316973251762223 0.0001304440776616714 5.4835568474956886e-05 -0.0001826474069044856 0.0005316973251762223 -0.0001826474069044856 -0.0014634253966800067" pbc="T T T"
B        6.22148791       5.98965345       5.42514400       0.35123409      -0.09303724      -0.70932742       1.56695295      -0.96073477      -4.49959531
H        4.66779016       6.13349478       6.86305519       0.12639190       0.03595294       0.23324423      -1.57286401      -0.15758633       0.39715245
H        6.00851913       7.16129542       7.18055721      -0.03197525       0.30651097       0.05834491      -0.36161756      -0.16982004       0.20160618
H        6.15047633       5.47382822       7.44097237       0.07909168       0.08433364       0.14215878      -0.14491484      -0.30716859       0.63132900
H        6.20034371       4.83870458       5.14140980      -0.00029906      -0.04587898       0.15063521      -0.30982678       0.30294970       0.59229950
H        7.33220984       6.33350368       5.33034586      -0.10801698      -0.01119260       0.19866310       0.18532195       0.10444085       0.75839201
H        5.66940470       6.57898202       4.55902763      -0.17638284       0.15865660       0.13559080      -0.55618961       0.06714778       0.95035951
N        5.68546805       6.20524607       6.86480346      -0.53794069      -0.44896903      -0.10277908       1.19313790       1.12077140       0.96845666
8
Lattice="12.0 0.0 0.0 0.0 12.0 0.0 0.0 0.0 12.0" Properties=species:S:1:pos:R:3:momenta:R:3:forces:R:3 energy=-440.2888214839428 free_energy=-440.2888214839428 stress="-0.00021320763819984804 -9.553628620185535e-05 -0.0006708701672406246 -9.553628620185535e-05 0.0012340454425744513 0.0005141966376085857 -0.0006708701672406246 0.0005141966376085857 0.0022975471333572073" pbc="T T T"
B        6.23359339       5.90106259       5.18365360      -0.19955441       0.12464191       0.21949642       0.64800276       0.43772081      -0.98504214
H        4.62360530       5.87755421       6.83284063      -0.15606444      -0.20515810      -0.18273575      -1.78177664      -0.61949709       0.24558869
H        5.70276152       7.23226997       7.05402311      -0.16869787       0.06862705      -0.05307677      -0.25895810      -1.70328805      -0.08369609
H        6.19712199       5.61114250       7.55749881       0.13830290       0.00412232       0.05050718      -0.16628325      -0.15850761       0.14851338
H        6.12706651       4.76773003       4.83915228       0.05419561      -0.01864331      -0.15260033      -0.14256417       0.27674392       0.99380611
H        7.37639470       6.28421224       5.12196430      -0.08439383      -0.11601085      -0.25001805      -0.87938662      -0.32534421       0.79585730
H        5.58954251       6.57552138       4.44250119       0.15293127       0.00760647      -0.25523163      -0.17555910      -0.06917606       0.91839574
N        5.59255592       6.15989917       6.90442380      -0.03417537       0.12121100       0.73003176       2.75652512       2.16134831      -2.03342300
8
Lattice="12.0 0.0 0.0 0.0 12.0 0.0 0.0 0.0 12.0" Properties=species:S:1:pos:R:3:momenta:R:3:forces:R:3 energy=-440.5868104875767 free_energy=-440.5868104875767 stress="0.0010433667140193168 0.0005777114600531365 0.00020556267964834128 0.0005777114600531365 -0.0003591490274688562 1.4584363210197862e-05 0.00020556267964834128 1.4584363210197862e-05 -0.0010176716201946501" pbc="T T T"
B        6.18747049       5.95189629       5.20282054      -0.77028320       0.14473340       1.96908603       0.42859895       0.18015363       0.47879927
H        4.67604926       5.65105321       6.86271778      -0.22149023      -0.22576174      -0.03136163       1.28122674       0.54638920      -0.22478367
H        5.43688872       7.17321134       7.01697480       0.00372063      -0.12319843      -0.23368554       0.13081594       0.08594300      -0.38057791
H        6.32832951       5.79487687       7.41639137       0.26283366       0.02887267      -0.16874534      -0.40097316      -0.06434276      -0.28701239
H        5.96444370       4.82678866       5.06271068       0.07120727      -0.12972271      -0.34836987       0.30567199      -0.49296067      -0.44851725
H        7.32395074       6.27087260       5.29171345       0.10541427       0.06487585      -0.19203807      -0.38199437      -0.17866599      -0.37442493
H        5.50145325       6.63187395       4.58360863       0.07458396       0.03180711      -0.27615541      -0.14496352       0.41391948      -0.72930168
N        5.62027673       6.17451295       6.71682262       0.17431763       0.19468789      -0.61155633      -1.21838257      -0.49043589       1.96581856
8
Lattice="12.0 0.0 0.0 0.0 12.0 0.0 0.0 0.0 12.0" Properties=species:S:1:pos:R:3:momenta:R:3:forces:R:3 energy=-440.3085848623756 free_energy=-440.3085848623756 stress="0.0006583738666713755 0.0007770652086645118 -0.00032052139007748614 0.0007770652086645118 -0.0012993466478428894 -7.40698660303561e-05 -0.00032052139007748614 -7.40698660303561e-05 0.000732829884930665" pbc="T T T"
B        6.24608720       5.95712068       5.03361513       0.37739725      -0.13523162      -1.09486410      -0.54451174       0.26186072       2.94034695
H        4.70429154       5.62846586       6.95545159      -0.00691968       0.04581863       0.04970965       2.13773691       0.84341982      -0.77585672
H        5.40404745       7.17054963       6.82536194      -0.09359116       0.03415976       0.10848209      -0.12871483       1.07875597      -0.15512467
H        6.36337216       5.97006186       7.47357982      -0.05167059       0.05790275       0.13112627      -0.41847449      -0.25545493      -0.86143861
H        6.10714574       4.82945037       4.95967454      -0.03128970       0.25024761      -0.01523214       0.16287165      -1.01593358      -0.69897013
H        7.29570846       6.36527290       5.26116444      -0.05395698       0.06246920      -0.18878347       0.80847775       0.17654345      -0.73135062
H        5.48588593       6.63574453       4.52642018       0.07509591      -0.28113107       0.09494480      -0.40686353       0.50854750      -1.03556197
N        5.64769897       6.17369550       6.69836589      -0.51811525      -0.04809461       1.02299021      -1.61052172      -1.59773896       1.31795578
8
Lattice="12.0 0.0 0.0 0.0 12.0 0.0 0.0 0.0 12.0" Properties=species:S:1:pos:R:3:momenta:R:3:forces:R:3 energy=-440.4996663028856 free_energy=-440.4996663028856 stress="0.0017715210197698872 -0.0004921858669920647 0.0004248704411333555 -0.0004921858669920647 0.0023478535506636406 0.00013460470967446327 0.0004248704411333555 0.00013460470967446327 0.0012848818119524255" pbc="T T T"
B        6.18303370       5.98495905       5.17373420      -0.40122096       0.05692176       0.29344518       0.10045517       0.03869719      -0.12285318
H        4.73588883       5.59012242       6.85217497       0.23207898       0.27008372       0.04443673       0.24934143       0.18383619       0.42771675
H        5.30792592       7.24014415       7.03784807      -0.04956934       0.07304140       0.17252033       0.39119001      -1.19041382      -0.26230135
H        6.35433715       5.89327751       7.50929276      -0.10280935       0.03806410      -0.04937999      -0.67742958       0.13382305      -0.32576425
H        6.27302228       4.75985585       5.08692389      -0.07170697       0.11208407       0.37487815      -0.28805159       1.55485538       0.07344923
H        7.26411117       6.53808232       5.16205234      -0.12493605       0.17365346       0.42101194      -1.07100362      -0.44248968       0.03327703
H        5.31776827       6.53240132       4.49070724      -0.11945754      -0.15626065       0.26063032       1.06270539      -0.83309945       0.84009006
N        5.58724964       6.21502152       6.84308173       0.32872020      -0.58171479      -1.40707702       0.23279279       0.55479115      -0.66361429
8
Lattice="12.0 0.0 0.0 0.0 12.0 0.0 0.0 0.0 12.0" Properties=species:S:1:pos:R:3:momenta:R:3:forces:R:3 energy=-440.3672769136709 free_energy=-440.3672769136709 stress="-0.0009518764928436421 -0.0010192784311054426 0.0003492878721803438 -0.0010192784311054426 0.0004729701070874565 -0.00012513268675524007 0.0003492878721803438 -0.00012513268675524007 -0.0010360791260109737" pbc="T T T"
B        6.26908544       5.91554757       5.34996606       0.17159870      -0.22413104      -0.94696423       0.10200629      -0.79904950      -3.28011835
H        4.83648017       5.60939874       6.96974385      -0.00278253       0.15493185      -0.00976786      -1.59880956      -1.00919943       0.52918329
H        5.60277622       7.17729728       6.93931156      -0.00501022      -0.13340739      -0.00633830      -0.03245091      -1.81694419       0.28741201
H        6.50870304       5.74778250       7.43432780      -0.14601416       0.06940390       0.02543075      -0.40455199      -0.04868097       0.52656943
H        6.65426572       4.82270272       5.15757408       0.24902541      -0.24408976      -0.02844213      -0.47557600      -0.10667896       0.52374228
H        7.16351983       6.59508531       5.13063656       0.14697939       0.30283978      -0.01759416       0.62836058       0.81126867       0.67666793
H        5.43765294       6.22590497       4.56567220      -0.33118571       0.02412138      -0.11636799      -0.12272059      -0.25621459       0.64599457
N        5.71691839       6.09218726       6.83705144      -0.39854708       0.03588262       1.21302537       1.90374218       3.22549897       0.09054885
8
Lattice="12.0 0.0 0.0 0.0 12.0 0.0 0.0 0.0 12.0" Properties=species:S:1:pos:R:3:momenta:R:3:forces:R:3 energy=-440.4032628615679 free_energy=-440.4032628615679 stress="-0.0009834355023954663 -8.057667796706404e-05 -0.0009616353778800082 -8.057667796706404e-05 -0.0014473594238201307 0.00045656477916835827 -0.0009616353778800082 0.00045656477916835827 0.0018597902837854438" pbc="T T T"
B        6.38602660       5.90872618       5.09635056      -0.24900254       0.23128063       0.74664156      -0.46443366       0.15404327       1.22537427
H        4.85746713       5.60830055       6.87153742      -0.14331071      -0.10868197      -0.14095021      -0.22096892      -0.31715481       0.16904241
H        5.59231812       7.13439751       7.04067220       0.01307813      -0.34788356      -0.11535980      -0.05297853       0.54474248      -0.06927581
H        6.43543999       5.75778478       7.57299185       0.09025196      -0.01837622      -0.23047020       0.50620568      -0.43313843       0.29913058
H        6.84837365       4.86560249       5.05723253       0.17207288       0.16079574      -0.12671302       0.26324954      -0.91518432       0.36425251
H        7.14253287       6.74119208       4.91283033      -0.14546305      -0.29361785      -0.39599238       0.63718703       0.84883214       0.31563486
H        5.46008341       6.01091777       4.42700815       0.14860421      -0.02725762      -0.15986322      -0.90631784       0.12336790      -0.02244888
N        5.76265453       6.12286359       6.87694321      -0.20955858       0.38895416       0.53833199       0.23805669      -0.00550822      -2.28170993
8
Lattice="12.0 0.0 0.0 0.0 12.0 0.0 0.0 0.0 12.0" Properties=species:S:1:pos:R:3:momenta:R:3:forces:R:3 energy=-440.2836342873747 free_energy=-440.2836342873747 stress="9.889125957158138e-05 0.0011214896624387773 0.0007024270323529495 0.0011214896624387773 -0.000892697627688559 -0.00037601563869607226 0.0007024270323529495 -0.00037601563869607226 -0.002297742411989772" pbc="T T T"
B        6.35338273       5.97838072       5.24305312      -0.73694881       0.11810666       1.36435139       0.33255126       0.26785870      -0.57655272
H        4.95562500       5.58111407       6.97441978       0.04924906       0.00241774      -0.02240971       0.77300818       0.15692812      -0.46540061
H        5.59280500       7.08231016       7.01030794      -0.09421161       0.03689914      -0.15110072      -0.76385594       3.25434592       0.26228371
H        6.56953148       5.88079493       7.38825449       0.08414847       0.11543834       0.00333739       0.70472604      -0.48601678       0.42064888
H        6.87599309       4.91768984       5.33573068       0.07270831       0.17099967      -0.21536993       0.17949287       0.48683053      -0.63331832
H        7.04437500       6.96534545       5.19922307      -0.14923993      -0.21460926      -0.08567111      -0.22630048      -1.00084197      -0.87098081
H        5.35507155       5.95293978       4.61174551       0.21545878       0.03890448      -0.20912232       0.60212311       0.22398602      -0.32541554
N        5.82897350       6.15929205       6.71671742       0.22499316      -0.28342437      -0.56463006      -1.60174504      -2.90309054       2.18873542
8
Lattice="12.0 0.0 0.0 0.0 12.0 0.0 0.0 0.0 12.0" Properties=species:S:1:pos:R:3:momenta:R:3:forces:R:3 energy=-440.31056273198305 free_energy=-440.31056273198305 stress="0.00026669709871937397 0.0003335774385559229 -0.00044767459618509875 0.0003335774385559229 0.0007735042757964267 0.00022833579958023425 -0.00044767459618509875 0.00022833579958023425 0.0006484806644583418" pbc="T T T"
B        6.33717703       5.98331134       4.97526393       0.47306060      -0.08084125      -1.25681483      -0.61459888       0.61699650       2.72027735
H        4.99136209       5.45861790       6.95511821       0.15947907       0.06733615       0.10308990      -0.26646564      -0.65978901      -0.00754328
H        5.25926300       7.10949567       6.80754794      -0.39264923       0.24788408       0.23666836      -0.08839104       0.27298368      -0.21620660
H        6.48499029       6.14917141       7.44902400      -0.01319951       0.17117932       0.19539062       0.32218242      -0.25545802      -0.00445948
H        6.79757159       4.89050433       5.10010248      -0.11894213      -0.06477957      -0.03110660       0.24843611       0.63363785      -0.54759176
H        7.00863791       7.00472770       4.98129413       0.01713168       0.02891353      -0.01955557      -0.48542807      -1.33989813      -0.61805491
H        5.23887995       6.00876799       4.55097600      -0.02656474      -0.04373811       0.09763379       0.42155864       0.14568172      -0.78335869
N        5.71517824       6.17016468       6.74069293      -0.44323536      -0.34172832       0.79804050       0.46270645       0.58584541      -0.54306263
8
Lattice="12.0 0.0 0.0 0.0 12.0 0.0 0.0 0.0 12.0" Properties=species:S:1:pos:R:3:momenta:R:3:forces:R:3 energy=-440.52312459873707 free_energy=-440.52312459873707 stress="0.0004088322404376862 -0.0009072871774259351 -0.00018892765494103907 -0.0009072871774259351 1.0169264192797464e-05 0.00037961690727417977 -0.00018892765494103907 0.00037961690727417977 0.0010186197386268222" pbc="T T T"
B        6.25919469       6.01839416       5.22418075      -0.42213283       0.17538564       0.90958020       0.77125708       0.44445039       0.88301068
H        5.25555147       5.30224969       7.11569348      -0.01331895      -0.19557674       0.07782955      -0.84731949      -1.63116851       0.70932381
H        4.96852985       7.02826450       6.97600226      -0.12684468      -0.00105344      -0.03259100       1.33751154      -1.57509683       0.00655927
H        6.55014467       6.39175759       7.48839331       0.10046153       0.20171696      -0.12917799      -0.29096703      -0.15697288       0.05188617
H        6.77818749       4.97173550       5.26845205      -0.19233890      -0.19514001       0.38482149      -0.04771501      -0.08079581      -0.03798570
H        7.03147015       6.90630623       5.09450911       0.07591179       0.35489644       0.42151919      -0.31510053      -0.22246334       0.12132080
H        5.34760683       6.08552294       4.51160669      -0.28362954      -0.05247923       0.22990185      -0.51354761      -0.02037827       0.11186306
N        5.68511485       6.19661166       6.92177276       0.50308883      -0.30415870      -1.73357239      -0.09411895       3.24242525      -1.84597809
8
Lattice="12.0 0.0 0.0 0.0 12.0 0.0 0.0 0.0 12.0" Properties=species:S:1:pos:R:3:momenta:R:3:forces:R:3 energy=-440.38895780407853 free_energy=-440.38895780407853 stress="-0.00038712397012018103 -0.000318648224671467 4.760735278436746e-05 -0.000318648224671467 -0.0005925665357459867 -7.63353312467412e-05 4.760735278436746e-05 -7.63353312467412e-05 -0.0007722415213281934" pbc="T T T"
B        6.33519080       6.03676554       5.29096191       0.24928020      -0.26465712      -1.95307702      -0.08367163      -0.16393900      -1.15247373
H        5.46519938       5.24170254       7.17279468      -0.17140572      -0.34981196       0.05952525       0.42839949       1.07509731      -0.01492635
H        4.99445249       6.89657655       6.76008648       0.06833619      -0.17052697      -0.06269866       0.90967995      -0.83376875       0.36887958
H        6.60051377       6.61216458       7.40145151      -0.02855288       0.14731296       0.14982699      -0.47431528      -0.46901087       0.01815768
H        6.94620327       5.10342345       5.11170369      -0.00784499       0.01124683       0.02018709       0.27824872      -1.39735434       0.43056095
H        7.00554751       6.88448362       5.03130494      -0.04771936       0.15099388      -0.01090338       1.06643116       1.82556193       0.17155496
H        5.43660160       6.12412126       4.59854849       0.08811735      -0.09764088       0.03920831      -1.05579125      -0.27207195      -0.28550467
N        5.81739097       6.19589451       6.81399791      -0.52771881       0.55581873       1.89293148      -1.06898115       0.23548568       0.46375159
8
Lattice="12.0 0.0 0.0 0.0 12.0 0.0 0.0 0.0 12.0" Properties=species:S:1:pos:R:3:momenta:R:3:forces:R:3 energy=-440.0846474422199 free_energy=-440.0846474422199 stress="0.0016554338726393481 0.0007744209476599187 -0.00026539491518586374 0.0007744209476599187 0.0020295862122088016 -0.000307894040513033 -0.00026539491518586374 -0.000307894040513033 0.002852665334090242" pbc="T T T"
B        6.36515185       5.97943229       5.04655388      -0.23975244      -0.03283886       0.60696105      -0.92454948      -0.72444232       0.66263088
H        5.43036298       5.12757792       7.27381357      -0.03027503       0.02173266      -0.10468057       0.87440940       2.64421756      -0.91185918
H        4.90008462       6.77493304       6.98631296       0.00020934      -0.05911043       0.11960375      -0.91772630       0.70067908      -0.20226366
H        6.50668613       6.56184722       7.54438131       0.10728792       0.00797718      -0.16469426      -0.62499355      -0.57577390      -0.66258382
H        7.09991538       5.01357765       5.14907610       0.10897709       0.29144906      -0.16892273      -0.87271088       0.83385452      -0.02692382
H        6.94479989       6.98642235       4.80008278      -0.17486495      -0.25022791      -0.24482583      -0.37921969      -0.14142119       0.42675386
H        5.29044009       5.82521288       4.45561869       0.24928663      -0.00096676      -0.05585535       1.41626207       0.10261228       0.84420129
N        5.72382706       6.16010864       6.92630941      -0.42651693       0.00343358       0.15747724       1.42852843      -2.83972605      -0.12995555
8
Lattice="12.0 0.0 0.0 0.0 12.0 0.0 0.0 0.0 12.0" Properties=species:S:1:pos:R:3:momenta:R:3:forces:R:3 energy=-440.314083735007 free_energy=-440.314083735007 stress="0.0008648704697395546 0.00027043805120583717 0.0016601939524831205 0.00027043805120583717 0.0014718493254477277 -1.9547361571826127e-05 0.0016601939524831205 -1.9547361571826127e-05 -0.0025247743643542647" pbc="T T T"
B        6.18536091       5.83150738       5.24094725      -0.84381672       0.35321179       1.87247492       0.42657480      -0.87446917      -1.28328413
H        5.36040744       5.02674808       7.12983374      -0.03983235       0.46734042      -0.14565901       0.27226033       0.58801781      -0.26259746
H        4.90324286       6.65943895       6.81280030      -0.09792734       0.06586064      -0.12166478       0.42409101      -0.56646865      -0.09124694
H        6.49050846       6.32425215       7.33191658      -0.17249315      -0.03161213      -0.04786497      -0.49075988      -0.40621652      -0.34646804
H        7.09675714       5.06724427       5.41386414       0.30884889       0.08909812       0.06819565      -0.31640846       0.58030699      -0.98299909
H        6.46494655       6.97325192       5.07245308      -0.11209171       0.08249370      -0.14943314       0.12254666      -0.60302118      -0.99328482
H        5.23262270       5.34392551       4.66808342      -0.24678082      -0.14572878      -0.08322176       1.13211525       0.69514006       0.03400195
N        5.70376004       5.95074259       6.70528208       0.74594990      -0.90161596      -1.22899099      -1.57041970       0.58671067       3.92587852
8
Lattice="12.0 0.0 0.0 0.0 12.0 0.0 0.0 0.0 12.0" Properties=species:S:1:pos:R:3:momenta:R:3:forces:R:3 energy=-440.13273437623036 free_energy=-440.13273437623036 stress="-0.0007206393309416653 -0.0015241919826187108 -0.0009582698422041373 -0.0015241919826187108 -0.0014997473427264655 0.0006499925358698281 -0.0009582698422041373 0.0006499925358698281 0.0010283092980561336" pbc="T T T"
B        6.21755928       5.82532413       4.92228228       0.39048662       0.07850997      -2.20790886      -0.89510705       0.77632571       2.78064192
H        5.27526895       5.05413439       6.98771029      -0.04748867       0.21132043       0.01160489      -0.91587967      -2.60259320       0.70015689
H        4.78540592       6.70610571       6.78999445      -0.02021016      -0.16480835       0.30109979       1.57971528      -1.51730508      -0.15771795
H        6.37952356       6.28918380       7.39459779      -0.22160169      -0.01907071       0.03925498       0.13174915      -0.03049648      -0.04480161
H        7.21459408       5.30543202       5.04583147       0.09765332       0.07207793       0.18191970       1.42171532      -0.24335678       0.15584350
H        6.12754312       6.94586561       4.69734327      -0.09583252      -0.05925032       0.11856055       0.22935093       0.61193227      -0.68470778
H        5.40707828       5.12167733       4.60540221      -0.04332991      -0.32719738       0.03428317      -1.39264020      -0.81649302      -0.96700392
N        5.60251212       5.96878179       6.77224992      -0.57592149       0.18480910       1.70579918      -0.15890376       3.82198658      -1.78241105
8
Lattice="12.0 0.0 0.0 0.0 12.0 0.0 0.0 0.0 12.0" Properties=species:S:1:pos:R:3:momenta:R:3:forces:R:3 energy=-440.08658553650946 free_energy=-440.08658553650946 stress="-0.0007041410492273335 -0.0002716718805177924 -0.0010062428512535916 -0.0002716718805177924 -0.00033793448826780425 -0.0004765115126448167 -0.0010062428512535916 -0.0004765115126448167 0.002728104044179327" pbc="T T T"
B        6.13610121       5.90156026       5.09036793      -0.33562238       0.31572589       0.77101820       0.24583061       0.91001048       0.20892586
H        5.27040198       5.06416834       7.31976434      -0.11995907      -0.19060326       0.06679464      -0.10414165      -0.21058194       0.00289024
H        4.72362142       6.69283391       7.05501830       0.32608924      -0.35535224      -0.11267227      -0.98841612       0.58182063      -0.06544736
H        6.33350766       6.40189952       7.48835974      -0.06160297       0.13179239      -0.27310368       0.94538289       0.35454738       0.53436447
H        7.27637858       5.62869067       5.23357852      -0.32699251       0.01411494       0.08396278      -0.29373523       0.14209251       0.31357946
H        5.93814121       6.94607015       4.51164026      -0.19862330      -0.07493051       0.36725599       0.02804803      -0.54740028       1.26801291
H        5.52110968       5.05392985       4.60473711       0.19675897      -0.03034414       0.44750874      -0.57297441      -0.55271968       0.34211793
N        5.50364074       6.03158449       7.01721274      -0.04291591       0.16385537      -1.14947807       0.74000588      -0.67776910      -2.60444351
8
Lattice="12.0 0.0 0.0 0.0 12.0 0.0 0.0 0.0 12.0" Properties=species:S:1:pos:R:3:momenta:R:3:forces:R:3 energy=-439.5971926371611 free_energy=-439.5971926371611 stress="-0.002070951891115672 0.0009836017946290047 0.0016419533845283285 0.0009836017946290047 0.000338390389575779 -0.0010172457084174887 0.0016419533845283285 -0.0010172457084174887 -0.004084501480254371" pbc="T T T"
B        6.04773500       5.92847582       5.32145669      -0.31682198       0.02485749      -0.34563269       2.86965408       1.42048547      -8.91091154
H        5.49760352       5.06554606       7.13915755       0.04913225      -0.04590865      -0.09175861       0.11638127       1.03344351      -0.18375938
H        4.74626297       6.49003855       6.69453367      -0.21512915      -0.18001063      -0.03831438      -4.10268674       1.82720858       0.24792740
H        6.22829892       6.59649698       7.31051192      -0.06609377       0.22822086       0.04072281       0.91059544       0.49642753       0.55235154
H        7.25373703       5.91969123       5.21500385      -0.00941973      -0.07778460      -0.03459380      -1.07784655      -0.51359912       0.51368468
H        5.71080712       6.93445394       4.70146693      -0.08864106       0.01115768      -0.20744895       0.25136069      -0.86165722       1.30395025
H        5.50712784       5.08180122       4.68948808       0.15298570       0.07278071       0.01178513       0.29678814      -0.21424181       1.00493474
N        5.61783360       6.04445905       6.68319009      -0.09593452      -0.06029168       0.87620167       0.73575366      -3.18806693       5.47182231
8
Lattice="12.0 0.0 0.0 0.0 12.0 0.0 0.0 0.0 12.0" Properties=species:S:1:pos:R:3:momenta:R:3:forces:R:3 energy=-440.0946222409712 free_energy=-440.0946222409712 stress="0.0006532470003786407 0.0005589207357338525 -0.001019730821629644 0.0005589207357338525 -0.0004394808780900205 0.00024145181920297027 -0.001019730821629644 0.00024145181920297027 0.002260194733390543" pbc="T T T"
B        6.24868332       5.97631258       5.03277587      -0.04459727      -0.50475189      -0.27962790      -0.97608111      -0.10470490       1.07201978
H        5.91892909       5.19626165       7.44086701       0.01812255       0.19179516       0.01155916       0.36697963      -1.02032545       0.36081544
H        4.57894308       6.21494567       7.13276957      -0.55679377      -0.17908606       0.22199810       0.20924680      -0.08681205      -0.42275839
H        6.12612891       6.88731213       7.44613875      -0.11857831       0.28072862       0.02001482       0.21527310       0.20552442       0.00114802
H        7.42105692       5.95515603       5.16469533       0.28971332       0.10548742      -0.15404565      -0.24284172      -0.44427575       0.24412430
H        5.87943631       6.98447271       4.55386125      -0.07777466       0.25192621      -0.38162730      -0.27445317       0.06994554       0.37208214
H        5.60923606       5.01552729       4.71372596      -0.07289270       0.02999326      -0.43263792       0.68284328       0.40259106       0.21839157
N        5.61690303       6.08253196       7.02311039      -0.01483535      -0.20250968       1.20093428       0.01903319       0.97805713      -1.84582286
8
Lattice="12.0 0.0 0.0 0.0 12.0 0.0 0.0 0.0 12.0" Properties=species:S:1:pos:R:3:momenta:R:3:forces:R:3 energy=-440.16345790617305 free_energy=-440.16345790617305 stress="2.8113562875224173e-05 0.0010479301694736418 -0.0007407978143397195 0.0010479301694736418 -0.0015382483002337542 0.0008574805289402738 -0.0007407978143397195 0.0008574805289402738 0.0008562866779468981" pbc="T T T"
B        6.26563037       5.95276817       4.95319777      -0.65284119       0.02362206       2.12119754      -0.74909044      -1.99282184       3.04864239
H        6.26347935       5.36666270       7.34907429       0.21141193      -0.20254442       0.16209700       0.69153058      -1.14391797       0.79808592
H        4.63375125       5.82889305       6.77459089       0.03218055      -0.21172916      -0.09457781       2.42251644       0.29736818       0.27524501
H        5.88810765       7.02793696       7.10588740      -0.17803537       0.16636882      -0.16490678       0.03098366      -0.30357913      -0.05809210
H        7.36624875       5.86166656       5.16106937      -0.09314720       0.22535087       0.01027430       1.67034327      -0.03502765      -0.20072471
H        5.86898203       6.93889587       4.68639893       0.02003016      -0.13253888       0.02745168      -0.92740468       2.21249793      -1.18754633
H        5.72049552       4.97206304       4.65092571      -0.22250897       0.18788936       0.26323485      -0.16796740      -0.08387046      -0.42304696
N        5.72033327       6.03245843       6.80488391       0.33366961      -0.08153698      -2.12835774      -2.97091144       1.04935093      -2.25256321
8
Lattice="12.0 0.0 0.0 0.0 12.0 0.0 0.0 0.0 12.0" Properties=species:S:1:pos:R:3:momenta:R:3:forces:R:3 energy=-440.3842677595194 free_energy=-440.3842677595194 stress="0.0017957350112342764 -0.0008131292593513809 0.0012395150721748814 -0.0008131292593513809 0.0020288548146522906 -7.488352536664405e-06 0.0012395150721748814 -7.488352536664405e-06 -0.0017641286128313913" pbc="T T T"
B        6.10557800       6.00881902       5.17193879       0.38112472      -0.03335702      -2.63055340       0.69444091      -0.87867473      -1.70175706
H        6.41049702       5.52019142       7.27448122       0.26834756      -0.20647124       0.17535761      -1.63828160       0.89013640      -0.67112478
H        4.69193234       5.61248201       6.75761480       0.21784521      -0.02231363       0.14630126       0.59270202       0.11056072       0.34342475
H        5.56730542       7.06557492       7.05116637      -0.10851368       0.12757657       0.06114488       0.23097495      -0.64874069      -0.09670543
H        7.30806766       5.90948351       5.22544078      -0.12833370       0.18312095       0.20652802      -0.93841783       0.66440484      -0.33809315
H        5.59628524       7.00310636       4.72551878       0.07193945      -0.19792806       0.18933634       0.67002193      -0.89433517      -0.22314592
H        5.67646326       4.93442508       4.79260584       0.03215331      -0.07885416       0.01832082       0.16411470       1.26438966       0.03174462
N        5.65473388       6.06368623       6.68838741      -1.23795999       0.20520479       2.01358353       0.22444493      -0.50774105       2.65565696
8
Lattice="12.0 0.0 0.0 0.0 12.0 0.0 0.0 0.0 12.0" Properties=species:S:1:pos:R:3:momenta:R:3:forces:R:3 energy=-439.92895907178365 free_energy=-439.92895907178365 stress="0.0013912844109889365 -0.0013839250407088489 6.462750885181479e-05 -0.0013839250407088489 0.0009749307544416441 -0.00043734196813483754 6.462750885181479e-05 -0.00043734196813483754 0.0036012058796162636" pbc="T T T"
B        6.15436766       6.01062655       5.00558530      -0.20291388       0.38416061      -0.11476338      -0.32321612      -0.04968709       0.15618256
H        6.40159576       5.59305524       7.57097538      -0.18629359       0.00361401      -0.04222568      -2.16862978       0.99133224      -1.57657706
H        4.66197769       5.60240141       7.14789728      -0.08104594      -0.04783504      -0.00340720      -0.88023679      -0.79480788      -0.07087894
H        5.49061132       7.09171673       7.23129736      -0.06621778      -0.01124641      -0.05949562       0.23703580      -0.98397175      -0.33168304
H        7.33802231       6.15572710       5.02699256       0.15439622       0.01208371       0.00820415      -0.58487371       0.40248146       0.52451778
H        5.49505458       6.85314665       4.42902462      -0.27948455       0.04661817       0.11242963       0.50879578      -0.59379547       1.06850971
H        5.91821976       4.90828327       4.64810458       0.11538133      -0.39454393       0.09960389      -0.34905685       0.11423496       0.48895985
N        5.57040852       6.05042434       6.96923915       0.09327423      -0.01356371       0.16161649       3.56018167       0.91421353      -0.25903086
8
Lattice="12.0 0.0 0.0 0.0 12.0 0.0 0.0 0.0 12.0" Properties=species:S:1:pos:R:3:momenta:R:3:forces:R:3 energy=-440.53257199609016 free_energy=-440.53257199609016 stress="4.2974022347063624e-05 0.0003195505473434253 0.0004117566497705394 0.0003195505473434253 -0.0010211404484978075 7.709399075082886e-05 0.0004117566497705394 7.709399075082886e-05 -0.0007569849783027828" pbc="T T T"
B        6.19251921       5.99874658       5.20572562      -1.07522692       0.31515471       2.55050337      -0.20891527       1.78987020      -0.96910627
H        6.43321358       5.55880596       7.38889661      -0.31252595       0.10601127      -0.28317767       0.19863817      -0.40273543       0.34949042
H        4.77734824       5.57116561       6.75338566      -0.08658544      -0.01255560       0.02053206       1.47298247       0.58813032       0.55697956
H        5.63867573       7.05420603       7.10370961       0.00606444      -0.17127186      -0.04946906       0.10362814      -0.46914367      -0.14830208
H        7.22265176       6.48327731       5.11195074      -0.04318414      -0.07117925      -0.11039056       0.83958754       0.20250811       0.11290922
H        5.40143073       6.61862298       4.61110339      -0.08122994      -0.21698907      -0.13696825      -0.19250600       0.19731171       0.25292777
H        6.13924172       4.94579397       4.85025545       0.31426947       0.08743602      -0.04632450       0.10526996      -2.00248230      -0.19165852
N        5.75766998       6.05092362       6.76689198       0.85623441      -0.05591390      -1.79372879      -2.31868501       0.09654106       0.03675990
8
Lattice="12.0 0.0 0.0 0.0 12.0 0.0 0.0 0.0 12.0" Properties=species:S:1:pos:R:3:momenta:R:3:forces:R:3 energy=-440.4604735106645 free_energy=-440.4604735106645 stress="-0.00013904857894719632 0.0009682027567599467 -0.0008718445565844676 0.0009682027567599467 -0.0007261896494421895 0.00025836918086496595 -0.0008718445565844676 0.00025836918086496595 0.0005732870748770852" pbc="T T T"
B        6.31470218       6.04721938       5.18704695       0.20387672      -0.22801308      -1.03262574      -1.34809233       0.70887343       1.38132533
H        6.54845347       5.55945780       7.36563127      -0.08263391      -0.07629205       0.10981452       1.65678572      -1.45749318       1.32675448
H        4.82199117       5.65402710       7.09523758       0.17808761       0.08943727       0.09879671       1.51781436       0.55904020      -0.18877592
H        5.84755954       7.08206120       7.24689393      -0.08912631      -0.10560311       0.05364443      -0.14618421       0.35290064       0.11908188
H        7.17800883       6.81628433       5.23768169      -0.13449486      -0.05483607      -0.30813966       0.63737750      -0.10641410      -0.17796278
H        5.37401179       6.47016642       4.63436873       0.10972604      -0.18569221      -0.34046118      -0.06709118      -0.08726193      -0.06766968
H        6.50303612       4.91793880       5.05228060       0.18326729       0.34293713      -0.45266066       0.41984979      -0.44171963      -0.22456043
N        5.80620049       6.08636918       6.95110045      -0.76492759       0.19994162       2.01332499      -2.67045966       0.47207457      -2.16819289
8
Lattice="12.0 0.0 0.0 0.0 12.0 0.0 0.0 0.0 12.0" Properties=species:S:1:pos:R:3:momenta:R:3:forces:R:3 energy=-440.20795774673536 free_energy=-440.20795774673536 stress="-0.00021477880963824506 -0.0004983030538463379 1.5578131090734597e-05 -0.0004983030538463379 0.0006961953024765293 -0.0004811574619042801 1.5578131090734597e-05 -0.0004811574619042801 0.0013604571047594514" pbc="T T T"
B        6.33032042       6.08048866       4.93905578      -0.10622052      -0.08681093       1.17487506      -0.30654454      -0.42487565       2.66430963
H        6.49560143       5.58708209       7.44799328       0.12963780      -0.14929877      -0.02976908      -0.22498296       0.10881101      -0.62102454
H        4.89904378       5.69119625       6.83779095       0.31614796       0.03213917      -0.19275499      -1.69573027      -1.03889839      -0.00861511
H        5.75908259       7.08301400       7.10655755      -0.06764725      -0.00017316      -0.20711880       0.02977621       0.95750613       0.09270394
H        7.10095622       7.00863941       4.97343534      -0.21273374       0.07549267       0.02236621      -0.32233647      -0.95031325      -0.39738149
H        5.23120689       6.32012677       4.55200672      -0.08691321      -0.07446607       0.15838591       0.57123397      -0.20770307      -0.37746594
H        6.70080124       4.91698600       4.97435123      -0.18488119       0.16389721       0.15416578      -0.15721299       1.36269577      -0.77256283
N        5.82351602       6.09921931       6.80555956      -0.16454751       0.02197139      -0.94527531       2.10579705       0.19277746      -0.57996365
8
Lattice="12.0 0.0 0.0 0.0 12.0 0.0 0.0 0.0 12.0" Properties=species:S:1:pos:R:3:momenta:R:3:forces:R:3 energy=-440.32728853978585 free_energy=-440.32728853978585 stress="-0.0005273609606140339 -0.0010335897840187016 0.001022074660823764 -0.0010335897840187016 -3.796538624548299e-05 0.00022144242936251115 0.001022074660823764 0.00022144242936251115 -0.0026714851184188064" pbc="T T T"
B        6.21735230       6.05638879       5.25297077       0.18651371      -0.00222247      -1.15080486       2.16628892      -0.49755593      -2.34049877
H        6.62237427       5.69305540       7.33947325      -0.02880998       0.07849908      -0.07255560      -0.49846015       0.17109919      -0.52359141
H        5.00309960       5.54634988       6.96647024      -0.07352091      -0.22724337       0.28335893      -2.00600045      -1.68732151       0.24557013
H        5.62699448       7.01681903       7.14352661      -0.13417568       0.08269771      -0.02836155      -0.00482574       0.91281895      -0.18868148
H        6.99690040       6.95474458       5.18072182       0.04483030       0.32836772       0.26031819      -0.38311793      -0.41325289      -0.38458265
H        5.23433123       6.21565063       4.66052675      -0.28577859       0.09048465      -0.04278764      -0.11187392      -0.02782668      -0.39402735
H        6.78035253       4.98318097       5.09086888       0.01887506      -0.32799517       0.25259452      -0.84708219       1.15803421      -0.05300756
N        5.82574788       6.07972944       6.73007421      -0.09136208      -0.03920877       0.62820301       1.68507145       0.38400466       3.63881908
8
Lattice="12.0 0.0 0.0 0.0 12.0 0.0 0.0 0.0 12.0" Properties=species:S:1:pos:R:3:momenta:R:3:forces:R:3 energy=-440.1969162238122 free_energy=-440.1969162238122 stress="-0.0014412635592783217 0.00028933038985502177 -0.0016832834584999813 0.00028933038985502177 -0.0013960739463556235 0.00013435901178004888 -0.0016832834584999813 0.00013435901178004888 0.0020029919888025155" pbc="T T T"
B        6.21746085       6.02428570       5.07126177      -0.12473097      -0.06517563      -0.59766057      -0.03582858      -0.50046979       1.73231534
H        6.58712216       5.92631021       7.48356975      -0.20104594       0.08009674       0.18915520       1.28392185      -0.33712611       0.82117740
H        5.00707255       5.26541855       7.11004972      -0.10484963      -0.31886874       0.10977088       0.92499315       0.59379033      -0.21617069
H        5.28438293       6.96837271       7.12515134      -0.27959046      -0.02394656       0.15370790       0.12423074       0.02164360      -0.10423112
H        6.99292745       6.81712292       4.91800635      -0.00501509       0.00158874       0.07853797       0.90043017       1.63843432       0.41288749
H        5.26248358       6.19065886       4.51643025      -0.02501500       0.06260505       0.22847208      -1.73162865       0.36185237      -0.47108503
H        6.70407837       5.03162729       4.82376874       0.04800033      -0.13014688      -0.03346758       0.19614026      -1.46498302       0.43716555
N        5.73375748       6.03668179       6.93844693       0.34340524       0.37789375      -0.00376720      -1.66225893      -0.31314171      -2.61205894
8
Lattice="12.0 0.0 0.0 0.0 12.0 0.0 0.0 0.0 12.0" Properties=species:S:1:pos:R:3:momenta:R:3:forces:R:3 energy=-440.5213793213194 free_energy=-440.5213793213194 stress="0.0007826717144958491 0.0005625691894148605 0.00039609321484239434 0.0005625691894148605 0.0013748241016864002 -0.0003104562930703437 0.00039609321484239434 -0.0003104562930703437 -0.0008591632815401657" pbc="T T T"
B        6.12431574       6.12510719       5.25299063      -0.80302764       0.32551676       1.68507795       0.17217571       0.02070668      -2.21745841
H        6.59149960       6.23766872       7.38673193       0.30439635       0.10582186      -0.04749091       0.52547803      -0.06962514       0.83750138
H        5.22562492       5.16148966       6.95971106       0.12933372      -0.00886186       0.05806232       0.87863463       1.62047467       0.39124614
H        5.04533845       6.92156389       6.96229608      -0.09744704       0.00059504      -0.09671324       0.23197258      -0.22096282       0.46190840
H        6.95466155       6.96234001       5.04981097      -0.14892979      -0.36988928      -0.05664666      -0.61400835      -0.41182502       0.39048298
H        5.10920509       6.30401609       4.61326807       0.36893780      -0.08786699       0.09847914       0.86118025      -0.06655974       0.83388371
H        6.54116060       5.03765999       5.06802337       0.05412144       0.26550996      -0.04389610       0.00950496       0.25213453       0.02311371
N        5.72622488       6.12463515       6.83844196      -0.14439795      -0.24623805      -1.47635377      -2.06493781      -1.12434318      -0.72067792
8
Lattice="12.0 0.0 0.0 0.0 12.0 0.0 0.0 0.0 12.0" Properties=species:S:1:pos:R:3:momenta:R:3:forces:R:3 energy=-440.4541698829843 free_energy=-440.4541698829843 stress="0.002165871766757198 9.984805357354176e-05 0.0006907436275242358 9.984805357354176e-05 0.0012389262321893604 0.0004121185700481082 0.0006907436275242358 0.0004121185700481082 0.0007913432648292577" pbc="T T T"
B        6.25803967       6.03781168       5.13769416      -0.02940415       0.08314727      -0.83214918      -1.63908583       1.17848176       0.89176497
H        6.73726381       6.31297805       7.38092102       0.21102663       0.04943254       0.14107871      -1.65823863      -0.54897498      -0.55388354
H        5.44833321       5.10286167       7.16391377       0.06368980       0.11655871      -0.11810447       0.08890549       0.12199553       0.08942072
H        5.06960713       6.79975040       7.04068104      -0.08547940       0.02921949      -0.14167052       0.47561564      -0.39052362      -0.05926460
H        6.93039287       7.03758303       5.19227547       0.12788276       0.10701142      -0.32155066      -0.17163794      -1.00219681      -0.64079317
H        5.15510293       6.22017853       4.61907898      -0.07949601      -0.08887202      -0.29105264       1.50611274      -0.37705333       0.38743441
H        6.73445782       4.96241697       5.00247370       0.19034395      -0.04881813      -0.27437859       0.10645430       0.47806578      -0.12910886
N        5.80528481       6.05011962       6.87611729      -0.72358321      -0.26254336       1.95405713       1.29187423       0.54020567       0.01443007
8
Lattice="12.0 0.0 0.0 0.0 12.0 0.0 0.0 0.0 12.0" Properties=species:S:1:pos:R:3:momenta:R:3:forces:R:3 energy=-440.3235176506077 free_energy=-440.3235176506077 stress="2.8324815181266448e-05 0.00011085847289424191 9.814596225001017e-05 0.00011085847289424191 -0.0011418377951106305 0.00020424096497807426 9.814596225001017e-05 0.00020424096497807426 0.0017553127470211552" pbc="T T T"
B        6.32252016       5.96959911       4.93085157      -0.00824966      -0.24768157       0.89960143      -1.62020577       0.60563576       2.69691499
H        6.67979258       6.18425968       7.45349670      -0.13503639      -0.11848606      -0.22021609      -1.05777181      -0.44831570      -1.60509833
H        5.47443635       5.04596791       6.99508648      -0.00606167      -0.07906961      -0.08749713      -0.12895667      -0.93086887      -0.08420809
H        5.10539728       6.67363370       6.95711443       0.04174764      -0.03911290       0.01816087       0.45795629      -0.18151500      -0.51167863
H        6.82402596       7.00311599       4.84416725      -0.20355186       0.20475688       0.26153485       0.59585862       0.35292420      -0.33288150
H        5.23304219       5.91411495       4.54650330      -0.25454150      -0.10901263       0.15072203      -0.28043826      -0.11217235      -0.65258723
H        6.89460272       4.99688401       4.96222172       0.00260849      -0.00728707       0.16647306       1.06291734      -0.99983100      -0.60228710
N        5.87390504       5.96599212       6.73127710       0.24855013       0.38150837      -1.07629872       0.97064026       1.71414296       1.09182589
8
Lattice="12.0 0.0 0.0 0.0 12.0 0.0 0.0 0.0 12.0" Properties=species:S:1:pos:R:3:momenta:R:3:forces:R:3 energy=-440.5685427596885 free_energy=-440.5685427596885 stress="-0.0005601321259465094 -3.7502829551344224e-05 -9.81201410516414e-05 -3.7502829551344224e-05 0.0002479544432022017 -0.0003332009479100099 -9.81201410516414e-05 -0.0003332009479100099 -0.0020532623289536514" pbc="T T T"
B        6.07973119       5.92455965       5.26981654       0.58343613       0.10335175      -1.74009092       1.41543702      -0.41374654      -1.45818204
H        6.58815384       6.08125263       7.32811081      -0.35233269      -0.12302840       0.01634491       0.61926607      -0.03330962       0.54965308
H        5.25491584       5.00180407       7.15569664      -0.08858473       0.01768097       0.35223559       0.57048038       0.70679624      -0.44624162
H        5.04848623       6.69645027       7.03537473       0.07694743      -0.08425771       0.11918904       0.05858755      -0.13638591      -0.07683413
H        6.45951932       6.99819593       5.05056867      -0.29063856       0.15254114       0.18413023       0.05650247       0.32113926      -0.06734697
H        5.14829739       5.64405761       4.67188919      -0.13088786      -0.11262502       0.14897531      -0.73312032      -0.21430840      -0.38904278
H        6.95151377       5.13687756       5.18222129      -0.12743750       0.04132150       0.36670410      -0.19666053       0.09614162      -0.16786201
N        5.71605937       5.90906101       6.79317868       0.02351309      -0.00897777       0.66193445      -1.79049264      -0.32632666       2.05585648
8
Lattice="12.0 0.0 0.0 0.0 12.0 0.0 0.0 0.0 12.0" Properties=species:S:1:pos:R:3:momenta:R:3:forces:R:3 energy=-440.16899874761754 free_energy=-440.16899874761754 stress="-0.00039693048751318914 0.0002712896994020173 -0.0015023826524225182 0.0002712896994020173 0.0002773619162463288 9.246674861125e-05 -0.0015023826524225182 9.246674861125e-05 0.002153425894991599" pbc="T T T"
B        6.04679466       5.92004121       5.11283314      -0.05355354       0.00511259      -0.29706106       1.13552172       0.34192938      -0.48379259
H        6.48281611       6.04211983       7.45530963       0.01352048      -0.05992798       0.16179649       1.83526794       0.12786771       1.24346259
H        5.13674094       4.96636083       7.05200556       0.10625240       0.16053511      -0.05117402       0.65986892       0.97605183       0.29711863
H        4.94112566       6.70379586       7.07431305      -0.01613469      -0.12425841       0.04915519      -0.26871688       0.36487405       0.15770821
H        6.27493255       7.03363917       4.79615057      -0.15019648      -0.05477331       0.03537597      -0.47599124       0.05416985       0.71244965
H        5.13482213       5.46953031       4.54469037       0.04851340      -0.03458740       0.15083687      -0.43478319      -0.10628071       0.48902806
H        7.05887434       5.31899100       4.85825731      -0.03546265       0.04944685       0.10226879      -0.80473432      -0.07362436       1.19721840
N        5.61214562       5.92151157       6.97023922      -0.20985435       0.04487376      -0.04501877      -1.64643296      -1.68498776      -3.61319296
8
Lattice="12.0 0.0 0.0 0.0 12.0 0.0 0.0 0.0 12.0" Properties=species:S:1:pos:R:3:momenta:R:3:forces:R:3 energy=-440.4981645172618 free_energy=-440.4981645172618 stress="0.0007263502883769255 2.690245269759796e-05 0.0005558583658952815 2.690245269759796e-05 -0.0004965166280806925 7.864709619951189e-05 0.0005558583658952815 7.864709619951189e-05 -0.0012026673033783146" pbc="T T T"
B        6.00462624       5.91217399       5.25116449      -0.70901097      -0.11532277       1.77552141       1.68688671      -0.41913660      -3.19956492
H        6.53406684       6.09749325       7.34399750       0.29396660       0.12027311      -0.20082189      -0.49305558      -0.16896750      -0.01906890
H        5.27011155       4.97151932       7.03142571       0.18101544       0.12634616      -0.11179166      -0.39532685      -1.49997377       0.57869379
H        4.93181852       6.60380312       7.00155623      -0.05733877       0.00585449      -0.19412512      -0.54803183       0.62145894       0.30075826
H        6.16117366       7.02848068       4.85382638       0.10266736      -0.07188158      -0.06971241      -0.39150727      -0.45819993       0.66520596
H        5.14426019       5.34211410       4.65600250       0.13334695       0.05051615      -0.14415259       0.26265559       0.33768736       0.51849870
H        7.06818148       5.33360188       5.11923639       0.14760268       0.09610835      -0.25676716      -1.14814921       0.37582964       0.38710962
N        5.65002691       5.88737047       6.79394095      -0.38380449      -0.22522757      -0.69388796       1.02652845       1.21130185       0.76836750
8
Lattice="12.0 0.0 0.0 0.0 12.0 0.0 0.0 0.0 12.0" Properties=species:S:1:pos:R:3:momenta:R:3:forces:R:3 energy=-440.4926586595253 free_energy=-440.4926586595253 stress="-0.0007521682236994563 0.0003101274020477484 5.603630508565738e-05 0.0003101274020477484 -0.0018053410286086797 0.0005035010917279078 5.603630508565738e-05 0.0005035010917279078 0.0011716476868112286" pbc="T T T"
B        6.14663267       5.90472303       5.04723010      -0.35217452       0.15525001      -0.48312936      -1.12149942       0.12988963       2.20093345
H        6.53225553       6.31323781       7.40452202      -0.07819269       0.08170463       0.05779852      -0.63455211      -0.53005655      -0.87646266
H        5.53563393       4.95925282       7.19147372       0.07234067      -0.23931767       0.03294234      -0.17147453      -2.12728385       0.39795514
H        4.89393996       6.46181254       6.99359600      -0.21136626      -0.06808326      -0.09245761      -0.30858687       0.30720259      -0.27760803
H        6.20720467       7.04074718       4.88838047       0.21525306       0.12604802      -0.41843718       0.23046788       0.63930386      -0.37338824
H        5.22514238       5.38400681       4.59547798      -0.00356808      -0.04728005      -0.20378729      -0.42802897      -0.29006102      -0.42020112
H        7.10606004       5.30621752       5.06915103       0.24963250      -0.11522865      -0.27390020       1.19512033      -0.58201132      -0.36049166
N        5.74139682       5.87541272       6.81085858      -0.17903898       0.09377640       1.48364529       1.23855368       2.45301665      -0.29073689
8
Lattice="12.0 0.0 0.0 0.0 12.0 0.0 0.0 0.0 12.0" Properties=species:S:1:pos:R:3:momenta:R:3:forces:R:3 energy=-440.5030727107069 free_energy=-440.5030727107069 stress="-0.0005385336814845753 -0.0001213239291351441 -0.0004666263991510364 -0.0001213239291351441 0.00012273494489020085 -0.00010597949145910676 -0.0004666263991510364 -0.00010597949145910676 0.0002227900087809041" pbc="T T T"
B        6.24017146       5.95165032       5.02988143      -0.32719376      -0.05240436       0.81277421      -2.07992795       0.41503830       2.00388943
H        6.48151802       6.50557404       7.34446755      -0.15345635      -0.00754744      -0.09116689       0.80807781       0.51515644       0.38572431
H        5.90058623       4.90430256       7.05750422       0.10816802      -0.20348415       0.16982305      -0.03992362       1.17877967      -0.20293723
H        4.84804845       6.27218805       6.95802756      -0.08178586      -0.11238909       0.10199001       0.29004305      -0.02893002      -0.31564467
H        6.31139823       7.09569744       4.88254917      -0.05627489      -0.22482095       0.30402974       0.44138832       0.34140813      -0.60386128
H        5.23773176       5.47266657       4.65553245       0.15092607       0.09622115       0.17498183       0.26001602      -0.06642809      -0.52273623
H        7.15195155       5.27724438       5.05248186      -0.27822919       0.14396901       0.21500677       1.12859959      -0.45267100      -0.43823643
N        5.83689866       5.94180300       6.76873650       0.35338367       0.34744657      -1.58571259      -0.80827322      -1.90235342      -0.30619790
8
Lattice="12.0 0.0 0.0 0.0 12.0 0.0 0.0 0.0 12.0" Properties=species:S:1:pos:R:3:momenta:R:3:forces:R:3 energy=-440.44703532803965 free_energy=-440.44703532803965 stress="0.0014107789007560322 -0.0004349114667357543 0.0005189330550043616 -0.0004349114667357543 0.0022450485696383655 -0.0007412566182380847 0.0005189330550043616 -0.0007412566182380847 -0.0007017674070587619" pbc="T T T"
B        6.16905347       5.91483721       5.29032043       0.64320639      -0.07385226      -1.72911738       0.17898699      -0.01132950      -2.49351819
H        6.41918964       6.61883236       7.26109115       0.02909939       0.10696150       0.24414785       0.63196453       0.59379651       1.00127697
H        6.02386148       4.89298218       7.31378991      -0.03428275       0.06240551       0.10517920      -0.36673192       1.78643911      -0.55405343
H        4.79316444       6.13648931       6.99558781      -0.07315944      -0.08065302       0.13207809       0.49163208      -0.17371573       0.23039525
H        6.30061152       7.10701782       5.01628097      -0.19953343       0.12327736       0.17517628      -0.16973148      -1.48400748       0.41052879
H        5.21926406       5.40351475       4.68621009      -0.18763714      -0.08862741       0.12670059       1.29331569       0.61151417       0.93292669
H        7.20683556       5.28913821       5.17971720      -0.05559489      -0.01984865       0.11589980      -1.04070348       0.67273358       0.06297693
N        5.81762454       5.88009431       6.87933413      -0.40670364      -0.04267885       0.93171292      -1.01873240      -1.99543066       0.40946699
8
Lattice="12.0 0.0 0.0 0.0 12.0 0.0 0.0 0.0 12.0" Properties=species:S:1:pos:R:3:momenta:R:3:forces:R:3 energy=-440.3097360925683 free_energy=-440.3097360925683 stress="0.0002530138399123422 0.00037059122689865127 -0.000446112145773423 0.00037059122689865127 -0.0001839570898248301 0.0003333878610164502 -0.000446112145773423 0.0003333878610164502 0.002680512381041554" pbc="T T T"
B        6.18049065       5.97674215       5.08089799      -0.16678582       0.13130890       0.64533962       0.79038788      -0.25370039       0.22306695
H        6.37719087       6.68366012       7.45310799       0.18665186       0.10844535       0.00632304      -0.75379662      -1.14684405      -0.72209999
H        5.99183844       4.94876868       7.18824874      -0.04820614       0.19909543      -0.13937238       0.13157417       0.06233810       0.25644330
H        4.75431578       6.13999600       6.95576718       0.02276999      -0.01337631      -0.10783595       0.42526247       0.02893680       0.17645517
H        6.21220959       7.05123132       4.65921285      -0.13207907       0.18885851      -0.17168013      -0.42649753       0.81180505       0.65521893
H        5.38069481       5.33785628       4.54689201      -0.15046074      -0.24888628      -0.13304527      -0.68422841      -0.37966876       0.37398993
H        7.24568422       5.51450566       4.91720628       0.13843241       0.00370436       0.11548590       0.00621352      -0.24196185       0.76989459
N        5.79317872       5.94213923       6.92061055      -0.13862123      -0.38233468      -0.11211677       0.51108453       1.11909511      -1.73296888
8
Lattice="12.0 0.0 0.0 0.0 12.0 0.0 0.0 0.0 12.0" Properties=species:S:1:pos:R:3:momenta:R:3:forces:R:3 energy=-440.40019215933455 free_energy=-440.40019215933455 stress="-7.123554310095049e-05 0.0004452404306208076 4.4390869285412784e-05 0.0004452404306208076 -0.001225299462061568 0.0007233920149282195 4.4390869285412784e-05 0.0007233920149282195 -0.0025772249441464606" pbc="T T T"
B        6.08982465       5.94046223       5.25774791      -0.44726851      -0.11875851       1.15058384       1.43620233       0.45685090      -2.08885541
H        6.42671596       6.62178440       7.26623348      -0.02237972      -0.12389757      -0.20088664      -1.03295941      -1.23989350      -0.63088195
H        5.88646518       4.98460076       7.17944597      -0.03110289      -0.05337346      -0.03108851       0.38324207      -1.30638168       0.57386122
H        4.77369108       6.20901458       7.02212615       0.02633488       0.03220244      -0.14611689       0.04891772       0.03356385      -0.34926203
H        5.88533006       7.01539924       4.94351028       0.03208818      -0.22483931      -0.21886980      -0.36057372       0.92835642      -0.44191610
H        5.44223104       5.18517315       4.73376652       0.30499680       0.10688907      -0.19701073      -0.92660325      -0.96027793      -0.61195572
H        7.22630892       5.71944728       5.10515213      -0.17075016       0.25569569      -0.27835590       0.06113580      -0.21177941       0.33089945
N        5.75737050       5.91190561       6.75706809       0.00868786       0.11238953       0.02881031       0.39063846       2.29956136       3.21811054
8
Lattice="12.0 0.0 0.0 0.0 12.0 0.0 0.0 0.0 12.0" Properties=species:S:1:pos:R:3:momenta:R:3:forces:R:3 energy=-440.3566377137352 free_energy=-440.3566377137352 stress="0.00029282486573274375 -0.00032116401411168006 -0.00027916674874285197 -0.00032116401411168006 0.00036612721743152016 -0.00041881540357026635 -0.00027916674874285197 -0.00041881540357026635 0.001265929532363135" pbc="T T T"
B        6.08813541       6.00075968       4.90366727      -0.19578427      -0.12893573      -0.49627331       0.10440300      -0.16522620       2.73298429
H        6.31497600       6.57284305       7.34163835      -0.21730251      -0.24437989      -0.03603815       0.76105928       0.47846452       0.16504853
H        5.76810997       4.95671305       7.14626295      -0.00003160      -0.15555725       0.05710684       0.23341564       0.43212883      -0.39005576
H        4.72135022       6.27201604       6.91327037       0.01246481      -0.07374202       0.12978290      -0.18051939       0.03805776      -0.24027298
H        5.57399589       7.04328695       4.67355916       0.10487229      -0.14913070      -0.21747218       0.39936934      -0.32115312      -0.33435454
H        5.49438167       5.01702027       4.65836165       0.22148322       0.11802325      -0.10088394       0.10992327       0.15361961      -0.54533963
H        7.27864978       5.90426743       5.01300164       0.06686666       0.13768053      -0.37483685      -0.71343562       0.21092194      -0.65535203
N        5.71110429       5.95149259       6.77545381      -0.30938807       0.48155275       1.15191201      -0.71421552      -0.82681333      -0.73265789
8
Lattice="12.0 0.0 0.0 0.0 12.0 0.0 0.0 0.0 12.0" Properties=species:S:1:pos:R:3:momenta:R:3:forces:R:3 energy=-440.43546527216637 free_energy=-440.43546527216637 stress="-8.786387367100665e-06 -0.0007091300402052043 -2.9620184585750738e-05 -0.0007091300402052043 0.0011166251605149102 -0.00036086474101051393 -2.9620184585750738e-05 -0.00036086474101051393 -0.00020013980360046992" pbc="T T T"
B        6.08014802       6.04751207       5.06989219      -0.70604872       0.02930304       1.13879589      -1.03900266      -0.47406963       1.33381683
H        6.33877563       6.65525535       7.25571136       0.04085587       0.14050296      -0.06537012       1.56372889       1.44324936       1.15494123
H        5.89516838       4.99289602       7.11189685      -0.00084023       0.19846058       0.05185284      -0.06195133       1.11422736      -0.10934766
H        4.73620023       6.27173554       6.97678577       0.06886677      -0.06276539      -0.05886323      -0.49825980       0.03856454      -0.01186021
H        5.42500796       7.01884501       4.78761317      -0.10878044       0.04742168       0.25292751       0.94130975      -0.64339324      -0.32714749
H        5.59932873       4.98115499       4.74428864       0.01616525      -0.04327884       0.26523887       0.58117331       1.06649350      -0.10127625
H        7.26379977       6.08357348       5.18524019       0.04670082       0.03236457       0.47039273      -0.45624794       0.19370953      -0.80265259
N        5.72522958       6.00551963       6.79935117       0.29876242      -0.35775525      -1.93184336      -1.03075022      -2.73878142      -1.13647386
8
Lattice="12.0 0.0 0.0 0.0 12.0 0.0 0.0 0.0 12.0" Properties=species:S:1:pos:R:3:momenta:R:3:forces:R:3 energy=-440.6604710485336 free_energy=-440.6604710485336 stress="-0.0006117858963902849 0.00031235235907133246 -0.0001050541033623428 0.00031235235907133246 -1.1868454207891726e-06 0.0005309400453710474 -0.0001050541033623428 0.0005309400453710474 -0.00014881255511669042" pbc="T T T"
B        6.12136261       6.03378687       5.17928919       0.39210329       0.11132872      -2.32191723      -1.81796646      -0.14626671      -0.36357366
H        6.25281698       6.82875686       7.27008343      -0.02215178       0.28920202       0.29571551      -0.16990517      -0.54548703       0.07570850
H        6.10212283       5.09026668       7.21477107       0.02026593       0.22319240      -0.05110560       0.52195585      -0.85927999       0.66855113
H        4.74402303       6.06755288       6.96354542      -0.07519679      -0.19049164       0.05144169      -0.59812923       0.04804985       0.07056319
H        5.47935367       6.96430862       4.84213645      -0.31025489       0.18247356       0.12730264       0.41112311      -0.05812359      -0.08895222
H        5.66141993       5.03569138       4.72991657      -0.21845169      -0.27319495       0.04329449       0.33075696       0.27570724       0.31192128
H        7.25597697       6.13911434       5.06662579       0.36471568      -0.07588066       0.14365255       0.77103439       0.08170609       0.08879057
N        5.77110680       5.98725323       6.84072154      -0.52811435      -0.28387461       1.84646459       0.55113055       1.20369414      -0.76300879
8
Lattice="12.0 0.0 0.0 0.0 12.0 0.0 0.0 0.0 12.0" Properties=species:S:1:pos:R:3:momenta:R:3:forces:R:3 energy=-440.04618850926397 free_energy=-440.04618850926397 stress="-0.002064451053245726 0.0008873574592000543 -0.0008709211650660296 0.0008873574592000543 -0.0008564251495612746 0.0005787983261909687 -0.0008709211650660296 0.0005787983261909687 0.0029282119452905884" pbc="T T T"
B        6.13045773       6.03862574       5.04105152       0.12326418       0.08855191       0.63209442      -0.48905247      -0.49710674       1.36718623
H        5.96762296       6.93306719       7.46060386      -0.11159088       0.01307822      -0.20328350      -0.18924576      -1.55432718      -0.86744997
H        6.33148055       5.21891133       7.35977068       0.26967419      -0.07420937       0.04761373       1.33220464      -1.29888005       0.65423511
H        4.75490456       5.71614423       7.08829540      -0.05768267      -0.18517629       0.03477825      -0.25185314       0.11845986      -0.10111624
H        5.67445801       6.94375777       4.53939614      -0.03643967      -0.16386749       0.05265946      -1.08423801       1.26361516       0.31662826
H        5.70535486       5.05624223       4.64143529      -0.04358171       0.16185779      -0.03848077      -0.48885380      -0.92016695       0.17797849
H        7.24509544       6.09811120       4.95983070      -0.30924013      -0.06731485       0.01526993       1.78872053      -0.08039498       0.50380958
N        5.76406535       5.97150594       6.99116219      -0.24063619       0.20850189      -0.39537920      -0.61768198       2.96880088      -2.05127144
8
Lattice="12.0 0.0 0.0 0.0 12.0 0.0 0.0 0.0 12.0" Properties=species:S:1:pos:R:3:momenta:R:3:forces:R:3 energy=-440.1373946270455 free_energy=-440.1373946270455 stress="0.0018559286932766845 -0.0002355290546611041 0.0009986210617349914 -0.0002355290546611041 0.0011543583676598755 -0.0003221784482014019 0.0009986210617349914 -0.0003221784482014019 -0.0036205447823093873" pbc="T T T"
B        5.98612414       5.97955444       5.23556911      -0.39398614       0.02320175       1.29997473       1.96752905       0.87566803      -4.91828391
H        5.67680021       6.91530290       7.03383845      -0.11373449      -0.18612700      -0.11050202       0.15725812       0.83234602       0.66785926
H        6.47131817       5.39167772       7.27804282       0.19708852      -0.08816366       0.18524622      -0.95942435       0.84176911      -0.73366311
H        4.78380815       5.48872718       6.96080330      -0.02044771      -0.14604368      -0.07957108       0.31233661       0.18976037      -0.16372480
H        5.46384104       7.02561373       4.88731898       0.11083261      -0.18022128      -0.28821462       0.32146199      -1.28043484      -0.03212397
H        5.56842667       4.97438627       4.72195718       0.08244696       0.17490895      -0.10449656       0.28712404       0.89028140       0.35135983
H        7.21619185       6.10304539       5.12180624      -0.36043036       0.05692132      -0.10579240      -1.72805614      -0.29556804       0.04351261
N        5.71790381       5.93807493       6.70064611       0.06502650       0.32571194      -0.64172682      -0.35822933      -2.05382205       4.78506410
8
Lattice="12.0 0.0 0.0 0.0 12.0 0.0 0.0 0.0 12.0" Properties=species:S:1:pos:R:3:momenta:R:3:forces:R:3 energy=-440.1028153538093 free_energy=-440.1028153538093 stress="0.002335421031848459 -0.0002929390799881603 -0.00013325337289611192 -0.0002929390799881603 -0.00012579517266482327 -0.0006268920713928217 -0.00013325337289611192 -0.0006268920713928217 0.001385330023262454" pbc="T T T"
B        6.00243661       6.11212660       4.90841065       0.04716085      -0.13008277      -1.06704760       0.96124143       0.20791592       2.86842947
H        5.48308760       6.96075910       7.30648677      -0.06930766       0.14950706       0.21770157       0.02776311       1.45008230       0.45926196
H        6.51593777       5.51523168       7.26804394      -0.11040437       0.04848609      -0.01711936      -1.78122533       1.28582991      -0.69159550
H        4.78632146       5.43338160       6.98794067       0.01778285      -0.03107280       0.10803205       0.50252564       0.45268292      -0.21518616
H        5.26821686       7.00086303       4.69351323      -0.18918794       0.20521514      -0.14495327       0.10253625      -0.09115044      -0.62176349
H        5.66785787       4.99913697       4.76716280       0.04315182      -0.30280206      -0.12875374      -0.05831418       0.02644712      -0.63462835
H        7.21367854       6.31021730       4.95614926       0.22983930       0.22417317      -0.16541714      -1.49543711      -0.07059019      -0.33514342
N        5.64153983       6.05510003       6.86537164      -0.41659563      -0.18389207       1.35760902       1.74091018      -3.26121754      -0.82937451
8
Lattice="12.0 0.0 0.0 0.0 12.0 0.0 0.0 0.0 12.0" Properties=species:S:1:pos:R:3:momenta:R:3:forces:R:3 energy=-440.32195546209795 free_energy=-440.32195546209795 stress="-0.001541191310375444 0.0002006839461319349 -0.0006401736588566685 0.0002006839461319349 -0.0004044514264504232 0.00018517311325611159 -0.0006401736588566685 0.00018517311325611159 0.00150306895165018" pbc="T T T"
B        6.07712605       6.05331439       4.98916148      -0.66328764      -0.09327725       1.15663472       0.56244461      -0.23911747       2.84404441
H        5.63396988       7.02336158       7.14143026       0.01956627       0.14079971      -0.17412245       0.39695460      -2.06768409      -0.33422361
H        6.54161163       5.51554232       7.35926957      -0.27061893       0.10925365      -0.13655949       1.00625477      -0.30582883       0.38627306
H        4.86982198       5.44189518       7.05524855       0.05101485       0.09320651      -0.01277871      -0.00756611       0.06133389      -0.15273808
H        5.22920023       6.69442226       4.64073043      -0.14334671      -0.07743939       0.44497983      -1.24804099       1.15394557      -0.52168015
H        6.04130427       4.97663842       4.67908487       0.16649856      -0.00796052       0.41605595      -0.11946467      -1.65681649      -0.42842390
H        7.13017802       6.48878380       5.04414084       0.00619517       0.19189729       0.32455523       0.81337109       0.61138094      -0.31403878
N        5.76121925       5.96643899       6.86532877       0.37783993      -0.37734052      -1.85564611      -1.40395331       2.44278648      -1.47921295
8
Lattice="12.0 0.0 0.0 0.0 12.0 0.0 0.0 0.0 12.0" Properties=species:S:1:pos:R:3:momenta:R:3:forces:R:3 energy=-440.46711279488056 free_energy=-440.46711279488056 stress="-0.0008994759758308697 0.00021424165561099314 1.7600992434897958e-05 0.00021424165561099314 0.000643379361496846 0.001048252642349367 1.7600992434897958e-05 0.001048252642349367 -0.0018456568097770347" pbc="T T T"
B        6.13822967       6.07172174       5.26565605      -0.19780588       0.08678456      -2.78737271      -0.24410961      -0.20719365      -3.18666391
H        5.79871078       7.01345791       7.25422698      -0.02608078      -0.28842464       0.14809343       0.21782740      -1.61873885      -0.57248165
H        6.61443080       5.46723309       7.23761758       0.00990900      -0.13382467       0.08928960       1.50453613      -0.68415329       1.10284232
H        4.97785796       5.49880226       6.95649126       0.01896164      -0.01452334       0.00592513      -0.23260631       0.08995171       0.19252345
H        5.14157267       6.42527999       4.74577302       0.03335779      -0.24765170       0.11930201       0.14084819       0.24707232       0.34946418
H        6.35617793       4.98654209       4.85817358       0.16236416       0.11388423       0.26231734       0.15664085       0.09895451       0.55638406
H        7.02214204       6.79179040       5.06657109       0.01033958       0.05063383       0.12429226       0.30430894       0.23876304       0.09142560
N        5.87887983       6.01654994       6.80266037      -0.46433438       0.41239153       2.20025287      -1.84744560       1.83534421       1.46650594
8
Lattice="12.0 0.0 0.0 0.0 12.0 0.0 0.0 0.0 12.0" Properties=species:S:1:pos:R:3:momenta:R:3:forces:R:3 energy=-439.9097561286378 free_energy=-439.9097561286378 stress="0.0011413821765365033 -0.0006679073848550939 -8.577047134397145e-05 -0.0006679073848550939 9.002340227833074e-05 -0.0006454948410175038 -8.577047134397145e-05 -0.0006454948410175038 0.003110650140746934" pbc="T T T"
B        6.26140287       6.09691318       5.04852742      -0.08896907       0.01557932       0.02790805      -1.34951000      -1.13125228      -0.55541260
H        5.87061054       6.96070414       7.43112567      -0.01279471      -0.19951036      -0.22537274      -0.01087111       2.05368147       0.73103389
H        6.74996998       5.44976120       7.46722051       0.12192615      -0.04492238       0.07554176      -0.76121279       0.82073691      -0.34537837
H        5.03357114       5.47687692       7.25791073       0.02948017       0.00334539       0.11280023      -0.09820280       0.06201836      -0.19682769
H        5.15405054       6.26804014       4.53277949      -0.00623859      -0.16010092       0.00579136       1.09592985      -0.18810609       1.19525798
H        6.69956907       4.98176891       4.77457866       0.04073357       0.10334482      -0.19980573      -0.35641347       1.28626347       0.82734710
H        6.96642886       7.01823109       4.84436912      -0.04748718       0.06000631      -0.03262327       0.14703477      -0.13329653       0.71632608
N        5.91702201       6.01408022       7.09602984      -0.46952277       0.20246133       0.39055919       1.33324555      -2.77004530      -2.37234638
8
Lattice="12.0 0.0 0.0 0.0 12.0 0.0 0.0 0.0 12.0" Properties=species:S:1:pos:R:3:momenta:R:3:forces:R:3 energy=-439.67471846971506 free_energy=-439.67471846971506 stress="0.0003679388216611081 -1.284980352575412e-17 1.7989724936055768e-17 -1.284980352575412e-17 0.00037933045985292407 4.901326657451656e-06 1.7989724936055768e-17 4.901326657451656e-06 -0.006413301667520156" pbc="T T T"
B        6.00000000       6.10750000       5.29150000      -1.18562669       0.14458042      -0.25915309       0.00000000      -0.00410405      -9.74123643
H        6.00000000       7.05450000       7.10750000      -0.14532944       0.00229032       0.00963637      -0.00000000       1.26455530       0.43764784
H        6.82000000       5.63450000       7.10750000      -0.05088004       0.05871662      -0.00160507       1.10601180      -0.64170468       0.44522093
H        5.18000000       5.63450000       7.10750000      -0.06278882       0.09035350       0.06607597      -1.10601180      -0.64170468       0.44522093
H        4.99400000       6.68850000       4.89250000      -0.33749663      -0.16782020      -0.24105658       1.21752367      -0.70449766       0.58278900
H        6.00000000       4.94550000       4.89250000      -0.13190603      -0.20393168       0.15958210      -0.00000000       1.41260176       0.58428899
H        7.00600000       6.68850000       4.89250000      -0.02170585      -0.22441818      -0.29926100      -1.21752367      -0.70449766       0.58278900
N        6.00000000       6.10750000       6.69750000       0.20460843       0.61468463      -1.12698877       0.00000000       0.01935168       6.66327976
8
Lattice="12.0 0.0 0.0 0.0 12.0 0.0 0.0 0.0 12.0" Properties=species:S:1:pos:R:3:momenta:R:3:forces:R:3 energy=-439.9837189816925 free_energy=-439.9837189816925 stress="-0.0015071134246890962 0.0004515437480670841 7.42701608117998e-05 0.0004515437480670841 -0.000990494024010771 0.0004681648437338267 7.42701608117998e-05 0.0004681648437338267 0.0023975814279188455" pbc="T T T"
B        5.92834949       5.95028339       4.96461024      -1.08015741      -0.81519940      -1.68104810       0.52649806       0.97838433       1.56389518
H        6.11832837       7.19291408       7.34365757      -0.11987339       0.19924434       0.04937339      -0.04357435       0.81649022      -0.01355021
H        7.01765901       5.72453171       7.26337721       0.12002490       0.01749503       0.02137898       0.88496902      -0.38890506       0.22377417
H        5.30934590       5.65752750       7.43162457      -0.09999049       0.09842930       0.25204722      -0.04210214       0.08250421       0.03684338
H        4.98234099       6.56510615       4.82117093      -0.34624040       0.17628504      -0.10833777      -1.19872905       0.24383755       0.01605559
H        5.89459077       4.80708592       4.84585685      -0.10823051      -0.32414841      -0.38687292       0.01335643      -0.67157730       0.23496375
H        6.84020180       6.54232609       4.56837543       0.09654650       0.11193224      -0.21253057       0.72697498      -0.05617018       0.12640480
N        6.12888966       6.20021448       7.08296998      -0.10983738       0.83527386       0.45473949      -0.86739294      -1.00456377      -2.18838665
8
Lattice="12.0 0.0 0.0 0.0 12.0 0.0 0.0 0.0 12.0" Properties=species:S:1:pos:R:3:momenta:R:3:forces:R:3 energy=-440.06319912049696 free_energy=-440.06319912049696 stress="-0.00041882718720672964 0.00010831991447437989 0.0006373198863836075 0.00010831991447437989 -0.0004978776430655062 -1.707969743557311e-05 0.0006373198863836075 -1.707969743557311e-05 0.00229446082845477" pbc="T T T"
B        5.85473470       5.87652383       4.86512677      -0.76057527      -0.23965690       1.26127074       0.73750343       0.20305170       2.24594227
H        6.15092801       7.26634833       6.90293226      -0.15296182       0.16154547      -0.24954924      -0.05745623      -0.44010700       0.25472925
H        7.14474142       5.86786372       7.20014055       0.13633653      -0.08108173      -0.19960869      -0.45515516       0.02056322      -0.32771599
H        5.42927050       5.78020899       7.51296757      -0.14434650       0.04511892      -0.13577803      -0.10201714      -0.01314918      -0.16853538
H        4.85525858       6.41334885       4.70193768       0.31913060      -0.05747816      -0.01767265      -0.78471866       0.41212741       0.07980264
H        5.85080080       4.73365167       4.93026034      -0.04218136       0.25058686       0.17523576       0.01048101      -0.86541988      -0.24385183
H        6.80466427       6.41493425       4.48703243      -0.39716451      -0.00688482      -0.05189549       0.46073287       0.15346265      -0.22973320
N        6.18296238       6.21268044       6.93287646      -0.45656856       0.20001920      -2.24713612       0.19062989       0.52947107      -1.61063776
8
Lattice="12.0 0.0 0.0 0.0 12.0 0.0 0.0 0.0 12.0" Properties=species:S:1:pos:R:3:momenta:R:3:forces:R:3 energy=-439.8595774829192 free_energy=-439.8595774829192 stress="0.0017478243468143301 -0.0002930062637031281 -0.0014793406578805781 -0.0002930062637031281 0.0011873365997565615 -0.0010678457206753753 -0.0014793406578805781 -0.0010678457206753753 -0.004982524262705999" pbc="T T T"
B        5.92594450       5.88960246       5.33303851      -1.11493629      -0.47608569      -0.89001791      -2.05085655      -1.56067783      -6.46855205
H        6.29071317       7.31958942       6.95455041      -0.08092066       0.08988381      -0.11648191      -0.21487100      -0.54924284      -0.55418343
H        7.20991992       5.89186574       6.98736203       0.03929363      -0.00553318      -0.10055075      -0.69816498       0.30121270      -0.21874950
H        5.54610757       5.82988176       7.34435641      -0.08407277       0.07905534       0.05121549       0.24147038       0.32431438      -0.03896399
H        4.79008008       6.33370824       5.18048089       0.04762043      -0.05225986      -0.01685088       1.44625494      -0.37798995      -0.42785991
H        5.87746305       4.68041058       5.27470665      -0.03422551       0.03084681       0.30559237       0.15963499       1.11965089       0.10369300
H        6.82945772       6.32226065       4.65564359      -0.18517136       0.05013680      -0.02323758      -1.14118194      -0.29495579       0.15825367
N        6.24832614       6.27674595       6.67552544       0.07801851       0.52634600      -0.51449788       2.25771417       1.03768844       7.44636221
8
Lattice="12.0 0.0 0.0 0.0 12.0 0.0 0.0 0.0 12.0" Properties=species:S:1:pos:R:3:momenta:R:3:forces:R:3 energy=-440.12824557995543 free_energy=-440.12824557995543 stress="0.0014570642597612217 0.0001307276843119157 0.00036000476791825674 0.0001307276843119157 0.0008292950052799627 0.0007771665764107011 0.00036000476791825674 0.0007771665764107011 0.002840144904547082" pbc="T T T"
B        5.77078605       5.73585548       5.03575687      -0.89444874      -0.78757387      -1.07105421      -0.19195379      -0.14000916       0.86528390
H        6.37565710       7.45059267       6.77970130      -0.02788121       0.02140102       0.11397831      -0.09770948      -0.56466195       0.11352524
H        7.35091031       6.03853953       7.06312902      -0.07077526       0.09568065       0.00261853      -0.57813923       0.10556717      -0.23495574
H        5.70498697       6.07762711       7.66920715       0.03807057       0.21437878       0.06925989       0.51784730       0.27329817      -1.02069900
H        4.64908969       6.16208238       4.95436881      -0.34928803       0.05305522       0.10930405       0.93874505       0.07496097       0.17218328
H        5.80338847       4.54940733       5.06588438      -0.14177423      -0.25778859      -0.16036823       0.07402937       0.37100664       0.63299915
H        6.62576643       6.14827502       4.33079285       0.17756134       0.11430988      -0.10380301      -0.25645354       0.42160558       0.38091286
N        6.36449658       6.39256273       6.88120868       0.08388195       0.76172689      -0.11834162      -0.40636568      -0.54176743      -0.90924969
8
Lattice="12.0 0.0 0.0 0.0 12.0 0.0 0.0 0.0 12.0" Properties=species:S:1:pos:R:3:momenta:R:3:forces:R:3 energy=-440.46352516453976 free_energy=-440.46352516453976 stress="-0.0007705419695411826 0.0003289525933332796 0.0008480786202425349 0.0003289525933332796 -0.0006306764275351137 0.0005571768439967757 0.0008480786202425349 0.0005571768439967757 0.0009690559011133455" pbc="T T T"
B        5.73527365       5.69145307       5.23381080       0.17361120       1.11261534       1.83479242       0.85319201       0.29063706       1.66370422
H        6.37242334       7.42277343       6.70650467      -0.12573499      -0.09514987      -0.09668533      -0.01915819      -0.15080378       0.36346981
H        7.32455575       5.97950586       7.00726491      -0.12702241      -0.01577959      -0.15770367       0.04070418       0.07577175       0.02868300
H        5.66931545       6.02284495       7.55497358       0.02977882       0.09913399      -0.25806956       0.23747813       0.36837559      -0.02228533
H        4.67544425       6.08283729       5.14025653      -0.15920039      -0.22668109      -0.02636311      -1.12343073       0.47778257       0.17660141
H        5.84486176       4.57722657       5.43070737       0.00151495       0.11998169       0.06989885      -0.04920248      -1.07532407       0.18861310
H        6.44707561       6.08128523       4.44502642      -0.12309703      -0.32192281      -0.08890206       0.93377153       0.61957518      -0.69150391
N        6.37102578       6.38398771       6.85920773      -0.77880221      -0.47075872      -2.36134956      -0.87335445      -0.60601429      -1.70728230
8
Lattice="12.0 0.0 0.0 0.0 12.0 0.0 0.0 0.0 12.0" Properties=species:S:1:pos:R:3:momenta:R:3:forces:R:3 energy=-440.5548636926357 free_energy=-440.5548636926357 stress="-0.0007118210738971096 -0.00022064513505316326 -0.0006627548669748392 -0.00022064513505316326 0.0005989794733852191 -0.0007269735845534363 -0.0006627548669748392 -0.0007269735845534363 -0.0017029878356156442" pbc="T T T"
B        5.73597909       5.68928458       5.36037463      -1.42105793      -0.91849085      -1.58369989      -0.09661639       0.44846608      -0.67384484
H        6.39585356       7.46835225       6.54175571      -0.17221499      -0.04105063      -0.23128752      -0.15774580      -0.05875130       0.12306742
H        7.32369679       6.04753165       6.77082048      -0.00544993       0.06759679      -0.13200980       0.20599284       0.15622795       0.24055074
H        5.78597751       6.14567575       7.47908240       0.04338613       0.18885176      -0.02524520      -0.37858736       0.12643153       0.76324141
H        4.67630321       6.17651372       5.35728590       0.07409845      -0.18810877      -0.20483682      -0.42345986      -0.52429229      -0.43067622
H        5.82027745       4.53164775       5.60564422      -0.11390188       0.07422165      -0.28700202      -0.14166199       0.46138101      -0.40871347
H        6.42720817       6.15115173       4.52091760      -0.29749445      -0.28372384      -0.00724003      -0.27582506      -0.70820075      -0.20525225
N        6.35105700       6.42327272       6.65784445       0.84699257       1.29064268       1.44884658       1.26790363       0.09873778       0.59162721
8
Lattice="12.0 0.0 0.0 0.0 12.0 0.0 0.0 0.0 12.0" Properties=species:S:1:pos:R:3:momenta:R:3:forces:R:3 energy=-440.08932472417075 free_energy=-440.08932472417075 stress="0.001017240787893962 0.0005115851738944285 0.0005558291917074885 0.0005115851738944285 0.0008115719449391961 0.00024649363563940404 0.0005558291917074885 0.00024649363563940404 0.0017794637453569556" pbc="T T T"
B        5.61796660       5.56811027       5.19945607      -0.59932790      -0.45809028      -0.15474222       0.79355729       1.05753201       1.36242808
H        6.44155067       7.55312346       6.52345512      -0.02132354       0.04129177       0.09800252      -0.29853352       0.66063155      -0.30356376
H        7.49153788       6.32273130       6.89123591      -0.07319030      -0.05021050      -0.14087886       0.44363126      -0.56229162      -0.33407345
H        6.01931752       6.39378278       7.67625468      -0.11312696      -0.04830100      -0.07534089      -0.69096089      -0.34316311       0.35646466
H        4.50846212       6.06769883       5.26709095       0.03417530       0.14739016       0.12471842       1.02568552      -0.52643880      -0.12135121
H        5.74379928       4.44687654       5.65146488       0.00646407      -0.08193779       0.14528106      -0.08888746       0.90688044      -0.78802986
H        6.36429697       6.00682597       4.32374532      -0.01515648       0.08404229       0.02920005      -0.90930263      -0.81633873       0.96722617
N        6.48265723       6.54507791       6.76147197      -0.19792603       0.54372357      -0.98395201      -0.27518957      -0.37681174      -1.13910063
8
Lattice="12.0 0.0 0.0 0.0 12.0 0.0 0.0 0.0 12.0" Properties=species:S:1:pos:R:3:momenta:R:3:forces:R:3 energy=-440.57821600932095 free_energy=-440.57821600932095 stress="-0.0009510725315166215 0.00016074481186779998 -0.0003764451952564873 0.00016074481186779998 -0.001300878485539075 -0.00029886537828775593 -0.0003764451952564873 -0.00029886537828775593 -0.0009493275124085234" pbc="T T T"
B        5.69342774       5.61100558       5.48964262       0.17579533       0.93301734       1.03570918      -0.88425593      -0.90562534      -1.42990358
H        6.41146822       7.47907787       6.50169011      -0.05685002       0.02250344      -0.08619454      -0.20413404       0.57103685      -0.09534691
H        7.41987594       6.14406879       6.68327921       0.05762595       0.11516747       0.00428149       0.58774004      -0.17280718       0.10956067
H        5.93833336       6.17683562       7.52552131       0.07947290       0.17140431       0.10543166       0.18369528       0.31790529       0.03630065
H        4.58012406       5.90464313       5.43421708      -0.16415648       0.07447178       0.07363834      -0.41322031       0.57122591       0.17691416
H        5.75125883       4.52092213       5.83814649       0.08674729      -0.06144004       0.43594935       0.27453292      -0.75096339       0.29537517
H        6.22644296       5.75783736       4.47447869       0.11394477       0.16321999      -0.15331877       0.39732701       0.29221881      -0.18919365
N        6.42465493       6.44420046       6.62716447      -1.22558819      -1.24886516      -2.32783334       0.05831503       0.07700905       1.09629349
8
Lattice="12.0 0.0 0.0 0.0 12.0 0.0 0.0 0.0 12.0" Properties=species:S:1:pos:R:3:momenta:R:3:forces:R:3 energy=-440.43029547999754 free_energy=-440.43029547999754 stress="-0.0003725183891622901 0.0006628612055356519 0.0006477970703652021 0.0006628612055356519 4.332945027461528e-06 0.0011259175046094163 0.0006477970703652021 0.0011259175046094163 -1.8754773098221688e-05" pbc="T T T"
B        5.57992484       5.55644555       5.42038921      -1.09509494      -1.14969842      -0.96293102       0.06990474       0.96136584       0.51726885
H        6.32546658       7.55826379       6.20197810      -0.00720665       0.20618479       0.01002955       0.04291145      -0.00131321       0.33818796
H        7.47822292       6.30040778       6.52176094       0.17494077       0.04391680       0.03986367       0.00833994       0.08825195       0.34337423
H        6.05083608       6.46551570       7.56224359       0.04907858       0.16148070       0.09670214       0.21918992       0.13798120      -0.04057699
H        4.52177708       5.98837865       5.43869914      -0.01884319      -0.23120512      -0.10591912      -0.73687227       0.41656033       0.19972643
H        5.60925311       4.44173621       5.64424898      -0.23780860       0.12264861      -0.16117107       0.40135276      -0.82644896       1.08198692
H        6.10321257       5.75408110       4.43775641      -0.24000320      -0.10411234      -0.06806324       0.78203145       0.56643229      -0.98511731
N        6.47976874       6.60577685       6.61437290       0.49374556       1.11085171       0.28982120      -0.78685799      -1.34282945      -1.45485009
8
Lattice="12.0 0.0 0.0 0.0 12.0 0.0 0.0 0.0 12.0" Properties=species:S:1:pos:R:3:momenta:R:3:forces:R:3 energy=-440.40065741459944 free_energy=-440.40065741459944 stress="0.0019693036381541727 -0.00029900481554975616 0.0003249524322013405 -0.00029900481554975616 0.0012462399406279472 -9.399317456489519e-05 0.0003249524322013405 -9.399317456489519e-05 0.0014531233688527228" pbc="T T T"
B        5.55198105       5.43610125       5.46974857       0.48933512       0.78271338       1.02734546       1.17593762       0.24032034       1.43929416
H        6.46030215       7.57168814       6.30672265      -0.12393332       0.01847929      -0.12323811      -0.00507960      -0.65833529       0.34072452
H        7.56682148       6.24234266       6.60602994      -0.08753061      -0.24513359      -0.19640104      -0.90722371       0.20308589       0.06225105
H        6.11143417       6.39216950       7.57747868      -0.18905777      -0.15883857      -0.13495661       0.23019901       0.19932816      -0.23049801
H        4.43317852       5.87423515       5.60973488       0.05750223      -0.11631451      -0.01937940       0.93224562      -0.49282555      -0.18775767
H        5.87603496       4.42831186       6.06880260      -0.11678684       0.03329776      -0.15581974      -0.83013087       0.66608733      -0.84914373
H        6.11331020       5.58213856       4.42252132      -0.19758356      -0.15531033       0.08005052      -0.47417421       0.03824474       0.53377504
N        6.54598428       6.56043760       6.63074350      -0.66707783      -0.00719326      -1.29423037      -0.12177384      -0.19590562      -1.10864535
8
Lattice="12.0 0.0 0.0 0.0 12.0 0.0 0.0 0.0 12.0" Properties=species:S:1:pos:R:3:momenta:R:3:forces:R:3 energy=-440.32664597550456 free_energy=-440.32664597550456 stress="-0.00015216235574667272 -0.0012581192814466616 -0.0009425701202272141 -0.0012581192814466616 -0.0002053408588928686 -0.0014996429514968995 -0.0009425701202272141 -0.0014996429514968995 -4.005686324160908e-05" pbc="T T T"
B        5.58742579       5.53720651       5.57833868      -1.03026849      -0.36379220      -0.57223171      -0.39568992      -1.07970377      -0.23242893
H        6.37273121       7.51479586       6.06905007      -0.22711872      -0.11789726      -0.24416552      -0.20920599      -0.60652334       0.21037344
H        7.49277078       6.33173649       6.46111353      -0.02581915       0.03004659      -0.05829538      -0.51603420      -0.33397144      -0.27310139
H        6.18856766       6.57677632       7.48213829       0.02335010       0.14839556       0.01397184      -0.26440209      -0.20793619      -0.58656475
H        4.50722922       6.00525540       5.75921347      -0.23455326       0.05188292      -0.00900207       0.14432898      -0.82854636      -0.54530426
H        5.84566944       4.48520414       6.11468624       0.12349121      -0.10525330       0.08440563      -0.71930104       0.51968236      -0.94724983
H        6.08384149       5.74095522       4.51786171      -0.01210347      -0.06275447      -0.12438379      -0.70768436      -0.65762130       0.06030353
N        6.43538957       6.50893220       6.44023833       0.58493061       0.56434383       0.12929243       2.66798862       3.19462004       2.31397220
8
Lattice="12.0 0.0 0.0 0.0 12.0 0.0 0.0 0.0 12.0" Properties=species:S:1:pos:R:3:momenta:R:3:forces:R:3 energy=-440.422806473284 free_energy=-440.422806473284 stress="-6.497626229591184e-06 0.0012134959936859907 0.000553095227184042 0.0012134959936859907 0.0009108878474466613 0.0007132312304377461 0.000553095227184042 0.0007132312304377461 0.000339855187963038" pbc="T T T"
B        5.47303701       5.37827646       5.53947204      -0.85620543      -0.59267724      -0.45705949       1.11987558       1.74122589       0.88980588
H        6.49207076       7.62895072       6.09106733       0.17163639       0.08277729       0.23955256      -0.31681005      -0.37153059      -0.00003373
H        7.56248837       6.34580848       6.43555887      -0.07138460       0.09211948       0.07182265      -0.09631431      -0.14271103      -0.15836014
H        6.28490874       6.65873679       7.52479726       0.10679267       0.06534992      -0.12063366      -0.10217331       0.00958280      -0.65486744
H        4.43751163       5.82035873       5.75098745      -0.01122257       0.22358823       0.20027052      -0.81443960       0.27267861       0.05162145
H        5.68294081       4.37104928       6.05813511       0.19507808      -0.07899536       0.26843373       0.38357445      -0.45858159       0.30659934
H        5.88268924       5.55231982       4.47520274       0.12565835       0.10441514       0.01288498       0.17461565      -0.13122067      -0.54476559
N        6.55579275       6.65254400       6.49456407      -0.42451465       0.24223101      -0.96250222      -0.34832841      -0.91944342       0.11000023
8
Lattice="12.0 0.0 0.0 0.0 12.0 0.0 0.0 0.0 12.0" Properties=species:S:1:pos:R:3:momenta:R:3:forces:R:3 energy=-440.48672690399053 free_energy=-440.48672690399053 stress="-0.0007759888433337323 0.0001157801158744427 0.00020007846640135739 0.0001157801158744427 -0.001302581633423416 -3.698934324352065e-05 0.00020007846640135739 -3.698934324352065e-05 -0.000659888893625288" pbc="T T T"
B        5.58885552       5.49272681       5.70213360       0.32177594       0.55122193       0.49687890      -0.88573020      -1.36202746      -0.95140030
H        6.37278713       7.49304295       5.95981046      -0.08558216      -0.10955816      -0.05537070       0.19279215       0.52372816       0.28822257
H        7.52812881       6.24565351       6.32329347      -0.06362659       0.08853635      -0.04575035       0.36283387       0.21237072       0.09138314
H        6.23293337       6.53384098       7.43134205       0.12032034       0.14563172      -0.13150376       0.13455555       0.51951027       0.47562689
H        4.47187119       5.72068642       5.83466221       0.26620008       0.08743338       0.11829952      -0.48211913       0.82209428       0.45912001
H        5.80395104       4.50695705       6.22931681      -0.09998866       0.18178530      -0.00980749       0.41383254      -0.78893721       0.53403538
H        5.79886329       5.38693502       4.56865795       0.05624275       0.16564943       0.22602262       0.64230490       0.45312115      -0.27092970
N        6.54784245       6.58446657       6.44116274      -1.25745617      -0.97589633      -1.32444085      -0.37846968      -0.37985991      -0.62605798
8
Lattice="12.0 0.0 0.0 0.0 12.0 0.0 0.0 0.0 12.0" Properties=species:S:1:pos:R:3:momenta:R:3:forces:R:3 energy=-440.4934381777413 free_energy=-440.4934381777413 stress="0.0010377292777946825 0.00013339166460830782 0.00021634623173941405 0.00013339166460830782 0.0006833853668704537 0.00020385815099653427 0.00021634623173941405 0.00020385815099653427 0.000560208385199282" pbc="T T T"
B        5.56183140       5.50770862       5.75392710      -0.97777648      -0.58216600      -0.47351745      -1.10844850      -0.55530724      -1.23258717
H        6.33823003       7.55370494       5.86738765      -0.07765274      -0.02990216      -0.02897701       0.04859445       0.72427047       0.05041986
H        7.58988004       6.42978379       6.22171372      -0.02983945      -0.04908931      -0.04556554       0.41685406       0.02850737       0.10146067
H        6.42302437       6.81301745       7.44145465      -0.01094160      -0.02086915      -0.02615205      -0.09309859       0.29271146       0.94979400
H        4.41011996       5.90021339       5.89490362      -0.12619393      -0.34873184      -0.11082166       1.47497259      -0.22205091       0.20650822
H        5.77913721       4.44629506       6.27010488      -0.15591569       0.07092196      -0.03047489       0.08433168       0.99427288       0.00879218
H        5.81588092       5.46565374       4.55854535      -0.26281300      -0.25839666      -0.05953001       0.05739692       0.30016132       1.38538600
N        6.61828288       6.73389441       6.43540086       0.91571680       1.35000356       0.06569492      -0.88060261      -1.56256534      -1.46977375
8
Lattice="12.0 0.0 0.0 0.0 12.0 0.0 0.0 0.0 12.0" Properties=species:S:1:pos:R:3:momenta:R:3:forces:R:3 energy=-440.48965363781207 free_energy=-440.48965363781207 stress="0.0001404657425763519 0.0005987311648192501 0.0002456096521068845 0.0005987311648192501 0.0007709121763497586 0.0003116963506104738 0.0002456096521068845 0.0003116963506104738 -0.000192636017917231" pbc="T T T"
B        5.45303018       5.29741785       5.74186940       0.73090440       0.83046287       0.81475303       1.21531874       1.71554853       0.44505694
H        6.49153422       7.59241863       5.97144405      -0.15763222       0.00823024      -0.12111694      -0.63505041       0.29636564      -0.45219598
H        7.56644025       6.34446628       6.19713053      -0.07668327      -0.17457399      -0.11304081       0.41094782      -0.46179061      -0.26923884
H        6.44956936       6.66648981       7.38802832      -0.13917815      -0.12681015       0.02452835      -0.30629285       0.02207382       0.32563672
H        4.43355975       5.83144304       5.99970629      -0.24478027       0.11350196      -0.01517227      -0.04982989      -0.60478061      -0.11134436
H        5.84936290       4.40758137       6.40881411      -0.07133914      -0.23406619       0.02039318      -0.41526935       0.08681672      -0.13324553
H        5.76988715       5.26731515       4.61197168      -0.06617046      -0.04933127      -0.27724233      -0.26579256      -0.17664557      -0.01257401
N        6.57362644       6.62388995       6.35070829      -0.69139386      -0.23730390      -1.03350535       0.04596851      -0.87758792       0.20790507
8
Lattice="12.0 0.0 0.0 0.0 12.0 0.0 0.0 0.0 12.0" Properties=species:S:1:pos:R:3:momenta:R:3:forces:R:3 energy=-440.35942970263386 free_energy=-440.35942970263386 stress="-0.0014912681758476214 -0.0005644587768666239 0.000170923746790224 -0.0005644587768666239 -0.0020042159783321225 -0.000308705218728176 0.000170923746790224 -0.000308705218728176 -0.001043676460742548" pbc="T T T"
B        5.48531330       5.42479214       5.80099508      -1.00582215      -1.03705580      -0.08970727       0.75841877      -0.32028612       1.20787395
H        6.23638970       7.42590974       5.71733128       0.00806660       0.15326442      -0.04498236      -0.12877164       0.20184499       0.07873067
H        7.50790396       6.42244823       6.04793338       0.11386885       0.05946475      -0.02348589       0.22138155      -0.60542502      -0.24853692
H        6.49707979       6.84509657       7.28723310       0.10226231       0.20091825       0.00410588      -0.47241123      -0.31947977      -0.17197327
H        4.49209604       5.89613643       6.08454474       0.06213576       0.18796454      -0.00780545      -1.30835722      -0.11884018      -0.01892924
H        5.87453570       4.57409026       6.46763593       0.07361140       0.06703756      -0.05938044      -0.47793445      -1.08815209       0.05175516
H        5.75717095       5.36277393       4.71276690       0.00460336       0.08649145       0.05995291      -0.24734644      -0.57992807      -1.62198654
N        6.48688218       6.55948738       6.26125743      -0.07690926       0.41237137      -0.54096836       1.65502066       2.83026625       0.72306619
8
Lattice="12.0 0.0 0.0 0.0 12.0 0.0 0.0 0.0 12.0" Properties=species:S:1:pos:R:3:momenta:R:3:forces:R:3 energy=-440.4658993048991 free_energy=-440.4658993048991 stress="0.0012645154734195366 0.0006001535346242442 0.00013202167431462455 0.0006001535346242442 0.0018624153554688118 -0.00023145235553615986 0.00013202167431462455 -0.00023145235553615986 0.001142047858678952" pbc="T T T"
B        5.45845585       5.33585487       5.84755250      -1.08682216      -0.51993448      -0.37584826       0.45091998      -0.25941808       0.70973203
H        6.41058415       7.59217461       5.69523491       0.05642563       0.14038187       0.01618866       0.08500175      -0.40221439       0.48925979
H        7.60819322       6.34236711       6.02803301       0.14195486       0.08041953       0.01307837      -0.54746505       0.38021972       0.11430875
H        6.54039411       6.83559130       7.31619171       0.05613174       0.12883269      -0.02666261       0.04330295       0.30756497      -0.50603961
H        4.39180678       5.71759893       6.19150359       0.16273868       0.16393482       0.09513544       0.42365566       0.27379489      -0.20686556
H        5.81286766       4.40782539       6.54608551       0.32897198       0.29656766       0.11413472       0.05218351       1.03544080      -0.65586616
H        5.59268934       5.15421309       4.68380829       0.11633720       0.12728324       0.17074769       0.09361775       0.27554839       0.42302220
N        6.64792663       6.73146595       6.26869433      -0.50479425      -0.28505370      -0.71967729      -0.60121655      -1.61093630      -0.36755145
8
Lattice="12.0 0.0 0.0 0.0 12.0 0.0 0.0 0.0 12.0" Properties=species:S:1:pos:R:3:momenta:R:3:forces:R:3 energy=-440.32068296512193 free_energy=-440.32068296512193 stress="0.0001354780522480706 -0.0004478153248452323 -0.0002441923779767856 -0.0004478153248452323 7.569801850497895e-05 -0.00029202603784477015 -0.0002441923779767856 -0.00029202603784477015 0.0007247737229632907" pbc="T T T"
B        5.56006704       5.50348322       5.92604584       0.54526438       0.76734317       0.24025524      -3.17629981      -2.96005493      -1.10660457
H        6.26439269       7.50494891       5.54782957      -0.16995925      -0.12690852      -0.09035423       0.42752107      -0.20715118       0.75465499
H        7.54471751       6.34786466       5.92188473      -0.12187468      -0.06977704      -0.11364658      -0.62478026       0.69151459       0.34181545
H        6.50030840       6.90989549       7.22510534      -0.06402472       0.05129108      -0.08322487       0.27887745       0.47932377      -0.44400534
H        4.45528249       5.79320561       6.23324915       0.05466221       0.06073853       0.09382987       0.54855877       0.73283443       0.09154489
H        5.74764715       4.49505109       6.51656397      -0.16428084      -0.08845346       0.01303323       0.97992234       0.74397226       0.22872629
H        5.49216027       5.19796469       4.77489466       0.04112573       0.09646616       0.03727700       0.66432715       0.70345800       0.41539933
N        6.56894027       6.70732416       6.18810224      -0.87754597      -0.55325901      -0.83703877       0.90187328      -0.18389693      -0.28153104
8
Lattice="12.0 0.0 0.0 0.0 12.0 0.0 0.0 0.0 12.0" Properties=species:S:1:pos:R:3:momenta:R:3:forces:R:3 energy=-440.6013966659758 free_energy=-440.6013966659758 stress="0.001263075404812452 0.0007345665164203354 0.0002793294771023888 0.0007345665164203354 0.0004053748174548924 0.00044292860907648845 0.0002793294771023888 0.00044292860907648845 0.0006443673254039927" pbc="T T T"
B        5.47495361       5.37284113       5.97443938      -0.36567960       0.04034316      -0.06635259      -0.10022066      -0.09001863      -0.51411560
H        6.29183716       7.46105337       5.49928703      -0.00340374       0.00419045       0.01685975       0.15228436      -0.06355363       0.46455998
H        7.59778541       6.39439663       5.85042088      -0.17516379      -0.14334998      -0.04228720      -0.50186076      -0.00426284       0.21151731
H        6.65985471       7.02954297       7.16941076      -0.10369867      -0.10598203      -0.02869202      -0.11401620      -0.08637828      -0.52126012
H        4.40221459       5.71983355       6.32131359      -0.27187834      -0.38399675       0.02950852       0.48592658       0.42242255       0.18390207
H        5.92676132       4.53894663       6.63564744      -0.26837650      -0.35186486       0.10120315       0.18581489      -0.24429897       0.34922074
H        5.43607277       5.04868513       4.83058924      -0.33062043      -0.38535734      -0.04012946       0.45755386       0.51948033       0.38107814
N        6.62692490       6.70110170       6.15899280       0.71702657       1.47166173      -0.75414002      -0.56548207      -0.45339052      -0.55490253
8
Lattice="12.0 0.0 0.0 0.0 12.0 0.0 0.0 0.0 12.0" Properties=species:S:1:pos:R:3:momenta:R:3:forces:R:3 energy=-440.33182806369325 free_energy=-440.33182806369325 stress="-0.0009994171335370625 0.0010733473014110481 -0.0001281459721743045 0.0010733473014110481 -0.0002988320245761996 0.00010301267421827725 -0.0001281459721743045 0.00010301267421827725 -0.0012507593538077363" pbc="T T T"
B        5.38923883       5.21635624       6.03267172       0.63201350       1.22004743       0.20580484       1.47162230       3.06289965      -0.84165628
H        6.34027690       7.44384525       5.50611830      -0.19253479      -0.18688588      -0.02085376      -0.68295682       0.02399044      -0.16272699
H        7.49566146       6.29414216       5.78067640      -0.10496810       0.08227129      -0.06196282       0.43155142      -0.59063741      -0.18944851
H        6.64357615       6.89774840       7.08873840      -0.00142659       0.04550086      -0.19317997      -0.24111972      -0.03714008      -0.03164793
H        4.50433854       5.83246790       6.39747032      -0.13942067      -0.16110661      -0.07059315      -1.29941352      -0.26381817       0.47026833
H        5.97359239       4.55615475       6.71922926      -0.13748019       0.09213004      -0.10497112       0.32597083      -1.53988362       1.16071585
H        5.46857531       5.03670723       4.91126160      -0.20787472      -0.14044714       0.00498067      -0.40547004      -0.77770531      -0.94938244
N        6.54417511       6.59143878       6.08454248      -0.71692154      -0.79372815      -0.60859270       0.39981555       0.12229450       0.54387798
8
Lattice="12.0 0.0 0.0 0.0 12.0 0.0 0.0 0.0 12.0" Properties=species:S:1:pos:R:3:momenta:R:3:forces:R:3 energy=-440.3968773123336 free_energy=-440.3968773123336 stress="-0.0005389586108240669 -0.0013872351415725043 -5.868876282501367e-05 -0.0013872351415725043 -0.0002982712116376066 -0.00026457997477369923 -5.868876282501367e-05 -0.00026457997477369923 0.0007433059761667542" pbc="T T T"
B        5.49696979       5.40280705       6.16222545      -1.17437138      -1.41956745       0.50637471      -0.03496844       0.16149466       0.38942396
H        6.17231310       7.37621513       5.45361779       0.18255958       0.18533280       0.01643586      -0.39159630       0.55275641      -0.27198896
H        7.45746074       6.35592050       5.68193754       0.01134619       0.04719074      -0.02713583       0.68303565      -0.35772796      -0.15595380
H        6.73940719       7.08107038       7.01656637       0.08434827       0.06644372      -0.20699234       0.04444918       0.32955176       0.79807063
H        4.54253926       6.05282056       6.57871164       0.26258484       0.15397034      -0.14312440       0.53919818      -1.48113947      -0.48231427
H        6.04832529       4.62378487       6.94261442       0.00550172       0.25148197      -0.15901528      -1.05674982       0.71458005      -1.02664426
H        5.53084249       5.12914188       4.98343363       0.03834823       0.20635960       0.15112703      -0.65679666      -0.41468178       1.06332590
N        6.55142553       6.65174050       6.09339991      -0.36575117       0.68234091      -1.07193480       0.87342822       0.49516633      -0.31391920
8
Lattice="12.0 0.0 0.0 0.0 12.0 0.0 0.0 0.0 12.0" Properties=species:S:1:pos:R:3:momenta:R:3:forces:R:3 energy=-440.32436536254863 free_energy=-440.32436536254863 stress="0.0014252066079969224 0.0010594887348707453 -0.00020991408572603967 0.0010594887348707453 0.0009821564403530237 -0.0002826913345824609 -0.00020991408572603967 -0.0002826913345824609 6.878846121601563e-05" pbc="T T T"
B        5.47165020       5.31156565       6.10405939      -0.41131474      -0.04077814       0.06253674       0.78342198      -1.32909295       1.65745009
H        6.24805325       7.39055300       5.25930003      -0.11096493       0.03978217      -0.06420626      -0.30516172       0.75606542      -0.36644361
H        7.53893865       6.28647226       5.47623164       0.02685866       0.00349041      -0.08232444       0.27071124      -0.11532235      -0.02421019
H        6.82947971       7.03621551       6.85443360      -0.00232357       0.10061919      -0.01664472       0.21283076       0.56350972       0.93244702
H        4.46106135       5.66923276       6.64168518      -0.24059860       0.45489555       0.22327469       0.80230451       0.59847918      -0.70122226
H        6.07261070       4.60944700       6.91205480       0.36380351       0.05918227       0.19536429      -0.44108434       0.91378319      -1.01338150
H        5.32043485       4.71511364       5.08794520       0.11733731      -0.00263637      -0.42173176       0.29152112       0.88805583       0.06005129
N        6.68220776       6.70522209       5.89565751      -0.78499731      -0.42524158      -0.91537714      -1.61454355      -2.27547804      -0.54469084
8
Lattice="12.0 0.0 0.0 0.0 12.0 0.0 0.0 0.0 12.0" Properties=species:S:1:pos:R:3:momenta:R:3:forces:R:3 energy=-440.21425209281614 free_energy=-440.21425209281614 stress="-0.001990797012333032 0.00022815594081359095 -7.71699898403258e-05 0.00022815594081359095 -0.0017041325441639996 -2.0867208298405294e-05 -7.71699898403258e-05 -2.0867208298405294e-05 -0.0016183987245792233" pbc="T T T"
B        5.55340075       5.50091998       6.14869297      -0.04492665       1.14348000      -0.52408901      -1.40263931      -1.52176601       0.37450672
H        6.02547663       7.29688425       5.13953746      -0.32204860      -0.09028476      -0.13796386       0.07062337       0.35002349       0.12273191
H        7.38808799       6.30692152       5.33274819      -0.02052572      -0.11795890      -0.10405610       0.38881669       0.02603779       0.10822969
H        6.79047234       7.19409275       6.70051503      -0.00040967       0.14080916       0.04731839       0.15160153       0.15239176      -0.17283682
H        4.61191201       5.89834091       6.58332667       0.06835305      -0.37534990       0.14567194      -1.41005345       1.41075126       0.63585961
H        5.87480858       4.70311575       6.86046254      -0.21124806       0.04986853      -0.04619638       1.65660908      -0.64075159       1.22956093
H        5.26401100       4.95640752       5.22344517      -0.07840955      -0.12763402       0.36267604      -0.08722314      -0.40847990      -2.00621746
N        6.53498344       6.67665356       5.81852360      -0.50597095      -0.42035875      -0.83383901       0.63226523       0.63179320      -0.29183457
8
Lattice="12.0 0.0 0.0 0.0 12.0 0.0 0.0 0.0 12.0" Properties=species:S:1:pos:R:3:momenta:R:3:forces:R:3 energy=-440.44903879903984 free_energy=-440.44903879903984 stress="0.0010042710963408961 4.2634609933925475e-05 0.0003357341560988178 4.2634609933925475e-05 0.0015961386162176628 -0.00014862751809987049 0.0003357341560988178 -0.00014862751809987049 0.0019713044647812093" pbc="T T T"
B        5.45101625       5.27650230       6.28998732      -0.19933266       0.33091824      -0.07390603       0.73090597       1.15825898      -1.16443064
H        6.17515823       7.30632271       4.98016450      -0.06361122       0.13823015      -0.16741676      -0.03389300      -0.53862901       0.79309163
H        7.41482642       6.16095355       5.28590550       0.01713939      -0.17126303      -0.05148664      -0.13815895       0.05591590       0.16859742
H        6.89155575       7.16723957       6.59633413      -0.04917546      -0.00380499       0.05749011      -0.36423039      -0.32947652      -0.86880285
H        4.58517358       5.95820395       6.76178313      -0.07795027      -0.43180153       0.13950109       0.39187049      -0.77676394      -0.04566661
H        6.21668834       4.69367729       7.01983550      -0.44517983      -0.40891559       0.16867644      -0.83912957       0.34534963      -0.49620847
H        5.19557594       4.76811535       5.21312540      -0.26572765      -0.30268698       0.41218674       0.15741778       0.25477795       1.23796321
N        6.57660796       6.63977450       5.71642815      -0.07103734       1.05910449      -1.61433246       0.09521767      -0.16943299       0.37545630
8
Lattice="12.0 0.0 0.0 0.0 12.0 0.0 0.0 0.0 12.0" Properties=species:S:1:pos:R:3:momenta:R:3:forces:R:3 energy=-440.0732007227273 free_energy=-440.0732007227273 stress="0.0008159738125613302 -0.00018718361435115445 3.1121095181244765e-05 -0.00018718361435115445 -8.232273578008487e-05 0.0007513589484081292 3.1121095181244765e-05 0.0007513589484081292 0.0009295272745367724" pbc="T T T"
B        5.41316098       5.25391237       6.39540165       0.33945191       1.06359596      -0.31837594       1.15803803       2.71660982      -2.15984659
H        5.89586932       7.03872614       4.99405103      -0.18124826      -0.16831558       0.01941161       0.42368446      -0.24745930       0.74483791
H        7.34303680       6.15073629       5.18829651      -0.03859419       0.01502727      -0.11357738      -0.86725654      -0.05172606       0.66614384
H        6.83049880       7.17928216       6.46848877      -0.04730236       0.02882200      -0.21193256      -0.44538713      -0.54646897      -0.51818875
H        4.65696320       6.06083735       6.84885102       0.07347142       0.15173856      -0.09524598      -0.20013240      -1.20125750       0.30720926
H        6.30818704       4.86974538       7.00594897       0.11138260       0.13733215      -0.07587494      -0.46804551      -1.44486394       1.00670082
H        5.16118770       4.82071784       5.30270654       0.00474491       0.10219852      -0.07290078      -0.40946747      -0.67409967       1.20960372
N        6.47039126       6.49916777       5.72103072      -1.42443374      -1.11922803      -0.26827465       0.80856658       1.44926562      -1.25646023
8
Lattice="12.0 0.0 0.0 0.0 12.0 0.0 0.0 0.0 12.0" Properties=species:S:1:pos:R:3:momenta:R:3:forces:R:3 energy=-440.567933091054 free_energy=-440.567933091054 stress="0.000669444825590703 -0.0009884748495227911 0.0005151710483758961 -0.0009884748495227911 0.0008003674104555355 0.00017783974618286756 0.0005151710483758961 0.00017783974618286756 0.0015366943818964256" pbc="T T T"
B        5.53729971       5.38864277       6.40814482      -1.60861156      -1.31134875       1.17125795      -0.47550977       0.57061936      -0.34519501
H        5.91720812       7.07415821       4.83929988       0.13919786       0.07075006      -0.04830535       0.08242154      -0.16071283       0.52144253
H        7.26860611       6.02861569       5.09869419      -0.04431029       0.12073823      -0.06064666      -0.78869730       0.57381869       0.39020989
H        6.89284057       7.21488337       6.28786302       0.04958271      -0.00031012      -0.24056990      -0.25652080       0.04938092      -0.26980510
H        4.73139389       6.12303219       6.92847830      -0.02232497       0.38849892       0.00047371       0.42201385      -1.01269252      -0.16008820
H        6.30591573       4.82807125       7.16070012       0.51375624       0.36998353      -0.10160793      -0.75680975       0.45141179      -0.78064878
H        5.12510638       4.78511663       5.44765324       0.00636425       0.04547881      -0.37161576       0.14186171       0.01418283       1.13970539
N        6.46013221       6.54961449       5.58771787      -0.17269974       0.52311467      -1.46279476       1.63124052      -0.48600824      -0.49562072
8
Lattice="12.0 0.0 0.0 0.0 12.0 0.0 0.0 0.0 12.0" Properties=species:S:1:pos:R:3:momenta:R:3:forces:R:3 energy=-440.11318033670136 free_energy=-440.11318033670136 stress="-0.0006270033095914391 0.0013854848073803698 -0.001303773346708575 0.0013854848073803698 -0.00017755780340041093 -0.0018212094123040085 -0.001303773346708575 -0.0018212094123040085 -0.00048221613790738364" pbc="T T T"
B        5.55028029       5.47992349       6.47917983       0.48054413       0.21017401       0.11112786       0.85420073       0.66617550       0.06239321
H        5.87330689       7.14901577       4.78917316      -0.01167460      -0.05533778       0.03504042      -0.10600013       0.24990970      -0.02958442
H        7.25252132       6.11518374       4.95156804      -0.21870423       0.11718422       0.00254201       0.08032300      -0.06891093      -0.09440651
H        6.97240030       7.31695171       6.15830237      -0.06169878      -0.03533149      -0.18119877      -0.04424238       0.27986588      -0.06742784
H        4.74747868       5.99401104       7.06960434       0.01671951       0.33515443      -0.12438703      -0.84651561       1.73869679       0.42327425
H        6.21731505       4.93737710       7.21082684      -0.12336098       0.11054547       0.00656313       1.70141807       0.00659045       0.59458129
H        5.06702802       4.68304829       5.88269098      -0.01996146       0.11607070      -0.28412555      -0.57250049      -0.99376748      -2.27632482
N        6.53207114       6.68447545       5.45191948      -1.14793243      -0.60117731      -0.62756785      -1.06668319      -1.87855992       1.38749486
8
Lattice="12.0 0.0 0.0 0.0 12.0 0.0 0.0 0.0 12.0" Properties=species:S:1:pos:R:3:momenta:R:3:forces:R:3 energy=-440.34871545857294 free_energy=-440.34871545857294 stress="0.00020175025351690723 -0.0004918078178745432 0.0009322064300181189 -0.0004918078178745432 -0.000895153124354321 0.0009300799610770244 0.0009322064300181189 0.0009300799610770244 -0.0009877798274767608" pbc="T T T"
B        5.70228665       5.60800843       6.39808286      -0.14476692       0.56837102      -0.40522830      -1.28483321      -3.57410420       3.50187083
H        5.72897867       6.92552689       4.85020166      -0.04199805      -0.04329184      -0.01009438      -0.07848233       0.81403115      -0.62210005
H        7.13925760       6.02079048       4.84736909      -0.11425577      -0.10073259       0.05975407       0.95075383      -0.69690265      -0.72156993
H        7.00009257       7.28046584       5.96291800      -0.05726289      -0.08014509      -0.07517279       0.16487967       0.48926482       0.11746321
H        4.86074240       6.21098323       7.01478170       0.08765083      -0.44781286       0.04325258       0.87404882      -0.03570783      -0.67858121
H        6.52245702       5.09501417       7.15263091      -0.30343123       0.05072058      -0.12069272      -0.87545645       0.79317906      -0.83571621
H        5.16917112       4.71953416       5.78538486      -0.00262421       0.09624076       0.59321537       0.50764447       0.92464537      -0.00067386
N        6.48552363       6.53650409       5.44530739      -0.44666997       0.14254101      -1.08571839      -0.25855480       1.28559429      -0.76069276
8
Lattice="12.0 0.0 0.0 0.0 12.0 0.0 0.0 0.0 12.0" Properties=species:S:1:pos:R:3:momenta:R:3:forces:R:3 energy=-440.28845219640027 free_energy=-440.28845219640027 stress="0.00020814731717302805 7.184730039871655e-05 0.00012126409964904478 7.184730039871655e-05 0.00036793940509754586 -0.0005295449421879388 0.00012126409964904478 -0.0005295449421879388 0.0009443445902186762" pbc="T T T"
B        5.59555119       5.50521540       6.70934517      -0.27690027       0.33908413      -0.06873842       1.15434132       1.31023438      -1.80772535
H        5.83649492       7.05929090       4.69142392      -0.21467732      -0.05987114       0.00939258      -0.80215024       0.28013184      -0.07766698
H        7.08218903       5.96930446       4.89335335       0.02217912      -0.12881725      -0.12468472       0.55666688      -0.73923726      -0.36354073
H        6.99065332       7.26825006       5.93453197      -0.06360520       0.03669647      -0.02909444       0.35367433       0.81546173       0.53163316
H        4.91781097       6.38866037       7.14917811      -0.29947757       0.04764658       0.20615472       0.08670800      -0.96456315       0.19993686
H        6.61137791       5.19664898       7.30857608       0.19672982      -0.20135080       0.22556306      -1.24614645       0.07912972      -0.37251121
H        5.12496898       4.73174994       5.91423495      -0.25052491      -0.25145678       0.11154837       0.05847171       0.23754236       1.11653971
N        6.43254431       6.59039755       5.39843728      -0.06858357       0.39151720      -1.26384509      -0.16156555      -1.01869962       0.77333454
8
Lattice="12.0 0.0 0.0 0.0 12.0 0.0 0.0 0.0 12.0" Properties=species:S:1:pos:R:3:momenta:R:3:forces:R:3 energy=-440.47158414717995 free_energy=-440.47158414717995 stress="-0.0014780405131230153 0.00041017882668935535 -0.0005916682400266949 0.00041017882668935535 -0.0011917448029334682 5.407598085443764e-05 -0.0005916682400266949 5.407598085443764e-05 -0.0008073159767190435" pbc="T T T"
B        5.63057479       5.52223919       6.66217836       0.32591685       0.61757794      -0.49400077       0.35048521       1.18799675      -1.95092417
H        5.57347017       6.76274510       4.81554160      -0.08900125       0.01664237      -0.13538453      -0.48245270       0.32083455      -0.11999879
H        6.98157774       5.88845635       4.76098699      -0.03941450      -0.10702434      -0.06551283      -0.07470841      -0.29216879       0.48188833
H        6.90304335       7.25358309       5.73045868      -0.02842766       0.08045382      -0.03519093       0.13408595       0.38656065       0.52099997
H        5.01842226       6.35619320       7.12986243       0.16609965       0.31065048      -0.34726159      -1.02379135       0.35127687       0.80093347
H        6.53265624       5.22195328       7.23901301       0.24727031       0.09351964      -0.08189922       1.28117842      -0.99662620       1.33261599
H        5.10710415       4.74641691       6.00119066       0.10273810       0.24667212      -0.33383901      -0.64991637      -0.81697848       0.19709002
N        6.34901200       6.42351805       5.42503206      -1.58701197      -1.09467631       0.61123945       0.46511924      -0.14089535      -1.26260481
8
Lattice="12.0 0.0 0.0 0.0 12.0 0.0 0.0 0.0 12.0" Properties=species:S:1:pos:R:3:momenta:R:3:forces:R:3 energy=-440.6536643118597 free_energy=-440.6536643118597 stress="0.0006111771519121448 0.0003741873314213684 -0.0003664283943983589 0.0003741873314213684 0.0006018802750355203 0.00019062016366788408 -0.0003664283943983589 0.00019062016366788408 0.0007080495602926647" pbc="T T T"
B        5.67758925       5.64609495       6.66502475      -1.14866589      -0.93820088       1.78395902      -0.27940469      -0.36951825       0.63207459
H        5.57100739       6.80226005       4.66077079      -0.02014964       0.11104281      -0.27065363       0.21309047       0.12264387       0.26620585
H        6.96286929       5.80177294       4.79565856       0.01762843       0.05591020      -0.21876512      -0.22850727       0.30632173       0.26805667
H        6.91760810       7.28730894       5.68518300       0.08834674       0.21058914      -0.21807372      -0.39791500      -0.30865103      -0.30559250
H        5.03713071       6.38526147       7.33922921       0.18801898       0.18955708      -0.11566827       0.26798397       0.04623090      -0.69414693
H        6.63516858       5.30704359       7.23883375       0.07594520       0.32852256      -0.33049779       0.17140772      -0.06273805       0.01265976
H        5.04545522       4.71269106       6.29011220       0.04093014       0.04200079      -0.20675038       0.31448230       0.56645903      -0.27718534
N        6.33174626       6.47628957       5.32230908      -0.10574044       0.15746523      -1.26810066      -0.06113749      -0.30074819       0.09792789
8
Lattice="12.0 0.0 0.0 0.0 12.0 0.0 0.0 0.0 12.0" Properties=species:S:1:pos:R:3:momenta:R:3:forces:R:3 energy=-440.1985396254155 free_energy=-440.1985396254155 stress="0.0012176008645445528 0.000247336523127159 -0.0002127056329957784 0.000247336523127159 0.0014825321916136875 -0.0007855313408964185 -0.0002127056329957784 -0.0007855313408964185 0.002373541874056666" pbc="T T T"
B        5.76119511       5.61661997       6.68409927       0.25797247       0.63270506      -0.82234356      -1.60922825      -0.45514082       0.69082267
H        5.48791108       6.70167414       4.59730919      -0.15113888      -0.06577386       0.07535837       1.06402185       0.01272252       0.50099254
H        6.95468182       5.71170731       4.65465330      -0.07765785      -0.04654129      -0.08035656      -0.03754904       0.49509175       0.02184926
H        6.94341470       7.28249605       5.52543579      -0.07985990       0.03067279      -0.05472063      -0.56263187      -0.73144468      -0.83283621
H        5.05189608       6.39745219       7.26203217       0.06058680       0.01691914       0.03536663       0.89581378       0.04097365      -0.71807866
H        6.58736149       5.15154510       7.40269081      -0.17694247       0.13182397      -0.05463357       0.47031823       0.82616454      -0.95851855
H        5.04531818       4.71750395       6.36643416      -0.02505926      -0.00514057       0.00562239       0.53890796       0.51434427      -0.70597461
N        6.38073472       6.45552933       5.13688411      -0.64876427      -0.54192407       0.07347382      -0.75965267      -0.70271122       2.00174358
8
Lattice="12.0 0.0 0.0 0.0 12.0 0.0 0.0 0.0 12.0" Properties=species:S:1:pos:R:3:momenta:R:3:forces:R:3 energy=-440.46274656858577 free_energy=-440.46274656858577 stress="0.0009390715462881983 -0.000653599381950772 0.0010160779800092463 -0.000653599381950772 2.174698635380208e-05 0.0010942920637976013 0.0010160779800092463 0.0010942920637976013 -0.0018887218763622212" pbc="T T T"
B        5.80306610       5.71978369       6.67928575       0.49637778       0.53083452      -0.56388343      -0.38922456      -1.57476072       3.23709951
H        5.41955586       6.61206237       4.76112046       0.00498915      -0.00716943      -0.00715489       0.74606151       0.08903315       0.33668355
H        6.83332415       5.62318389       4.79844897      -0.07634767      -0.19709218       0.17812833      -0.21588892       0.65441455       0.28895303
H        6.87510462       7.19737833       5.56331401      -0.09728299      -0.14618014       0.11827694      -0.39570435      -0.47661055      -0.46951217
H        5.16425774       6.53188277       7.23887954      -0.18759762      -0.04919523       0.24259850       0.35767682       0.03556783       0.06150991
H        6.81039454       5.36507663       7.23224212      -0.10705185      -0.17487337       0.29542761      -0.79610253       0.43906061      -0.18923628
H        5.12489538       4.80262167       6.44684382      -0.12496005      -0.14877528       0.34647999      -0.01626614      -0.16962349      -0.28465210
N        6.26741382       6.33968784       5.35983087      -0.74025210       0.34360504      -1.42356175       0.70944817       1.00291861      -2.98084544
8
Lattice="12.0 0.0 0.0 0.0 12.0 0.0 0.0 0.0 12.0" Properties=species:S:1:pos:R:3:momenta:R:3:forces:R:3 energy=-440.2503230384847 free_energy=-440.2503230384847 stress="-0.0006892420923061677 0.00020141533428811104 -0.000911917863226799 0.00020141533428811104 -0.0011203070861877122 -0.0008407044370607122 -0.000911917863226799 -0.0008407044370607122 0.00127092049161941" pbc="T T T"
B        5.73068849       5.66639701       6.97060806      -0.23204621       0.27601686       0.15034936       1.88147237       1.16904092      -2.73836189
H        5.39973251       6.63319073       4.67041949      -0.03309254      -0.07311901       0.19143461      -0.22015473       0.10847878       0.37219666
H        6.75524284       5.65092228       4.63352482      -0.10967579       0.06637303      -0.03284845      -0.19173848       0.08176830       0.80580677
H        6.87693269       7.20196529       5.30888355      -0.11058539      -0.06964548      -0.12222003      -0.00728233       0.11939050       0.41405559
H        5.19776267       6.57906839       7.36647518      -0.19790990      -0.06057434       0.04664696      -0.74554326       1.01962864       0.80110391
H        6.81870255       5.48444716       7.28945888       0.04541966      -0.09513066      -0.00291778       0.44774842      -0.38984093       0.83682225
H        5.12306731       4.79803471       6.59560033      -0.07429907       0.00293276       0.24206926      -0.92448939      -1.35359810      -0.14959440
N        6.24429713       6.36583552       5.24208590      -0.11293130       0.10302834      -1.27935302      -0.24001260      -0.75486811      -0.34202889
8
Lattice="12.0 0.0 0.0 0.0 12.0 0.0 0.0 0.0 12.0" Properties=species:S:1:pos:R:3:momenta:R:3:forces:R:3 energy=-440.6459174675974 free_energy=-440.6459174675974 stress="-0.00041925372663553865 0.00023168962828267107 0.0006072055339089443 0.00023168962828267107 -2.954123363018304e-05 0.0002025266952644252 0.0006072055339089443 0.0002025266952644252 -0.00011434234192698863" pbc="T T T"
B        5.83012059       5.78287131       6.77103649       0.02052015       0.67612807      -1.07160917      -0.27742380       0.26712053      -0.25685070
H        5.31381285       6.58032080       4.72807947       0.12651422       0.00611618      -0.13059290      -0.57521098       0.34925118      -0.14329549
H        6.64787960       5.58070051       4.66228524      -0.12416194       0.17866782       0.02138061       0.41410233      -0.46001899      -0.21553738
H        6.82843992       7.15426497       5.27972154      -0.08090345      -0.10935535      -0.14612034       0.21577513       0.43899888      -0.04629701
H        5.29723328       6.74800363       7.19061387       0.12065455      -0.06537783      -0.37094857      -0.23722660      -0.47921800       0.21721958
H        6.84910436       5.58085157       7.33771476       0.08545879       0.14372985      -0.40474968      -0.25015382      -0.18368590      -0.40332496
H        5.15089564       4.84573503       6.49458766       0.18636800       0.34005425      -0.18887572       0.24559519       0.35958076       0.65429688
N        6.19335575       6.33120427       5.22076119      -1.16284836      -1.01948612       1.48147182       0.46454255      -0.29202847       0.19378909
8
Lattice="12.0 0.0 0.0 0.0 12.0 0.0 0.0 0.0 12.0" Properties=species:S:1:pos:R:3:momenta:R:3:forces:R:3 energy=-440.48724470957364 free_energy=-440.48724470957364 stress="-0.00018824947217276983 0.0006800259411777788 -0.00019634803951465687 0.0006800259411777788 0.00053588385237426 -3.6156311970202375e-05 -0.00019634803951465687 -3.6156311970202375e-05 0.000618879801264941" pbc="T T T"
B        5.79622745       5.88521997       6.74120305      -0.34722830      -0.33796900       1.65771765      -0.42707583      -0.42498283       1.48715144
H        5.20194117       6.55767335       4.66174884      -0.02267708       0.02752779      -0.22407529      -0.55404632       0.46348099      -0.48657878
H        6.53321149       5.51801758       4.70243302      -0.04313624       0.03164317      -0.16510596       0.84858094      -1.10359311      -0.86292850
H        6.76162484       7.15096286       5.18112016      -0.04069186       0.03014405      -0.26914258       0.33647101       0.58855415      -0.32177271
H        5.30602402       6.82509657       7.33825116       0.03930830       0.21635426      -0.04606968       0.15433181      -0.84399134      -1.08679212
H        6.86627920       5.69332429       7.20804090       0.15701713       0.05681501       0.16998511      -0.15480417      -0.03893923      -0.44670294
H        5.13372080       4.84903714       6.74502969      -0.11655032      -0.09936633      -0.10766944       0.66314231       1.48818639      -0.40871902
N        6.11188324       6.35189652       5.10290715      -0.45706306       0.22580444      -1.82824905      -0.86659976      -0.12871501       2.12634263
8
Lattice="12.0 0.0 0.0 0.0 12.0 0.0 0.0 0.0 12.0" Properties=species:S:1:pos:R:3:momenta:R:3:forces:R:3 energy=-440.3722103982405 free_energy=-440.3722103982405 stress="-0.0012956043048888847 0.00022781115334536596 -0.0007596775182863093 0.00022781115334536596 -0.0006462757001167211 -0.0005119651481118133 -0.0007596775182863093 -0.0005119651481118133 0.0020064414672792724" pbc="T T T"
B        5.84392294       5.83626999       6.93320738      -0.18728042       0.60709734      -1.54682542      -0.98903803       0.13796154      -1.14667342
H        5.14170530       6.42430889       4.76622969      -0.19045317      -0.07968697       0.23604491      -0.30997023       0.32345787      -0.22156366
H        6.51905450       5.43731003       4.59851847       0.00418275      -0.23658704       0.02764871       0.41241624      -0.38623815      -0.11590931
H        6.71711754       7.10243828       5.05910109      -0.03790611       0.05484750       0.13387280       0.38984981       0.57355138      -0.12462741
H        5.32515288       6.77037938       7.40148153       0.11506590       0.13456989       0.20939679       0.04682060       0.35070558      -0.35598455
H        6.85829470       5.59392387       7.36011381       0.01187406       0.09511455       0.01384273       1.52679666      -0.04355719       0.14895738
H        5.15235885       4.89756172       6.94385356      -0.05541478      -0.17927507       0.14087641      -0.17926378      -0.08454522      -0.52862176
N        6.11813404       6.26235614       5.08085532      -0.49481219      -0.24445062      -0.03110624      -0.89761126      -0.87133581       2.34442273
8
Lattice="12.0 0.0 0.0 0.0 12.0 0.0 0.0 0.0 12.0" Properties=species:S:1:pos:R:3:momenta:R:3:forces:R:3 energy=-440.301951537568 free_energy=-440.301951537568 stress="-0.0007295489601554667 -0.0004089795598716433 0.0005000053068155417 -0.0004089795598716433 -0.0008065598371236904 0.0005355322753663272 0.0005000053068155417 0.0005355322753663272 -0.0033405499054778034" pbc="T T T"
B        5.84338214       5.89447237       6.84567394       0.19047983       0.42672219      -0.45572358      -0.83523177      -0.24851841       2.10888704
H        5.08840663       6.32993779       4.77597404      -0.20407807      -0.03262824      -0.05172987      -0.46441734       0.17776760       0.48864211
H        6.41560747       5.34217946       4.85062884       0.00699196      -0.21868376       0.06011749      -0.13490854       0.35621583       0.44220393
H        6.58206563       6.98538175       5.16922420       0.06291198       0.11721552       0.01817304       0.03054525       0.20760899       0.04096074
H        5.33700731       6.85207970       7.22402596       0.08432995      -0.09423288       0.14590030       0.04776066       0.56134837       0.89095705
H        6.91159337       5.64555778       7.19541988      -0.35586762       0.03205562       0.06154530       0.42075424       0.10551005       0.46992258
H        5.12642659       5.01461825       6.91392394       0.10201007       0.04654094       0.22645606      -0.53124975      -0.94619443       0.42323998
N        5.95145777       6.16220553       5.36476141      -0.73284489      -0.12330304      -0.83206000       1.46674725      -0.21373799      -4.86481343
8
Lattice="12.0 0.0 0.0 0.0 12.0 0.0 0.0 0.0 12.0" Properties=species:S:1:pos:R:3:momenta:R:3:forces:R:3 energy=-440.2525576741996 free_energy=-440.2525576741996 stress="0.001949771667002179 -5.147630513126374e-05 -0.0004806277918209151 -5.147630513126374e-05 0.0010545146010471117 -5.742171007576476e-05 -0.0004806277918209151 -5.742171007576476e-05 0.002043481938504957" pbc="T T T"
B        5.85012607       5.91398082       7.07795302       0.24557201       0.22235221       0.66708186       1.21219566       0.47340371      -2.20919242
H        4.94699928       6.27081707       4.80006068      -0.11433509       0.01435299      -0.20255910       0.62630920       0.11414960       0.28757824
H        6.34151447       5.28986522       4.63408371      -0.07953345       0.04114275      -0.19285656      -0.12921114       0.48230206       0.70980024
H        6.54130021       7.00066067       4.82466809      -0.02639224       0.04913882      -0.24014429      -0.55799426      -0.69817700       0.62015358
H        5.37993814       6.97886077       7.36591629      -0.09456684      -0.07974009      -0.15178257       0.45198178      -0.61398897       0.05693850
H        7.05300072       5.71470071       7.21803555      -0.17218374      -0.04334410       0.09834137      -1.53980485       0.19486883       0.41963593
H        5.09820587       4.99933933       7.08894023       0.02577489       0.15606221       0.03677602       0.33059279       0.10561771       0.20692669
N        5.95446501       6.15405359       5.13411193      -0.63933179      -0.20465642      -0.85090959      -0.39406918      -0.05817596      -0.09184076
8
Lattice="12.0 0.0 0.0 0.0 12.0 0.0 0.0 0.0 12.0" Properties=species:S:1:pos:R:3:momenta:R:3:forces:R:3 energy=-440.5878954791641 free_energy=-440.5878954791641 stress="0.0020791489460394576 0.0002724911653390959 0.00038709362126570265 0.0002724911653390959 0.0009280837076977403 0.00017533445737404646 0.00038709362126570265 0.00017533445737404646 0.00040720937575893217" pbc="T T T"
B        5.91609989       5.92864212       6.86755709      -0.28289818       0.48244462      -1.92107163       1.37414356       0.15798185       0.22990078
H        4.90290140       6.19556222       4.84109523       0.01211305      -0.03460308       0.02149947       1.21066149       0.06507492      -0.04660736
H        6.33304470       5.15806832       4.75921037      -0.06375647       0.00450957       0.03542509      -0.15747888       0.48229043      -0.10601203
H        6.56832759       6.90746463       4.96948003      -0.06669657      -0.10491777       0.00096330      -0.84825886      -0.85586472      -0.34120949
H        5.53613627       6.98315914       7.24078963      -0.14373412       0.19595811      -0.14874383      -0.13344160      -0.32197948      -0.18236246
H        7.09709860       5.77945115       7.16403047       0.30790021       0.01352323      -0.49528375      -1.43104957      -0.06040095      -0.43194883
H        5.20620770       5.01684086       7.08349331      -0.11107760      -0.01634212      -0.12527041       0.14915446       0.14572498       0.02640450
N        5.92808744       6.06211053       5.13149928      -0.52630362      -0.38172986       1.77740293      -0.16373061       0.38717297       0.85183489
8
Lattice="12.0 0.0 0.0 0.0 12.0 0.0 0.0 0.0 12.0" Properties=species:S:1:pos:R:3:momenta:R:3:forces:R:3 energy=-440.56213498811354 free_energy=-440.56213498811354 stress="-0.0006517214011451033 0.00030898384684881013 0.00039354411699988776 0.00030898384684881013 -0.0004809372500630587 -0.00010239325161355504 0.00039354411699988776 -0.00010239325161355504 3.453666280681007e-05" pbc="T T T"
B        6.02904002       5.95439981       6.84209948      -0.05773093       0.19553981       1.66890882      -0.44414761      -0.01311780      -0.42210589
H        4.90205208       6.10363338       4.87720492       0.04546380      -0.03566737       0.09014511       0.81173012       0.19151661      -0.03442385
H        6.27652477       5.03005338       4.85386218      -0.12415101      -0.00319667      -0.03068262      -0.08696235       0.62628376      -0.24680756
H        6.56441454       6.77246829       4.81748087      -0.15386649      -0.12814109      -0.08495316      -0.41831582      -0.27904749      -0.25748684
H        5.66512506       6.96994662       7.17930419      -0.01607469       0.08174975       0.03571859      -0.78584345       1.06887765       0.27440937
H        7.09794792       5.83257720       7.18251913       0.28270279       0.10346809       0.20450286       1.48865863      -0.34329232      -0.21439046
H        5.38798982       5.06018328       7.14729075      -0.08658481       0.04998293       0.01397007      -0.65189272      -0.56798797       0.18667555
N        5.92932036       5.99180774       5.13951740      -0.78472051      -0.10116742      -2.77274265       0.08677319      -0.68323245       0.71412967
8
Lattice="12.0 0.0 0.0 0.0 12.0 0.0 0.0 0.0 12.0" Properties=species:S:1:pos:R:3:momenta:R:3:forces:R:3 energy=-440.26267392082696 free_energy=-440.26267392082696 stress="-0.0011888118512126938 0.0001333903741744837 -0.00011292237653199674 0.0001333903741744837 0.0002492538849045553 0.00023382782703259145 -0.00011292237653199674 0.00023382782703259145 0.0026058248668548063" pbc="T T T"
B        6.02822213       5.95833826       7.05034964      -0.28513836       0.21089759      -1.06223221      -1.06931303      -0.35030653      -1.54344892
H        4.84671250       6.03943230       4.85953244       0.09269121      -0.05514028       0.00003550      -0.59080514       0.29541436       0.05788208
H        6.10689870       4.96092079       4.62932085      -0.08654811       0.08419438       0.16857281       0.24499398      -0.00427677       0.52232488
H        6.41841156       6.63019276       4.59323156      -0.03874967      -0.06227749       0.18153054       0.37715504       0.52156928       0.08428933
H        5.61212933       7.03907921       7.29101368       0.24309716      -0.17363882      -0.05214074       0.02753514      -0.31538054      -0.19024043
H        7.15328750       5.80578581       7.14488223      -0.17238613       0.16631670       0.07401144       1.08489368       0.00851969       0.08830355
H        5.39305527       5.01416621       7.40676844       0.19246364       0.20927724       0.01113780       0.06947907       0.54496031      -0.38893441
N        5.85593092       5.89077335       5.05861636      -0.85985710      -0.21352540      -0.21508236      -0.14393874      -0.70049980       1.36982393
8
Lattice="12.0 0.0 0.0 0.0 12.0 0.0 0.0 0.0 12.0" Properties=species:S:1:pos:R:3:momenta:R:3:forces:R:3 energy=-440.20434700824796 free_energy=-440.20434700824796 stress="-4.355127866037159e-05 7.11493969707748e-05 -0.0008177317167193909 7.11493969707748e-05 0.0005115141546428857 -0.0004798814842938223 -0.0008177317167193909 -0.0004798814842938223 -0.00404401672333775" pbc="T T T"
B        6.01280955       5.98126674       6.75053909      -0.41600532       0.39844108      -1.33252940      -0.97460343       0.06930714       4.03597784
H        4.81732632       5.96597939       4.92006184      -0.00845306      -0.09576394       0.06853801      -1.21503901       0.39116429      -0.02225206
H        6.06148522       4.91709678       4.93092606      -0.18898012       0.09147860      -0.05280072       0.51192678      -1.21283154      -0.32574740
H        6.37538225       6.53468627       4.76646995      -0.16155295      -0.10307872      -0.22758361       0.30003558       0.50319547      -0.44380303
H        5.54804134       7.08290322       7.01405245       0.08630914       0.10444920      -0.02874636       0.91004890      -1.21568939       0.12811314
H        7.18267368       5.80846295       6.84052848      -0.16104064       0.02785946      -0.17189442      -0.41264613       0.35461046       0.53919886
H        5.34727808       5.07037774       7.23353005       0.04352353      -0.05927813       0.01975261       0.92512851       1.15562946      -0.19621042
N        5.78096288       5.84637255       5.27378644      -0.14684676      -0.19098861       0.79333349      -0.04485120      -0.04538588      -3.71527694
8
Lattice="12.0 0.0 0.0 0.0 12.0 0.0 0.0 0.0 12.0" Properties=species:S:1:pos:R:3:momenta:R:3:forces:R:3 energy=-440.3398123834363 free_energy=-440.3398123834363 stress="-0.00010023163865467129 3.560024810266528e-05 0.0006313931104756073 3.560024810266528e-05 -0.0011352278340767232 0.00023550606539351923 0.0006313931104756073 0.00023550606539351923 0.001573621781424431" pbc="T T T"
B        6.13047976       6.09350597       7.00846114       0.72215559       0.66097593       0.99584352      -1.00009427      -0.00578704      -1.60530611
H        4.70750374       5.91076506       5.05122775      -0.16607085      -0.06855150      -0.23429457      -0.68383665       0.24839260      -0.06452622
H        6.00778791       4.83950047       4.91590863      -0.04265434      -0.11816834      -0.21010329       0.49372005      -1.26597075      -0.31434100
H        6.25563449       6.50011951       4.54774525      -0.06857256      -0.02081077      -0.14704879       0.28792204       0.45046604      -0.33423459
H        5.64866990       7.16049953       7.10745110      -0.18495141       0.28095038      -0.13748600       0.51038176       0.14030454       0.05245208
H        7.29249626       5.92579485       7.09398860       0.07977846      -0.04482220       0.01377761      -0.20286883       0.12631256      -0.13736696
H        5.41044559       5.28988132       7.45225475      -0.23217614      -0.17475730       0.08367647       0.17593540      -0.38346199       0.11313669
N        5.73171491       5.80308780       5.10058317      -1.09980227      -0.33456806      -1.33467311       0.41884051       0.68974405       2.29018612
8
Lattice="12.0 0.0 0.0 0.0 12.0 0.0 0.0 0.0 12.0" Properties=species:S:1:pos:R:3:momenta:R:3:forces:R:3 energy=-440.3603831226926 free_energy=-440.3603831226926 stress="-0.0006296110266881034 -0.00016743583627965564 0.0006249395983086737 -0.00016743583627965564 -0.0014584960351565945 0.0011370905926303219 0.0006249395983086737 0.0011370905926303219 0.0015374792587508153" pbc="T T T"
B        6.16425407       6.14115353       6.84321456      -0.18444821      -0.02095906      -2.12578114       1.43238227      -0.37907072      -2.30316479
H        4.68448053       5.83966409       4.93106237      -0.15493271      -0.02112031       0.15399301      -0.16023925       0.13488931      -0.09771974
H        6.04893276       4.78255864       4.79779747       0.07709388      -0.17057397       0.17025254      -0.00786675       0.29318330       0.15634479
H        6.24787809       6.48004012       4.50523209       0.07334826       0.09510697       0.06307772       0.16121728       0.33461676      -0.38275791
H        5.89609725       7.21744136       7.03438126      -0.17736052      -0.08843012      -0.14067126      -0.50981179       1.51756075      -0.29590984
H        7.31551947       5.96068404       6.78693787      -0.20120598      -0.06468916      -0.26303394       0.09665098      -0.08723319       0.08329656
H        5.59610107       5.44165809       7.49476791      -0.04359621       0.21255312      -0.12465945      -1.11903596      -1.58595026       0.72684539
N        5.72094157       5.75768621       5.03019320      -0.43450630       0.24804511       1.24438131       0.10670321      -0.22799594       2.11306553
8
Lattice="12.0 0.0 0.0 0.0 12.0 0.0 0.0 0.0 12.0" Properties=species:S:1:pos:R:3:momenta:R:3:forces:R:3 energy=-440.4610066469306 free_energy=-440.4610066469306 stress="0.0010249340075570866 2.39926953901307e-05 -0.0006223293354498827 2.39926953901307e-05 0.00081648141212827 -0.0007935973734444578 -0.0006223293354498827 -0.0007935973734444578 -0.0020558679029089137" pbc="T T T"
B        6.16403144       6.14473242       6.74745267       0.28518203       0.97830717       1.24317666       1.94934791       0.62347682       2.86458872
H        4.63442882       5.76560822       5.28790921      -0.22565932       0.00472573       0.16535082       0.50667597       0.21718241      -0.11261592
H        5.95518014       4.70927319       5.12216150      -0.10255981      -0.16288073      -0.07546909      -0.04473433       0.88095028       0.14150191
H        6.09577166       6.33396673       4.55088784      -0.00302711       0.05247264      -0.25878164      -0.19281875      -0.19047364       0.33575016
H        5.91312087       7.29072681       6.85584694       0.00044203      -0.15352879       0.18148135      -0.26470213      -0.29478832       0.16018997
H        7.36557118       5.99955727       6.85018810      -0.00952891       0.05899797      -0.04325534      -1.18127082      -0.07061313      -0.34128082
H        5.57273655       5.39417257       7.44911216       0.13792483       0.40629890       0.01431392       0.18106737       0.52202352       0.04014378
N        5.70112256       5.73504336       5.34046091      -1.19297669      -0.98272673      -2.31242186      -0.95356522      -1.68775795      -3.08827779
8
Lattice="12.0 0.0 0.0 0.0 12.0 0.0 0.0 0.0 12.0" Properties=species:S:1:pos:R:3:momenta:R:3:forces:R:3 energy=-439.97958398761364 free_energy=-439.97958398761364 stress="0.0019803724392726133 0.0006105540687908492 0.0003257005402721562 0.0006105540687908492 0.0019542541353991098 -0.0003239617805816672 0.0003257005402721562 -0.0003239617805816672 0.0026827820881924133" pbc="T T T"
B        6.31195400       6.27994854       6.94393421      -0.12708454       0.48934927      -0.23841672      -0.08881132      -0.78872934      -1.50679522
H        4.50326935       5.68378407       5.08472722      -0.12798797      -0.11958852      -0.22065528       1.28620262       0.10533104       0.08939169
H        5.84177492       4.57072175       4.96303931      -0.10729286      -0.00552275      -0.03691646       0.00163990       0.61626078       0.17558928
H        6.03159532       6.20638952       4.31973529       0.00069468      -0.04738822      -0.04839051      -0.64469086      -0.76676011       1.09237070
H        5.99206692       7.42927825       6.77442020       0.00523166       0.08416212      -0.10138808      -0.12792153      -0.87313404       0.55019989
H        7.49673065       6.09586150       6.78779808       0.33214947       0.07469560      -0.03128520      -0.87888830      -0.01245655       0.00078390
H        5.75727074       5.47674406       7.68026471      -0.00603546       0.01026268      -0.01517386       0.31666982       1.15957880      -0.73559096
N        5.57774801       5.59300793       5.08732739      -1.12541984      -0.27603142      -0.43791195       0.13579967       0.55990943       0.33405073
8
Lattice="12.0 0.0 0.0 0.0 12.0 0.0 0.0 0.0 12.0" Properties=species:S:1:pos:R:3:momenta:R:3:forces:R:3 energy=-440.5782392604734 free_energy=-440.5782392604734 stress="-0.000912119621946325 0.00032468460789029756 4.583907649407873e-05 0.00032468460789029756 0.0004447960384463237 3.72891106764554e-05 4.583907649407873e-05 3.72891106764554e-05 0.0005071015503038537" pbc="T T T"
B        6.33567886       6.29124406       6.70877124      -1.64209279      -0.46045958      -2.59281676      -1.90336078      -0.49139500      -0.30080335
H        4.59525004       5.76191946       5.28640420       0.15644079      -0.00003251       0.21035834       0.88130081      -0.11521833      -0.33024619
H        5.90693064       4.58984346       5.23234140      -0.12575741       0.05336024       0.11393303      -0.19989558       0.65873655      -0.15766908
H        6.12206314       6.15027633       4.44015946      -0.15086361      -0.16105166       0.08730736      -0.58739156      -0.49399174       0.42489653
H        6.04643571       7.41015654       6.72936152       0.06154927       0.10980797      -0.36512168      -0.27174080       0.35475708      -0.05459934
H        7.40474996       6.10264885       6.52586867       0.06708244      -0.01572876      -0.31108968       2.45516352      -0.24539810      -0.22479479
H        5.90507094       5.62354226       7.55984054       0.03261301      -0.22088810      -0.08964821      -0.23606758       0.02527486       0.12412513
N        5.65595756       5.62463786       5.24371963       0.38445259       0.91598097       1.75745647      -0.13800803       0.30723469       0.51909109
8
Lattice="12.0 0.0 0.0 0.0 12.0 0.0 0.0 0.0 12.0" Properties=species:S:1:pos:R:3:momenta:R:3:forces:R:3 energy=-440.61784731454793 free_energy=-440.61784731454793 stress="-0.00021038861662108754 0.00013857928174415036 0.00047241013085431863 0.00013857928174415036 -6.987978148627875e-05 0.00040458785983382554 0.00047241013085431863 0.00040458785983382554 -0.0001252070356469939" pbc="T T T"
B        6.36875562       6.37835060       6.64467685       0.96541682       1.66263109       1.23978937      -2.14963930      -0.07317734      -0.12044825
H        4.51369063       5.76703545       5.43585917       0.08121631      -0.11180913      -0.03058237      -0.03170929       0.08182537      -0.16694840
H        5.74939304       4.55285749       5.35851655      -0.19414969       0.02988976      -0.10198389      -0.14474884       0.52936619      -0.14858942
H        5.92660365       6.01264234       4.43473432      -0.16741607      -0.14446874       0.03109223      -0.13590644       0.08190310      -0.42487463
H        5.91918087       7.44714251       6.58461121       0.25534850       0.05176157      -0.03170767       0.35557329       0.47611713      -0.21367313
H        7.48630937       6.24005010       6.50262250      -0.33064046       0.14296912       0.03978256       1.03811504      -0.13110136      -0.37596446
H        5.90183174       5.85374081       7.56526568       0.23077674       0.10706491       0.05837138       0.11391026      -0.45142624       0.33616787
N        5.53879402       5.59305207       5.30645174      -2.08243764      -1.51245254      -2.41913177       0.95440529      -0.51350684       1.11433041
8
Lattice="12.0 0.0 0.0 0.0 12.0 0.0 0.0 0.0 12.0" Properties=species:S:1:pos:R:3:momenta:R:3:forces:R:3 energy=-439.9185255363277 free_energy=-439.9185255363277 stress="0.001154782743137617 5.8656547318182037e-05 0.0002888764693182946 5.8656547318182037e-05 0.0008765813884225876 0.0011359561171310386 0.0002888764693182946 0.0011359561171310386 0.001567549710597348" pbc="T T T"
B        6.47472182       6.46854458       6.72029438       0.01878091       0.02625626      -1.26173311      -0.42284871      -0.61117446      -1.21167588
H        4.40148321       5.55062799       5.33062959      -0.00138977      -0.11380144       0.01880833      -0.94962013       0.35823161       0.24072315
H        5.64146299       4.41135472       5.27999419      -0.02523642       0.21571784       0.09435004       0.35041893      -0.71442216       0.32000501
H        5.73308348       5.76153531       4.28658040       0.01152371      -0.03249221       0.07130017       0.29880270       0.52676938      -0.57216764
H        6.01755324       7.58864528       6.54230925      -0.13745320      -0.05869362      -0.08610320       0.73247839      -1.08280893      -0.14969674
H        7.59851679       6.13911331       6.30008096      -0.12311365       0.05433382       0.04354578      -1.56676211       0.69889700       0.80031406
H        6.01936496       5.94792093       7.71341960      -0.09818703       0.08259368      -0.08463439       0.49787803       0.05618177      -0.84661980
N        5.40987989       5.41321887       5.20151132      -0.85931877       0.04667796       0.01697842       1.05965289       0.76832579       1.41911784
8
Lattice="12.0 0.0 0.0 0.0 12.0 0.0 0.0 0.0 12.0" Properties=species:S:1:pos:R:3:momenta:R:3:forces:R:3 energy=-440.53312183619033 free_energy=-440.53312183619033 stress="-0.0007470733626765662 -0.000463663511315484 -0.0008295556171525543 -0.000463663511315484 -0.0015911630006212295 -0.00037006265053387806 -0.0008295556171525543 -0.00037006265053387806 -0.0015816813674572236" pbc="T T T"
B        6.34313641       6.36085119       6.47298140      -1.44440657      -0.84528075      -2.27401893       2.59534614       1.01014588       0.96507694
H        4.50528509       5.63520296       5.63659973       0.00660220       0.01891083       0.17591733      -0.88511866       0.15828727       0.02267238
H        5.72364842       4.51562301       5.55006855      -0.12738562      -0.05789795      -0.06052117       0.40549136      -1.57807320       0.26955287
H        5.72762597       5.77793842       4.47968220      -0.08520291      -0.10525732      -0.01682748       0.05993684       0.30946118      -0.64895642
H        6.08112573       7.48437699       6.30519376      -0.26260743       0.19078878      -0.10201200      -0.16366332       0.06741256      -0.05922088
H        7.49471491       6.13003328       6.20503513       0.06712076      -0.26672231      -0.37823841      -0.85358324       0.19943097       0.26875431
H        6.05133354       5.97113128       7.52031780      -0.17475818       0.10157373       0.11008110      -0.11602931      -0.08324155       0.45886575
N        5.51949811       5.51305414       5.46353465       0.84260968       1.17787146       1.39369197      -1.04237983      -0.08342313      -1.27674495
8
Lattice="12.0 0.0 0.0 0.0 12.0 0.0 0.0 0.0 12.0" Properties=species:S:1:pos:R:3:momenta:R:3:forces:R:3 energy=-440.3334638798249 free_energy=-440.3334638798249 stress="-0.00012143244955273091 0.0013915985583508588 0.0012864278585618305 0.0013915985583508588 -0.0006892849748983941 0.0011016542717389628 0.0012864278585618305 0.0011016542717389628 -0.0008912603224190227" pbc="T T T"
B        6.49999138       6.53877997       6.50385661       0.72297707       1.29414545       0.26756696      -0.64066999      -1.27041292      -1.46830159
H        4.40451099       5.58323957       5.71839702      -0.24067998      -0.14926142      -0.03248883      -0.29441585       0.16982690       0.04833809
H        5.69328788       4.44431438       5.63333406      -0.07476866      -0.28533471      -0.05427546       0.05005799      -0.25188508       0.04393792
H        5.58963412       5.69139672       4.45414371      -0.09627159      -0.15316984      -0.19106075      -0.01814944       0.17843467      -0.55330092
H        6.19446173       7.55568562       6.15380492       0.07982562       0.10647371       0.08388017      -0.85276202       1.56001697      -0.31605553
H        7.59548901       6.35855371       6.25697319       0.15186912       0.05312666      -0.02931810       0.88771296      -0.76626724      -0.71675063
H        6.25821202       6.21615533       7.54585629       0.08228195       0.22908700      -0.07672504      -0.75778153      -0.40770868       1.59194679
N        5.39329604       5.42325363       5.43524882      -1.70552981      -0.89883317      -1.02394007       1.62600788       0.78799538       1.37018587
8
Lattice="12.0 0.0 0.0 0.0 12.0 0.0 0.0 0.0 12.0" Properties=species:S:1:pos:R:3:momenta:R:3:forces:R:3 energy=-440.3329334160034 free_energy=-440.3329334160034 stress="0.0007653960995856608 0.0003640194966636389 0.00030498334712644157 0.0003640194966636389 0.0018127878158902386 0.00012191543035056874 0.00030498334712644157 0.00012191543035056874 0.0015811724358505447" pbc="T T T"
B        6.57221409       6.57506168       6.44914471      -1.25974378      -0.68388017      -1.28590792      -0.87426824      -1.31294077      -0.63239440
H        4.41621991       5.54628137       5.78544789      -0.07204359       0.09727721       0.17491348       0.21937021      -0.10299404      -0.26685779
H        5.71694418       4.36192856       5.69947644       0.08829684       0.01622832       0.12925058      -0.31264907       0.86346371      -0.23115435
H        5.53985849       5.54890169       4.41829697       0.11478623       0.08098238      -0.09227263      -0.13653137      -0.01381678       0.24789742
H        6.22678976       7.63807144       6.02598653       0.09507363      -0.28528341      -0.08560813       0.02444830      -0.56788117       0.43798652
H        7.58378009       6.16077967       6.00378029      -0.04858714       0.16912750       0.04199250      -0.03296109       0.24427628       0.24523047
H        6.32184360       6.23068745       7.58170303       0.13034815       0.07059756      -0.35185862       0.10529914       0.51678673      -0.97276267
N        5.39098706       5.34526884       5.43983964      -0.01197342       0.71003078       0.52700267       1.00729212       0.37310603       1.17205480
8
Lattice="12.0 0.0 0.0 0.0 12.0 0.0 0.0 0.0 12.0" Properties=species:S:1:pos:R:3:momenta:R:3:forces:R:3 energy=-440.21350562700013 free_energy=-440.21350562700013 stress="-0.0008105275100956229 -0.002176566962175035 -0.0016581472141452426 -0.002176566962175035 -0.0006174534228286239 -0.001470733932752107 -0.0016581472141452426 -0.001470733932752107 0.0009650060802982951" pbc="T T T"
B        6.44672332       6.46656553       6.26256305      -0.05152221       0.84068426      -0.18561556       1.38750991       2.65249130       2.44022470
H        4.49110369       5.67162327       5.92047594      -0.02728087       0.10372636       0.16166103       0.72093119      -0.11410210      -0.31244213
H        5.69111012       4.45854854       5.82634819      -0.04651586      -0.00037009       0.05827975       0.06448169       0.54072802       0.10428364
H        5.52865251       5.55283672       4.53925893       0.00692384      -0.02837464      -0.09350904      -0.10143994       0.06552340       0.86726434
H        6.02526084       7.54145146       5.87664684       0.02201609       0.12677489      -0.21425115       0.88023714      -0.82349365       0.51603806
H        7.50889631       6.13411842       5.86008591       0.00843540      -0.07673622      -0.19948654      -0.09084026       0.56785543       0.45962600
H        6.22412998       6.28896882       7.46074107       0.07238824      -0.03828294       0.11609122       0.77339373       0.48870767      -1.34375571
N        5.50962263       5.49470796       5.61822823      -0.85372001      -0.76951947      -0.49318535      -3.63427346      -3.37771007      -2.73123891
8
Lattice="12.0 0.0 0.0 0.0 12.0 0.0 0.0 0.0 12.0" Properties=species:S:1:pos:R:3:momenta:R:3:forces:R:3 energy=-440.3041517420936 free_energy=-440.3041517420936 stress="0.0011833195467841914 0.0012357464920305786 0.00065142769236269 0.0012357464920305786 0.0007180564002966129 0.0008417878546435835 0.00065142769236269 0.0008417878546435835 0.0003233144109629096" pbc="T T T"
B        6.64878815       6.63826000       6.33052950       0.53453273       0.59285791      -0.48973534      -2.35272285      -0.80628728      -0.10034556
H        4.35247511       5.49313008       5.90419662      -0.02391306      -0.16821536      -0.05930386       0.96629532       0.16537762      -0.08867405
H        5.67636157       4.37269502       5.93456316      -0.12738394      -0.00793528      -0.04454709      -0.02851901       0.34373856       0.10286539
H        5.42166871       5.32155126       4.53139554      -0.05434358      -0.13489400       0.08956372       0.01307913       0.30636615       0.96741728
H        6.18453502       7.62730498       5.95829146      -0.20855952       0.11870006      -0.16117160      -0.05085451       0.43328471      -0.54113192
H        7.64752489       6.29437380       5.90919936       0.02763344      -0.08029728      -0.16000871       0.85783556      -0.42895626      -0.55700660
H        6.48090354       6.52006148       7.46860446      -0.17362934      -0.09651877       0.19537307       0.03894028      -0.38962701       0.48616808
N        5.36922812       5.33178687       5.60513537      -0.77263153      -0.07868860      -0.15077791       0.55594608       0.37610350      -0.26929261
8
Lattice="12.0 0.0 0.0 0.0 12.0 0.0 0.0 0.0 12.0" Properties=species:S:1:pos:R:3:momenta:R:3:forces:R:3 energy=-440.6264270387985 free_energy=-440.6264270387985 stress="-0.000500624933611902 2.3025655635562623e-05 6.035325214219624e-05 2.3025655635562623e-05 4.5469968079767704e-05 0.0003201295978066381 6.035325214219624e-05 0.0003201295978066381 -0.0009224221592441147" pbc="T T T"
B        6.49871032       6.53173281       6.22736392      -1.04969051      -1.27684885      -1.32377317       0.80593028      -0.15768397      -0.51732130
H        4.48369194       5.70478435       6.05308013       0.14207967      -0.03376625       0.00193332      -0.23319098      -0.41783785      -0.18433895
H        5.70419988       4.43667259       6.08522006      -0.09397967       0.08296970      -0.04914073      -0.33852063       0.22923194      -0.18198388
H        5.45285291       5.37218083       4.63854603      -0.02832221      -0.07134644       0.17262126      -0.22384578      -0.13947158      -0.19453426
H        6.16616152       7.56332741       5.85303402      -0.14561225      -0.22668962       0.07445282      -0.50540565       0.44380090      -0.53037952
H        7.51630806       6.20060085       5.78622609      -0.32523517       0.03493238       0.04004938       0.28276675      -0.11499401      -0.24955252
H        6.52348871       6.51163464       7.36145397      -0.09643650       0.13248815      -0.23505555      -0.29636567      -0.36581805       1.14984583
N        5.40490398       5.36712441       5.68267781       0.83459779       1.49678549       0.57321005       0.50863168       0.52277262       0.70826461
8
Lattice="12.0 0.0 0.0 0.0 12.0 0.0 0.0 0.0 12.0" Properties=species:S:1:pos:R:3:momenta:R:3:forces:R:3 energy=-440.59325516678047 free_energy=-440.59325516678047 stress="0.0006788328354384101 -0.0001336422114675072 -0.00013622834937707356 -0.0001336422114675072 0.0006125967820192746 -0.00021088554650001246 -0.00013622834937707356 -0.00021088554650001246 0.00020789671211776908" pbc="T T T"
B        6.49403353       6.55026120       6.13901264       0.66164033       1.12969552      -0.24472997       1.29808259      -0.04325718      -0.69097762
H        4.44193036       5.65776513       6.09375939       0.04712900      -0.05709996       0.04181996      -0.83183128      -0.01365894       0.13090411
H        5.66971031       4.44096514       6.13920104      -0.05933139       0.06503045      -0.05138252      -0.14216419      -0.24066519       0.01118946
H        5.35169015       5.28786022       4.67209158      -0.03807301      -0.10560866       0.02230408      -0.25105323      -0.17371609      -0.87055280
H        6.09243352       7.55903486       5.62086982       0.22439733       0.18829875       0.15243340       0.10708630      -0.76299095       0.56961851
H        7.55806964       6.18241034       5.63424552      -0.04717135       0.07789213       0.07762966      -1.45798697       0.32701342       0.63063188
H        6.52127478       6.51061273       7.32790842       0.21103645       0.33362577      -0.13859554      -0.17891355       0.16977623      -0.56598345
N        5.33752799       5.32858774       5.70089765      -1.74027208      -1.49729736      -0.58371397       1.45678033       0.73749870       0.78516991
8
Lattice="12.0 0.0 0.0 0.0 12.0 0.0 0.0 0.0 12.0" Properties=species:S:1:pos:R:3:momenta:R:3:forces:R:3 energy=-440.3653739034288 free_energy=-440.3653739034288 stress="0.0008903732618389044 0.001014289377229489 3.065148894210372e-06 0.001014289377229489 0.00011803269724015076 0.0002982929971795696 3.065148894210372e-06 0.0002982929971795696 -8.169753298353346e-05" pbc="T T T"
B        6.63395111       6.69496496       6.11870152      -0.96435679      -0.63509567      -0.68120492      -0.80758113      -2.08893729      -1.17134876
H        4.39704967       5.54619138       6.12386892       0.03540970       0.14163236       0.14294375      -0.55596334       0.55492007       0.36959008
H        5.65554722       4.45099869       6.14734573       0.06547353       0.10610925       0.03089824       0.59042477      -0.88189474       0.62755681
H        5.25121882       5.19200290       4.70897198       0.12491731       0.11005728      -0.04868828       0.07686737       0.23697680      -0.59266235
H        6.11846548       7.54900131       5.49757823      -0.15534186       0.04775495      -0.19530209       0.16568388       0.34548179       0.49456536
H        7.60295033       6.22090801       5.57347563       0.23966966      -0.05215526      -0.14204236      -0.68302491       0.37998941       0.61130082
H        6.57257062       6.60922648       7.29102802      -0.05185507      -0.02514685       0.02634397       0.18295848       0.52700076      -0.13090829
N        5.33402328       5.33604315       5.73548767      -0.02333559       0.43934150       0.15379367       1.03063488       0.92646319      -0.20809369
8
Lattice="12.0 0.0 0.0 0.0 12.0 0.0 0.0 0.0 12.0" Properties=species:S:1:pos:R:3:momenta:R:3:forces:R:3 energy=-440.36546222394765 free_energy=-440.36546222394765 stress="-0.002617944839037852 -0.0008650727996963494 -0.00016217898162220777 -0.0008650727996963494 -0.0023135952494143896 5.599488581253703e-05 -0.00016217898162220777 5.599488581253703e-05 -0.0009947098677400988" pbc="T T T"
B        6.51677421       6.58240858       6.03660451       0.13848512       0.75430920      -0.20746388       1.01767988       0.83939863       0.35301775
H        4.56818051       5.73410368       6.25765062      -0.13611774      -0.10604841       0.09022721      -0.27720223       0.19651347       0.12447759
H        5.70512590       4.53624555       6.22052353      -0.04043576      -0.12129401       0.07372551       0.62692796      -0.55323844       0.59210671
H        5.26130723       5.25069129       4.81936189      -0.08799477      -0.13181396      -0.02766799       0.13168051       0.31002771      -0.47868597
H        6.09190276       7.46375445       5.45432131      -0.14241588      -0.17772495      -0.29813803      -0.14737800       1.05412958      -0.24750846
H        7.43181949       6.13363660       5.54870126       0.02363097      -0.15860718      -0.22242117       1.48044414      -0.03394883      -0.31237108
H        6.56361345       6.69606072       7.18063811      -0.08126634      -0.19939245      -0.00965182       0.30440546       0.40184805       0.51249600
N        5.48817159       5.47370004       5.82147995      -0.40562072       0.27348999      -0.11413256      -3.13655774      -2.21473016      -0.54353254
8
Lattice="12.0 0.0 0.0 0.0 12.0 0.0 0.0 0.0 12.0" Properties=species:S:1:pos:R:3:momenta:R:3:forces:R:3 energy=-440.4191364409787 free_energy=-440.4191364409787 stress="0.0009810092004554818 0.0010969953309806506 0.0002336690610090137 0.0010969953309806506 0.0015160687147901199 0.00012791053863848675 0.0002336690610090137 0.00012791053863848675 3.744891887505715e-05" pbc="T T T"
B        6.62610435       6.62905571       6.00206355       0.37282779       1.10689199      -0.29002734      -1.29751577       0.19383800       1.03554823
H        4.42377614       5.57313597       6.34209891      -0.12664241      -0.07292296       0.05909332       0.23994955      -0.10431402      -0.16405670
H        5.76472737       4.42120841       6.35121648      -0.15623229      -0.24474910       0.06853623      -0.45827970       0.52736354      -0.21944237
H        5.19915883       5.06719299       4.84231114      -0.14552087      -0.19248374      -0.06149686      -0.17169910       0.05228851       0.08574503
H        6.19018033       7.57879159       5.47017046      -0.01046605      -0.22152387      -0.14985709      -0.27895419      -0.40549454      -0.41539691
H        7.57622386       6.17651664       5.54925817      -0.29433277      -0.10475491      -0.11824543       0.42489320      -0.57482428      -0.50837288
H        6.72673062       6.86709761       7.15768886      -0.06969584      -0.15382125      -0.10017258      -0.21480481      -0.57760813      -0.20143330
N        5.31081968       5.25473238       5.86984151      -0.30892573       0.01759957      -0.13044531       1.75641083       0.88875092       0.38740890
8
Lattice="12.0 0.0 0.0 0.0 12.0 0.0 0.0 0.0 12.0" Properties=species:S:1:pos:R:3:momenta:R:3:forces:R:3 energy=-440.46510180426225 free_energy=-440.46510180426225 stress="0.0009737387055173798 -0.0008220642675230115 0.00015108602897532603 -0.0008220642675230115 0.001150911814849658 7.068353029362791e-05 0.00015108602897532603 7.068353029362791e-05 0.0012319094523149017" pbc="T T T"
B        6.47701301       6.53052437       5.95401785      -1.26458233      -1.44529487      -0.84776373       1.04383460       2.71541181       0.93525635
H        4.48394811       5.77384851       6.40387384       0.04093279       0.13638477       0.07123183       0.25596177      -0.70709480      -0.33668977
H        5.73790181       4.49471731       6.47227208       0.07258917       0.12357569       0.03407417      -0.79269000       0.61247468      -0.52587572
H        5.17231553       5.10736903       4.90283924       0.10122095       0.04859838      -0.07674535      -0.28882671      -0.16168426       0.74480751
H        5.98087858       7.50528269       5.42359873      -0.04510803      -0.08512034       0.05795809       0.36482732      -1.29071137       0.00105086
H        7.51605189       6.17387698       5.48735927      -0.16090233       0.14573720       0.03403406      -0.93283457      -0.21291700      -0.07620707
H        6.67129741       6.89424175       7.09716076      -0.05100463       0.06413081      -0.11925581      -0.43259264      -0.94100752      -0.83531306
N        5.32545283       5.32696092       5.93317629       0.54835618       1.14976806       0.10477387       0.78232023      -0.01447154       0.09297091
8
Lattice="12.0 0.0 0.0 0.0 12.0 0.0 0.0 0.0 12.0" Properties=species:S:1:pos:R:3:momenta:R:3:forces:R:3 energy=-440.6815364424908 free_energy=-440.6815364424908 stress="0.00048737471742279766 -0.00024057531017591653 0.0001368207794633068 -0.00024057531017591653 0.0010588514858993017 0.00018552384311156626 0.0001368207794633068 0.00018552384311156626 0.0007782959047808731" pbc="T T T"
B        6.58728093       6.59533976       5.90007087       0.32538055       0.35269690      -0.92388861       0.06898025      -0.56921400      -0.40469113
H        4.53340159       5.71106327       6.45644614       0.00067262       0.03589199       0.05650284       0.56517219      -0.42110087      -0.41467578
H        5.82383599       4.53481508       6.56523436       0.06361406       0.13415225      -0.02200609      -0.29315912       0.45303497      -0.34144026
H        5.19733193       4.97275236       4.99387808       0.08410086      -0.00665079      -0.03468446       0.13507743       0.39087856       1.01709376
H        6.08621453       7.46518492       5.27638488       0.03852711       0.46608918      -0.04125480       0.09800122      -0.33115771       0.12923898
H        7.46659841       6.01741865       5.36663355       0.26316117       0.11157287      -0.02087718      -0.05772798       0.42040465      -0.00425760
H        6.84081891       6.87449638       7.00612192       0.31260861       0.44741164       0.11129860      -0.15577685      -0.02018035       0.10911007
N        5.41714229       5.33212432       5.98561478      -1.87346579      -1.39849753       0.10691030      -0.36056714       0.07733476      -0.09037804
8
Lattice="12.0 0.0 0.0 0.0 12.0 0.0 0.0 0.0 12.0" Properties=species:S:1:pos:R:3:momenta:R:3:forces:R:3 energy=-440.25242902398327 free_energy=-440.25242902398327 stress="0.0002850068749092904 0.001370002175962065 -0.0007185957823272764 0.001370002175962065 -4.610218826539967e-05 -6.831758778263205e-05 -0.0007185957823272764 -6.831758778263205e-05 -0.0015441480135215434" pbc="T T T"
B        6.68979248       6.75662399       5.82087102      -0.90984679      -0.50040132      -0.60612380      -1.54358770      -3.31816544      -1.04282976
H        4.50710881       5.72190003       6.48752284       0.19174873       0.08001855      -0.01079003       0.51083167       0.30337069      -0.17277413
H        5.75483160       4.59239687       6.62343803      -0.14709932       0.04446122      -0.04363634       0.41963948       0.13608124       0.12809108
H        5.13101995       4.96176029       5.09628750       0.02630296       0.02793350       0.17756571       0.27768122       0.41350169       0.13389664
H        6.05472867       7.40760313       5.17022429      -0.08599466      -0.00654557       0.02813713      -0.75789943       1.65191323      -0.73758474
H        7.49289119       6.16726988       5.23818463      -0.14950447      -0.06201094       0.08891539       0.68318173      -0.14073086      -0.07270918
H        6.81799960       6.92059951       6.90371250      -0.03280378       0.01387376      -0.18833812       0.66901990       1.02943931       2.15876980
N        5.40754870       5.38869742       6.02903017       0.28656792       0.55173651      -0.24817743      -0.25886688      -0.07540987      -0.39485971
8
Lattice="12.0 0.0 0.0 0.0 12.0 0.0 0.0 0.0 12.0" Properties=species:S:1:pos:R:3:momenta:R:3:forces:R:3 energy=-440.45721845370133 free_energy=-440.45721845370133 stress="-0.0008567492519984415 -0.0015960246982011724 0.0002384873278860548 -0.0015960246982011724 -0.0015736694114245671 0.00045418552579107703 0.0002384873278860548 0.00045418552579107703 0.0007056258286757438" pbc="T T T"
B        6.48469399       6.54782873       5.81346217       0.54141814       0.98242350      -0.79402336       2.24338231       1.98354199      -1.07188533
H        4.60940569       5.83825909       6.57523061      -0.02565138      -0.32217563       0.04007012      -0.45597710       0.12572681       0.22724008
H        5.85875862       4.70295861       6.70305258      -0.13253828       0.00382839      -0.05628112       0.00017438      -0.26196890       0.19707456
H        5.12817465       4.98827478       5.21211715      -0.02056743      -0.09752669       0.22158703      -0.31158658      -0.34671102      -0.71457488
H        5.89945501       7.29704139       5.08787288      -0.16408945      -0.37937410      -0.05164271       0.46428956      -0.02344717       0.67479348
H        7.39059431       6.03143220       5.18804019      -0.18409206      -0.14514776      -0.06490928      -0.74769202       0.45954814       0.88857667
H        6.77720841       6.95381478       6.91212712      -0.24911985      -0.32442425      -0.18118947      -0.06754523      -0.06558743      -1.08818476
N        5.44329340       5.44366517       6.08795175      -0.63787098       0.44088650       0.03320894      -1.12504532      -1.87110241       0.88696019
8
Lattice="12.0 0.0 0.0 0.0 12.0 0.0 0.0 0.0 12.0" Properties=species:S:1:pos:R:3:momenta:R:3:forces:R:3 energy=-440.202454212102 free_energy=-440.202454212102 stress="0.0006193125294833873 0.0015353360926495911 -0.00028289040757722864 0.0015353360926495911 0.0016646970478301987 -0.0005123264694581883 -0.00028289040757722864 -0.0005123264694581883 -0.00035710752486266294" pbc="T T T"
B        6.54848536       6.58123277       5.82526245      -0.10217992       0.60355130      -0.54230870       1.18439062       0.59232745       0.06325480
H        4.56872699       5.74077487       6.79648423       0.04364301       0.05491319       0.05030549      -1.08489839       0.42946858       0.63273170
H        5.86331730       4.59870047       6.90270669      -0.12634246      -0.00238135       0.00200979       0.17178162      -0.40748754       0.40709793
H        5.03323731       4.81447273       5.41439507      -0.07916652      -0.09951114       0.00418206      -0.48610765      -0.52098468      -0.98335057
H        6.08401411       7.40129953       5.09729331      -0.21748703      -0.09023057      -0.32814900      -0.66656576      -0.93810488       0.29314966
H        7.43127301       5.99186046       5.28462164       0.10318012      -0.17321926      -0.29451763      -0.68881076      -0.15467165       0.28868215
H        6.98791457       7.16796115       6.79147145      -0.02045386      -0.01951987       0.17099707      -0.94120477      -1.14455062      -0.27392730
N        5.30423973       5.23129616       6.30684858      -0.53457114      -0.10405608       0.02478314       2.51141508       2.14400333      -0.42763837
8
Lattice="12.0 0.0 0.0 0.0 12.0 0.0 0.0 0.0 12.0" Properties=species:S:1:pos:R:3:momenta:R:3:forces:R:3 energy=-440.52527343855604 free_energy=-440.52527343855604 stress="-0.0010314554018310631 0.0007163593005098725 8.836437751754256e-05 0.0007163593005098725 -0.0005823685786714654 7.967062629413667e-06 8.836437751754256e-05 7.967062629413667e-06 -0.0011161674860627375" pbc="T T T"
B        6.44973392       6.52661061       5.72734661      -2.17709456      -1.53262993       0.03120906      -0.21716504       2.30124164       1.24984040
H        4.64061217       5.90844373       6.78644699       0.05843873       0.30984666       0.07041056      -0.47466550       0.19576463       0.28818521
H        5.83963359       4.71812464       6.91048542       0.17169327       0.08325849      -0.00029078       0.51023957      -0.70589924       0.65452356
H        4.97560767       4.89117807       5.45743951       0.08765980       0.00412521      -0.19566168      -0.18010311      -0.21717867      -0.15188298
H        5.84826260       7.28187536       5.08951458       0.29053177       0.10629921      -0.10992088      -0.43160521      -0.26722823      -0.66739511
H        7.35938783       6.09234410       5.24140412      -0.02278447       0.17984780      -0.08374063       0.91600751      -1.24507166      -0.95747981
H        6.80499716       7.17212988       6.64037119       0.16322488       0.20540240      -0.29556335      -0.17901211      -0.51359813       0.40337775
N        5.38725501       5.39430185       6.27805843       0.41639819       0.82766568      -0.40595423       0.05630389       0.45196966      -0.81916901
8
Lattice="12.0 0.0 0.0 0.0 12.0 0.0 0.0 0.0 12.0" Properties=species:S:1:pos:R:3:momenta:R:3:forces:R:3 energy=-440.55462798219924 free_energy=-440.55462798219924 stress="0.0003512275068918349 0.0004165476482626968 -0.00020924875407202947 0.0004165476482626968 -0.00010812835594279206 -2.6436566982334064e-05 -0.00020924875407202947 -2.6436566982334064e-05 -0.000153871053146949" pbc="T T T"
B        6.58344467       6.61869312       5.66462672      -0.09335915      -0.17327609      -1.42038651      -1.93103541      -0.82963322       1.14498650
H        4.67308908       5.81335674       6.98405781      -0.16554411       0.08474434       0.17252339       0.47989779       0.26618773      -0.40942207
H        6.05652816       4.82545893       7.01266220       0.13389447      -0.09583617       0.11916078       0.18573457      -0.00964989       0.14011363
H        5.06494363       4.81623805       5.64499831       0.01602338      -0.12625523      -0.11336581       0.19183657       0.44563314       0.13823723
H        5.80839047       7.16404832       4.98733780       0.25942593       0.29929992       0.02306979       0.41592938       0.38358823      -0.43947581
H        7.32691092       5.86994824       5.21305409       0.20147566       0.53120666      -0.08326680       0.67261477      -0.06071604      -0.62266415
H        6.93022951       7.18376195       6.61707353       0.22732229       0.36642405      -0.39111472       0.34848948       0.40553763       0.02666621
N        5.48162433       5.44831430       6.39289187      -1.67161470      -0.68787950       0.62520645      -0.36346714      -0.60094759       0.02155848
8
Lattice="12.0 0.0 0.0 0.0 12.0 0.0 0.0 0.0 12.0" Properties=species:S:1:pos:R:3:momenta:R:3:forces:R:3 energy=-440.10693859739615 free_energy=-440.10693859739615 stress="0.0010369934779513035 -0.0005043818138026158 0.00040627579271331317 -0.0005043818138026158 0.0018101718033639593 -0.00010684961386341752 0.00040627579271331317 -0.00010684961386341752 0.0014822316097040267" pbc="T T T"
B        6.58219280       6.69619341       5.53398382      -0.82753295      -0.66370464      -0.79082971      -1.88093092      -3.51788255      -0.02749457
H        4.76356527       6.09203359       6.91186262       0.03801271       0.10594558       0.01423160       0.55405737      -0.69820660      -0.33307748
H        5.98996897       4.86612886       7.18098731      -0.07152950      -0.04336226       0.10175892      -0.45755669       0.90806170      -1.08623005
H        4.97194764       4.80252506       5.76069920      -0.03826418      -0.09691648       0.06203493       0.45966841       0.50223807       0.26727402
H        5.68370086       7.09240635       4.81901269      -0.18303925      -0.12072578       0.23509416       1.19658006       0.44651500       0.57129451
H        7.23643473       5.79559266       5.02707305      -0.27401949       0.04921862       0.23754237       0.09811376       1.66963593       0.30954864
H        6.90268809       7.19747494       6.54864405      -0.17378270      -0.10325391      -0.13936829       0.51311195       0.71506128      -0.62042193
N        5.48212818       5.46139995       6.42720292       0.36567650       1.08432415      -0.85914252      -0.48304395      -0.02542282       0.91910686
8
Lattice="12.0 0.0 0.0 0.0 12.0 0.0 0.0 0.0 12.0" Properties=species:S:1:pos:R:3:momenta:R:3:forces:R:3 energy=-440.3731156171759 free_energy=-440.3731156171759 stress="0.0008979174792951632 -0.0015033434460431675 0.0007649118182355708 -0.0015033434460431675 6.012008879792673e-06 0.001566945778461612 0.0007649118182355708 0.001566945778461612 0.0014945553409922462" pbc="T T T"
B        6.43898416       6.47950887       5.61617676       0.03880759       0.89366468      -1.38529165       1.65621292       0.79229197      -3.11383433
H        4.79395951       6.06203638       7.04520504       0.03035792      -0.10049199       0.09906890       0.56294613      -0.55116812      -0.36014617
H        6.23209361       5.03382093       7.19382233      -0.11853201       0.04005171      -0.03805929      -1.22877897       0.51840097      -0.64676134
H        5.11330271       4.79425983       5.85944191       0.03943038      -0.10720108       0.09820733       0.11599287       0.54534045       0.77388052
H        5.68274079       6.95366303       4.80617767      -0.54442432      -0.09533513      -0.30477378       0.45323746       0.14480837       0.97085811
H        7.20604049       5.77194529       4.91937595      -0.07825549      -0.63172291      -0.11101715      -0.96035965       0.93748884       1.65643840
H        6.96203862       7.20574017       6.39917549      -0.04031805      -0.01637076       0.36112086      -0.12535518      -0.14130765      -0.65542703
N        5.55486311       5.53319315       6.50197820      -0.55266382       0.24003289       0.08230144      -0.47389557      -2.24585482       1.37499184
8
Lattice="12.0 0.0 0.0 0.0 12.0 0.0 0.0 0.0 12.0" Properties=species:S:1:pos:R:3:momenta:R:3:forces:R:3 energy=-439.9892795719119 free_energy=-439.9892795719119 stress="-0.000654405059140843 0.0014204521467052265 -0.0017424228042034915 0.0014204521467052265 -0.0002622496814351277 -0.0014124296991136263 -0.0017424228042034915 -0.0014124296991136263 -0.0001387338145449067" pbc="T T T"
B        6.46900308       6.51818597       5.41580585      -0.26578429       0.07482938      -0.68611180      -0.29053539      -1.26975675       1.02498786
H        4.80514523       6.10981766       7.08888700       0.15030170       0.04097779      -0.03257993       0.29073197      -0.37987434      -0.10987010
H        6.21663676       5.06335845       7.29152448      -0.21861501       0.13761172      -0.10095747      -0.26655570       0.15508656      -0.04067187
H        5.03459212       4.68799547       6.05718847       0.05852526       0.07452152       0.10354918       0.26187831       0.64198559       0.43923868
H        5.79497314       7.00144048       4.70847552      -0.07005275      -0.30067615      -0.15292034      -2.62141386       0.77975197      -1.30928620
H        7.19485477       5.92253158       4.81754145      -0.12916061       0.16874798      -0.40936849       0.90889895      -2.07088065      -0.46062967
H        7.05498488       7.31200453       5.91206387      -0.18747711      -0.14080209      -0.05438231       0.74533517       1.27230722       2.15030532
N        5.50110328       5.46042755       6.62629598      -0.59308062       0.17282049       0.10524125       0.97166056       0.87138040      -1.69407401
8
Lattice="12.0 0.0 0.0 0.0 12.0 0.0 0.0 0.0 12.0" Properties=species:S:1:pos:R:3:momenta:R:3:forces:R:3 energy=-440.4066511467594 free_energy=-440.4066511467594 stress="0.0005497482409521911 -0.0003416409091797391 0.001035714852365096 -0.0003416409091797391 0.0012745220381033232 0.0005267085274070487 0.001035714852365096 0.0005267085274070487 -0.0004847757819913818" pbc="T T T"
B        6.31673660       6.35313842       5.39155124      -1.72510306      -0.83018225       0.77264234       1.22709187       2.36846614       0.03303111
H        4.91390632       6.18412445       7.01623539       0.20020934       0.02442948      -0.04662128      -0.28261107       0.06033208       0.39995609
H        6.21451663       5.11865901       7.27355321       0.02312282       0.14237389      -0.21039310       0.80159215      -0.24974357       0.69181397
H        5.01742166       4.71689726       6.16914463       0.21143998       0.13624575       0.01576379      -0.20288608      -0.25625315      -0.19528753
H        5.39904742       6.85598337       4.72644679       0.44661277      -0.09483903      -0.21496275       1.36148511      -1.11283445       0.58187102
H        7.08609368       5.54090215       4.96392575      -0.16109915       0.24942127      -0.19106746      -0.64225453       0.68872848      -0.37890695
H        6.93232225       7.28310274       6.00176156      -0.02418525      -0.09211180      -0.60904946      -1.08000735      -1.72811754      -1.05089297
N        5.57225231       5.50888085       6.56836769      -0.22366938       0.69220807      -0.74122968      -1.18241010       0.22942202      -0.08158474
8
Lattice="12.0 0.0 0.0 0.0 12.0 0.0 0.0 0.0 12.0" Properties=species:S:1:pos:R:3:momenta:R:3:forces:R:3 energy=-440.114615053281 free_energy=-440.114615053281 stress="-0.0002515577856607154 4.6687968805839014e-05 -0.0002234826409792702 4.6687968805839014e-05 -0.0008216249505778179 -0.00014475060186769302 -0.0002234826409792702 -0.00014475060186769302 -0.00020577890419777836" pbc="T T T"
B        6.37825216       6.37841892       5.20474467      -0.47521151      -0.09633424      -1.65040341      -1.81151130       0.55554716       3.64265178
H        4.97151967       6.12485028       7.23300669       0.09836810       0.12874567      -0.05244358      -0.54645824       0.95129316       0.27333697
H        6.38154952       5.21958819       7.23864711      -0.04097899      -0.01852271       0.10624202       0.96525626      -0.14903583       0.64493452
H        5.11988423       4.75601582       6.29704359       0.03699039       0.01567912       0.05258172      -0.92111426      -1.20143835      -0.75062828
H        5.30310497       6.64887985       4.76135289      -0.12488532       0.19987761      -0.17985170       1.12201088       0.00914734      -0.96401533
H        7.02848033       5.44728479       4.96808106       0.13899900       0.01518373      -0.14044204       0.37870804       0.05306729      -1.15040434
H        6.87718675       7.24398418       5.88876408       0.09222558       0.31490537      -0.13238550       0.06573843      -0.35302003      -1.39301815
N        5.61687430       5.57182465       6.64925505      -0.90377078      -0.34550531       0.84454469       0.74737020       0.13443926      -0.30285718
8
Lattice="12.0 0.0 0.0 0.0 12.0 0.0 0.0 0.0 12.0" Properties=species:S:1:pos:R:3:momenta:R:3:forces:R:3 energy=-440.5453824756451 free_energy=-440.5453824756451 stress="-0.0004183728732447144 0.0001605791957301205 -0.00021605587631663307 0.0001605791957301205 -0.0007762971732381602 -0.000821207726419097 -0.00021605587631663307 -0.000821207726419097 0.000287903240149674" pbc="T T T"
B        6.31466704       6.33468168       5.18775183      -0.56366216      -0.81046979      -0.77608605      -1.40893436      -1.41932761       1.18001777
H        5.08167829       6.31505577       7.12042574       0.00303909       0.09285280       0.08833253      -0.62947848       0.90475435       0.48065961
H        6.38313705       5.28394145       7.37269191       0.03241173       0.04505630      -0.03425879       0.54715554      -0.00119945       0.06241992
H        5.03518618       4.76185673       6.51942696      -0.01593094      -0.11414577      -0.01347304      -0.50149141      -0.77655375      -0.56975055
H        5.28881155       6.51616781       4.62730809      -0.42399140      -0.05477028       0.47418843       0.50828243       0.23382269      -0.09665056
H        6.96481382       5.45707718       4.78282615      -0.09408576      -0.17244952       0.42541824       0.28114534       0.10118934      -0.31031704
H        6.84723518       7.23814327       5.66848031      -0.19516515      -0.00595665       0.40129010       0.34042488       0.54761209      -0.13511818
N        5.64834712       5.57358490       6.69117450       0.23010913       1.20648547      -1.56992646       0.86289606       0.40970234      -0.61126098
8
Lattice="12.0 0.0 0.0 0.0 12.0 0.0 0.0 0.0 12.0" Properties=species:S:1:pos:R:3:momenta:R:3:forces:R:3 energy=-440.4449927422929 free_energy=-440.4449927422929 stress="-0.001124312522871378 -0.00021397584381601384 -0.00022395609281895118 -0.00021397584381601384 -0.0008698690684283561 0.0003465619517722055 -0.00022395609281895118 0.0003465619517722055 -0.0005304453457112333" pbc="T T T"
B        6.22740780       6.27984991       5.40193768       0.08255590       0.57537119      -1.97799457       0.98208712      -1.16701621      -2.57896024
H        5.13020412       6.38049104       7.33004501      -0.08366729       0.10437496       0.18191995      -0.07606259      -0.00536439       0.08326954
H        6.56673014       5.43962797       7.36846335      -0.00859518      -0.01555070       0.16424287       0.08203189      -0.04466822       0.25807833
H        5.16489752       4.81028399       6.60696384      -0.08095836      -0.19752146       0.10382897       0.05651317       0.25206194       0.19135219
H        5.39988927       6.44307477       4.63153665      -0.34854066      -0.08095779       0.06654085      -1.33956343       0.42420913       0.21870624
H        6.86954938       5.45602845       4.86504302      -0.12564023      -0.24309705       0.27772888       0.17069049      -0.24541868       0.74221300
H        6.86979588       7.18971601       5.53680535      -0.03363257      -0.00048272       0.10522363       0.64175670       1.35319583       0.73775588
N        5.72265006       5.69093502       6.79853733      -0.27770998       0.01702145       0.22173397      -0.51745335      -0.56699940       0.34758506
8
Lattice="12.0 0.0 0.0 0.0 12.0 0.0 0.0 0.0 12.0" Properties=species:S:1:pos:R:3:momenta:R:3:forces:R:3 energy=-440.32372954266623 free_energy=-440.32372954266623 stress="0.0012232193438962233 5.4277524847709715e-05 -0.0007691562556028541 5.4277524847709715e-05 0.0012569432634828796 1.4986876501349641e-05 -0.0007691562556028541 1.4986876501349641e-05 0.0025731977277182717" pbc="T T T"
B        6.22798887       6.23693648       5.20580464      -0.57589834      -0.09823923       0.02753743       0.31633806       0.11793961      -1.11912414
H        5.10648431       6.45592066       7.27146336      -0.00041559       0.17304320      -0.04956295       0.56984486      -0.88671919      -0.20316816
H        6.59457633       5.49359945       7.43335247       0.07088003       0.06164333       0.09276765      -0.49728136      -0.00939629      -0.05909030
H        5.13923134       4.76273976       6.70852757      -0.02050816      -0.04567158       0.00811817       0.49771978       0.77396201       0.40388370
H        5.23369417       6.44461396       4.58817393       0.20058941      -0.13313999      -0.14662242       0.03838758      -0.15452571       0.77304800
H        6.89351569       5.44118864       4.56664753      -0.21680661       0.22854727      -0.17727288      -0.67405908       0.15545383       1.52874709
H        6.85158194       7.23726024       5.35708773      -0.11518946      -0.26100529      -0.17040763      -0.34437827      -0.43368626       0.54080844
N        5.70436563       5.65517700       6.88364929      -0.12450030       0.21684360      -0.34908370       0.09342843       0.43697200      -1.86510464
8
Lattice="12.0 0.0 0.0 0.0 12.0 0.0 0.0 0.0 12.0" Properties=species:S:1:pos:R:3:momenta:R:3:forces:R:3 energy=-440.51775577544606 free_energy=-440.51775577544606 stress="0.001515445397200965 -0.0003934043861339786 0.0007439833717424939 -0.0003934043861339786 0.0017045103308929548 0.0007201425495018133 0.0007439833717424939 0.0007201425495018133 -0.0017347475314614" pbc="T T T"
B        6.20496752       6.17210073       5.23358091      -0.75962604      -0.38429988       1.02164050       0.91924064       0.62654647      -1.43731142
H        5.22005225       6.49172399       7.16987306       0.06768011       0.04257222      -0.02849605       0.57482974      -0.79870681      -0.23142096
H        6.72785728       5.58887768       7.27533500       0.11457191       0.07030554      -0.18498767      -1.04707070       0.10145014      -0.38403975
H        5.27277844       4.81304245       6.69278863       0.10830366       0.02213465      -0.18530997       0.37367147       0.63377225       0.14084899
H        5.15023800       6.37898124       4.72466500      -0.07165104      -0.06826413      -0.30642224       0.62843156      -0.26605627      -0.17107746
H        6.84884588       5.21790179       4.87036554       0.11319824      -0.14681496      -0.42882788      -0.56360061       0.96452479      -0.28221144
H        6.84976200       7.18695755       5.36783787       0.08366697       0.03287758      -0.28641311      -0.45653845      -0.92744872      -0.27224656
N        5.82406582       5.73205605       6.70140017      -0.38869295       0.56455508      -0.31750229      -0.42896364      -0.33408186       2.63745861
8
Lattice="12.0 0.0 0.0 0.0 12.0 0.0 0.0 0.0 12.0" Properties=species:S:1:pos:R:3:momenta:R:3:forces:R:3 energy=-440.3271806307433 free_energy=-440.3271806307433 stress="-0.0008015388119126848 0.00032088589708297944 -0.0001040778373833483 0.00032088589708297944 -0.000938157882377856 -0.00066374562652823 -0.0001040778373833483 -0.00066374562652823 0.0009587220182160838" pbc="T T T"
B        6.24557823       6.17871426       4.99382508      -0.39163222       0.08378361      -1.19392266      -0.73773135       0.93468933       3.50151042
H        5.28697037       6.51138565       7.21014399       0.12246101       0.04383538      -0.17651006       0.34047177      -0.21029585      -0.40419079
H        6.76549924       5.62294479       7.34260039      -0.13048026       0.04483763      -0.01617881      -0.62812418       0.23427057      -0.78693150
H        5.33067598       4.84830734       6.81343061       0.04815570       0.05886427       0.05598005       0.21464694       0.31415102      -0.31230987
H        5.17854830       6.33409327       4.65739961      -0.04142483       0.03905916       0.00242298      -1.15561446      -0.07875470      -1.01474045
H        6.81436150       5.25387041       4.80139848       0.01725617      -0.06723553       0.03053387       1.20329483      -1.79822878      -1.28852532
H        6.82145170       7.15169266       5.19121355      -0.03342079       0.07832903      -0.12301995       0.63307623       0.60456885      -0.34176927
N        5.87885254       5.75686568       6.74646195      -0.29400503      -0.15375861       0.73318208       0.12998022      -0.00040043       0.64695678
8
Lattice="12.0 0.0 0.0 0.0 12.0 0.0 0.0 0.0 12.0" Properties=species:S:1:pos:R:3:momenta:R:3:forces:R:3 energy=-440.70145831299044 free_energy=-440.70145831299044 stress="0.0003208475531195192 0.00020811739486005415 -0.00012928243252333715 0.00020811739486005415 3.2430770147628484e-05 8.139628771234572e-05 -0.00012928243252333715 8.139628771234572e-05 0.0005692632846134155" pbc="T T T"
B        6.24519631       6.09061930       5.14231980      -0.57301999      -0.57127333      -0.00152221      -0.64320465       0.82873492       0.05094073
H        5.40034481       6.54914411       7.23180085       0.13149738      -0.11634988       0.06972808      -0.06017347       0.29236768      -0.03119447
H        6.85452345       5.66398688       7.31733650      -0.23227493       0.00500166      -0.09223097       0.31812658       0.01238067       0.11710271
H        5.39304741       4.88130867       6.91874976       0.14713043       0.11444081       0.03418225       0.04585385      -0.01968052      -0.12281685
H        5.14547655       6.19973910       4.69069081       0.04303798       0.03617618       0.38715444       0.60940433      -0.05622749       0.21025563
H        6.85177513       5.20121951       4.68266350      -0.11963800       0.03992169       0.50560428       0.01919235      -0.11968450       0.31143258
H        6.83992279       7.11869133       5.18377453      -0.20968822      -0.10029815       0.24958513      -0.20993818      -0.45260644      -0.10627480
N        5.95051042       5.76836676       6.80147422       0.12329448       0.71765655      -1.82688169      -0.07926081      -0.48528432      -0.42944553
8
Lattice="12.0 0.0 0.0 0.0 12.0 0.0 0.0 0.0 12.0" Properties=species:S:1:pos:R:3:momenta:R:3:forces:R:3 energy=-440.47627679255186 free_energy=-440.47627679255186 stress="-0.00024184869362706024 0.00020705340348360212 -5.642128442499733e-05 0.00020705340348360212 -0.0001786181043544288 9.450904545519519e-05 -5.642128442499733e-05 9.450904545519519e-05 0.00011572137135070291" pbc="T T T"
B        6.15616988       6.08646501       5.29231372      -0.09609113      -0.28575013      -1.79071663       0.21361900      -0.76591268      -3.14074772
H        5.43505372       6.63081633       7.30213069       0.05974646      -0.02806926       0.12403367      -0.33109730       0.47282257       0.53319439
H        6.89543257       5.74107871       7.29216120      -0.11680607       0.00539852       0.14247506       1.09937021      -0.14329161       0.82911982
H        5.41208631       4.94391270       6.99841068       0.07484329       0.07268749       0.16743325      -0.31708221      -0.54994112       0.31076075
H        5.10456743       6.06879299       4.69786931      -0.25411689       0.03049296      -0.00932903       0.51094947       0.39347622       1.14921627
H        6.75171762       5.15103707       4.82967589      -0.00578278      -0.01705345      -0.05899319      -0.20165039       0.42355735       0.92567851
H        6.80349915       7.05608730       5.06671571       0.02227894       0.19397392      -0.06278362      -0.48328285      -0.14522807       0.74230294
N        5.95090938       5.82390493       6.90845994      -0.37031491       0.15297464       0.81684188      -0.49082593       0.31451734      -1.34952497
8
Lattice="12.0 0.0 0.0 0.0 12.0 0.0 0.0 0.0 12.0" Properties=species:S:1:pos:R:3:momenta:R:3:forces:R:3 energy=-440.43082010121816 free_energy=-440.43082010121816 stress="-0.0009515051928998969 -0.00020008842032272933 -0.00021232550757665353 -0.00020008842032272933 -0.0011826752287291196 -6.841164757786189e-05 -0.00021232550757665353 -6.841164757786189e-05 0.0019644914394821907" pbc="T T T"
B        6.14899512       6.04713788       5.08571616      -0.58998383      -0.06837870       0.89370731       0.10570175      -1.38714101       0.34556779
H        5.47589545       6.68366144       7.20569444       0.04253750       0.13235074      -0.22455411      -0.39019278       0.64143103       0.43109761
H        6.93700385       5.78890196       7.33684202       0.13322499       0.05872494      -0.09913172       0.72141783      -0.10287562       0.35442778
H        5.42979329       4.98052286       7.08275250       0.01294139      -0.04439833      -0.11018707      -0.57989689      -1.06290824       0.26434936
H        5.06299615       6.02778541       4.66315798      -0.08568346      -0.13769765      -0.29979457      -0.33007141       0.28382404       0.41294752
H        6.74192664       5.11271418       4.66376556      -0.08624872       0.02868835      -0.17624586      -0.04106252       0.11286834       0.68499387
H        6.74227792       7.01947714       4.95076015       0.09274989      -0.00686758      -0.29222982       0.19305657       0.77092774       0.26603872
N        5.98505922       5.82727932       6.94657795      -0.21219469       0.16339797      -0.36887450       0.32104745       0.74387372      -2.75942264
8
Lattice="12.0 0.0 0.0 0.0 12.0 0.0 0.0 0.0 12.0" Properties=species:S:1:pos:R:3:momenta:R:3:forces:R:3 energy=-440.43370738318936 free_energy=-440.43370738318936 stress="-0.0009345956503241691 -0.0003348284306710498 -2.675770656113951e-05 -0.0003348284306710498 -0.0009462310405989692 0.00043366769307644963 -2.675770656113951e-05 0.00043366769307644963 -0.0029940697684726772" pbc="T T T"
B        6.11030626       5.98850958       5.12024770      -0.55232290       0.02232671       0.52170440       0.34965373      -0.30331218      -0.89612843
H        5.53994064       6.68157447       7.16868379      -0.03239688       0.23394326      -0.07877180      -0.29708553       0.58629150      -0.13691342
H        6.98687845       5.84406527       7.09018085       0.17517140       0.06033347      -0.13249112       0.02194691       0.04293575      -0.07422713
H        5.52734191       5.03192265       6.96640525      -0.04676918      -0.20691539      -0.15860580      -0.27551751      -0.46210643       0.03104572
H        5.01312155       6.01434264       4.83131621       0.04172232      -0.18956500      -0.19523822      -0.93481413      -0.05441912      -0.94786470
H        6.70634813       5.02519449       4.83616642      -0.10852463       0.02966066      -0.27930932      -0.03547377       0.06841159      -0.45745532
H        6.65782986       6.97480551       4.97841633      -0.00561070      -0.24541372      -0.20336002       0.57369427       0.81162394      -0.77990666
N        6.02169775       5.90189772       6.66210196      -0.18474062       0.42523063      -0.17159157       0.59759603      -0.68942504       3.26144995
8
Lattice="12.0 0.0 0.0 0.0 12.0 0.0 0.0 0.0 12.0" Properties=species:S:1:pos:R:3:momenta:R:3:forces:R:3 energy=-440.357148485009 free_energy=-440.357148485009 stress="0.0005261079902649325 -1.2991665958089855e-05 1.5028969811658447e-05 -1.2991665958089855e-05 0.0010642081755457178 -0.0005066840306473658 1.5028969811658447e-05 -0.0005066840306473658 0.0018166530371496997" pbc="T T T"
B        6.10958351       5.97558201       4.90863442      -0.48531082      -0.01937369      -1.30258254       0.09302705       0.81391741       2.48101766
H        5.56790152       6.79163535       7.16832968      -0.02722031       0.17563599       0.10975140       0.22639982      -0.27006374      -0.41112922
H        7.05872855       5.95770633       7.25221157       0.02118581       0.06398148       0.12737853      -0.20382571       0.03869390      -0.61495614
H        5.59820999       5.08741204       7.23233899      -0.01026628      -0.10289105       0.17383790       0.27641492       0.45839358      -0.80454313
H        4.94127145       6.04355258       4.74923839       0.15268474      -0.04934869       0.10317113       0.25510570      -0.39638962      -0.34420969
H        6.70205427       4.96606173       4.78590254      -0.07393972       0.00293628      -0.11318321      -0.16573165       0.20256574      -0.66597069
H        6.66013765       7.03393827       4.74778843      -0.13976762      -0.23840332       0.03142694      -0.11194475      -0.92271992      -0.13739625
N        6.09280323       5.93935619       6.80302428      -0.18201801       0.30272759       0.14204622      -0.36944538       0.07560264       0.49718745
8
Lattice="12.0 0.0 0.0 0.0 12.0 0.0 0.0 0.0 12.0" Properties=species:S:1:pos:R:3:momenta:R:3:forces:R:3 energy=-440.5719964250652 free_energy=-440.5719964250652 stress="0.0018038964809619763 3.1021354775485885e-05 -4.7836871815659934e-05 3.1021354775485885e-05 0.0022003113734937216 -0.00019026126986882184 -4.7836871815659934e-05 -0.00019026126986882184 0.0004840134917994661" pbc="T T T"
B        6.04088013       5.97984970       5.15153709      -0.58076617      -0.09249741       0.92268760      -0.07651785       1.37316438      -0.84838595
H        5.53841240       6.91413155       7.17414626       0.05213879       0.04222551       0.02178403       0.82553473      -1.12491812      -0.07029258
H        7.12437647       6.06319443       7.12880115       0.00561181       0.02142948       0.01691720      -0.86512266       0.07620713       0.17638254
H        5.61507461       5.12298970       7.20153160       0.09170469       0.02852343       0.03767197       0.60927841       1.19136302      -0.03461588
H        4.87562353       6.02799191       4.84158624      -0.14198628       0.07740000       0.20299990       0.89931649      -0.30084506       0.44977194
H        6.61625290       4.98650168       4.85499495       0.09665319      -0.22509479       0.43817286      -0.26679518       0.35372455       0.17404270
H        6.60150576       7.01349832       4.79846840      -0.05215110       0.13839295       0.09659878      -0.48721835      -1.31243466       0.50381893
N        6.08935336       6.03532601       6.87111279      -0.26464333       0.15374734      -2.51269123      -0.63847559      -0.25626124      -0.35072170
8
Lattice="12.0 0.0 0.0 0.0 12.0 0.0 0.0 0.0 12.0" Properties=species:S:1:pos:R:3:momenta:R:3:forces:R:3 energy=-440.5015483092506 free_energy=-440.5015483092506 stress="0.0002658039595221061 0.0002947319995745883 -7.307185960451886e-05 0.0002947319995745883 -0.00031287514641596047 8.432496688438201e-05 -7.307185960451886e-05 8.432496688438201e-05 3.748629838416165e-06" pbc="T T T"
B        5.97028237       5.93992615       5.21713399      -0.61879659      -0.81193974      -1.88313569      -0.69987008       1.26452887      -0.36430966
H        5.56097830       6.98872089       7.15236962       0.09632885      -0.01303644      -0.07942902       0.66783709      -0.93860821       0.13372571
H        7.15447703       6.14403265       7.06217242      -0.04520861       0.04822428       0.04667000      -1.07297730       0.02019718       0.40611861
H        5.64116714       5.20003468       7.25029375       0.08889401       0.12524435       0.01828383       0.41273676       0.75260619       0.31562468
H        4.84552297       5.90308063       4.96940807      -0.22643858       0.11939886      -0.10321377      -0.57061627       0.11033020       0.17773965
H        6.47059724       5.01127911       4.85068971       0.02555202      -0.11408925      -0.14086012       0.94714867      -1.67829080       0.10893701
H        6.49310278       6.85543173       4.74970625      -0.07643307       0.26608749      -0.22437995       0.16339224       0.59246906       0.12224187
N        6.09754132       6.09494382       6.90054271      -0.09596679       0.53488705       1.53287446       0.15234889      -0.12323248      -0.90007787
8
Lattice="12.0 0.0 0.0 0.0 12.0 0.0 0.0 0.0 12.0" Properties=species:S:1:pos:R:3:momenta:R:3:forces:R:3 energy=-440.36414100565787 free_energy=-440.36414100565787 stress="0.00016676584890511925 0.00010440315776224838 0.0004858839845970853 0.00010440315776224838 -0.0006539831673585255 0.0003322899961476607 0.0004858839845970853 0.0003322899961476607 0.0023184132103302355" pbc="T T T"
B        5.93938966       5.93324969       4.97955747      -0.36997076      -0.40428893       0.73890742       0.29789638      -1.12081735       1.91463034
H        5.69429979       7.06895075       7.14436384       0.11321790      -0.06766530      -0.23264618      -0.01173789       0.08450068      -0.08276833
H        7.21474193       6.26210691       7.15706313      -0.15775189      -0.02829601      -0.32116206      -0.56119574      -0.15197974      -0.39122439
H        5.74584540       5.39757204       7.46652901       0.04538195       0.00202028      -0.30182630      -0.00378555      -0.22772256      -0.27262372
H        4.78525807       5.79632030       4.88321104       0.12438788      -0.02151659      -0.12845262      -0.20024423       0.40681460       0.08430700
H        6.51226651       4.93104925       4.80626523      -0.21625366       0.31940843      -0.15923367       0.14932826      -0.15373470       0.08442689
H        6.48312718       6.83866958       4.53347099      -0.14342723      -0.19064650      -0.17759930       0.08908385       0.87988770      -0.12664949
N        6.18392336       6.17021453       6.90575079      -0.30905474       0.55691473      -0.31121889       0.24065493       0.28305136      -1.21009830
8
Lattice="12.0 0.0 0.0 0.0 12.0 0.0 0.0 0.0 12.0" Properties=species:S:1:pos:R:3:momenta:R:3:forces:R:3 energy=-440.15306365152924 free_energy=-440.15306365152924 stress="8.623439373548897e-06 -0.00020383061500785113 -0.0007032732412165262 -0.00020383061500785113 0.00023770767294779003 -0.0005671588158291993 -0.0007032732412165262 -0.0005671588158291993 -0.0036721206384657382" pbc="T T T"
B        5.96798656       5.95828104       5.20762226      -0.67292318       0.18513980       0.47154892      -0.27981234      -1.88065489      -2.60299812
H        5.83344233       7.11067042       7.07557040       0.10168830      -0.01305346      -0.16127264      -0.65920872       1.19006273      -0.18050080
H        7.22781212       6.30439596       6.92039067      -0.22981835       0.08912474       0.02841679       1.32102332      -0.01684645      -0.14815046
H        5.85244258       5.51388437       7.30886687       0.11699974       0.14265495      -0.00709261      -0.33493561      -0.82573684       0.09142366
H        4.77218788       5.80615379       5.18002967      -0.03171545      -0.17895273      -0.01594149       0.94133353       0.26222246      -0.62390359
H        6.58415573       4.88932958       5.06399604      -0.12906963       0.11621886       0.00197534      -0.91105343       1.53710957      -0.40279309
H        6.44705206       6.91102288       4.69113313      -0.00712433      -0.20655315      -0.16219345      -0.45393560      -0.57612747      -0.52579292
N        6.22800633       6.24407898       6.66403384      -0.12808548       0.04344484      -1.11377519       0.37658884       0.30997089       4.39271531
8
Lattice="12.0 0.0 0.0 0.0 12.0 0.0 0.0 0.0 12.0" Properties=species:S:1:pos:R:3:momenta:R:3:forces:R:3 energy=-440.3040182622161 free_energy=-440.3040182622161 stress="-0.0010535210731762615 -0.00041813137258114944 0.0003576864657260543 -0.00041813137258114944 8.718669981301346e-05 0.000754053984930926 0.0003576864657260543 0.000754053984930926 0.0012098213956872872" pbc="T T T"
B        5.86065705       5.82263596       5.01193041      -0.95944987      -0.43596101      -1.69342346       0.44938930      -0.02120977       2.05304105
H        5.82800542       7.22517650       7.02706409       0.10688261       0.12460134       0.17425932      -0.44658631       0.95069845       0.03999483
H        7.30311304       6.39631648       6.90469289       0.03978991       0.11436593       0.16950170       1.73639987       0.15614885       0.06248657
H        5.92440916       5.60114895       7.48712661       0.15870175       0.12062912       0.16284547      -0.37291888      -0.83739541       0.53554912
H        4.69688696       5.79530086       5.16158486      -0.26764503      -0.12182384       0.16354472      -0.01288826      -0.30880802      -0.26113944
H        6.46242581       4.77482350       4.90992946       0.05718405      -0.31694727      -0.07904476      -0.53158898       1.07870097      -0.06756023
H        6.23868803       6.81352518       4.51287339       0.09894421       0.06723464       0.05896300       0.26061627      -0.25507559      -0.33641351
N        6.29360214       6.32655056       6.86326544      -0.26313426       0.63476723       0.03741995      -1.08242302      -0.76305948      -2.02595839
8
Lattice="12.0 0.0 0.0 0.0 12.0 0.0 0.0 0.0 12.0" Properties=species:S:1:pos:R:3:momenta:R:3:forces:R:3 energy=-440.3768935839515 free_energy=-440.3768935839515 stress="-0.0016081204376023712 6.956858813090125e-05 0.0010882023736256772 6.956858813090125e-05 -0.0017651990808668018 0.0006753246069229527 0.0010882023736256772 0.0006753246069229527 0.0010515336590417985" pbc="T T T"
B        5.79262901       5.75921057       5.21297975      -0.14544401       0.41910807       1.05675604       0.79591267       0.90399677       0.96123048
H        5.78833075       7.20830000       7.02964045      -0.10329656       0.10960413      -0.22555012      -0.21152385       0.79191830       0.29565059
H        7.32530362       6.40229946       6.85477256       0.13065127      -0.01873958      -0.25512852       0.40147561       0.14168780       0.15592948
H        5.96863894       5.58066597       7.53864576      -0.02833134      -0.18545061      -0.14387914      -0.27027656      -0.80149430       0.80929923
H        4.67469638       5.68133341       5.17235338       0.02787263       0.08983813       0.26837579      -1.66399127      -0.35434331       0.72011503
H        6.36387622       4.79170000       5.12490617       0.04359247      -0.12748964       0.30208757       0.64813147      -1.19287865      -0.12169277
H        6.08913366       6.56979312       4.46135424      -0.13115077      -0.02610533       0.21111233       0.83584990       0.80084861      -0.12791820
N        6.29329184       6.31968301       6.91018540      -0.86262259      -0.06663269      -2.25882396      -0.53557797      -0.28973522      -2.69261384
8
Lattice="12.0 0.0 0.0 0.0 12.0 0.0 0.0 0.0 12.0" Properties=species:S:1:pos:R:3:momenta:R:3:forces:R:3 energy=-440.59802033081473 free_energy=-440.59802033081473 stress="0.0005328639157444606 0.00018561453960581014 -0.0005689865170180543 0.00018561453960581014 -0.0002306895899225379 -0.0007432610345898205 -0.0005689865170180543 -0.0007432610345898205 -0.0006474264361475954" pbc="T T T"
B        5.79967070       5.74037171       5.35745077      -1.42257308      -0.96553689      -1.96110027      -1.01338181       0.74741765      -2.77816966
H        5.82751721       7.26238296       6.92654577      -0.16842384       0.25022721      -0.25210110       0.21590298      -0.11857031      -0.01560804
H        7.37738475       6.50954059       6.70804994       0.18567760       0.06006756      -0.15570185      -0.65994452      -0.05162605       0.06361997
H        6.09211877       5.67432586       7.51219910       0.02352017      -0.17154743       0.18581436       0.16097568       0.19773695      -0.05018548
H        4.62261525       5.65015528       5.42908587       0.15159544       0.06690767      -0.26313749       0.38556082      -0.00572925       0.21432489
H        6.31634619       4.73761704       5.15703702      -0.10134790       0.02967472       0.03863701       0.37877035      -0.73112257       0.26776136
H        6.10740480       6.51952162       4.48780090      -0.38211110      -0.20003179      -0.06914183      -0.22741758      -0.45577532       0.86740410
N        6.32029907       6.34690396       6.72593746       0.62453708       1.12807646       1.41173633       0.75953408       0.41766891       1.43085286
8
Lattice="12.0 0.0 0.0 0.0 12.0 0.0 0.0 0.0 12.0" Properties=species:S:1:pos:R:3:momenta:R:3:forces:R:3 energy=-440.0081492385781 free_energy=-440.0081492385781 stress="0.0021003484740167166 0.0006128558389734318 -0.000377120348759152 0.0006128558389734318 0.0018456320866964144 0.00030646492802106684 -0.000377120348759152 0.00030646492802106684 0.0030393572964772545" pbc="T T T"
B        5.67671686       5.59467136       5.10033323      -0.50628248      -0.56739897       0.19485096       0.36849367       1.31387026       1.17461102
H        5.95670600       7.42220968       6.98955610       0.03658080       0.19495278       0.03591311       0.54190072      -1.13763835      -0.59210808
H        7.49154514       6.62706826       6.66074300       0.04009820       0.05334321      -0.01117272      -0.85318353      -0.15758076      -0.00849137
H        6.28656660       5.87413698       7.69914488       0.03296891      -0.06441287       0.00602212       0.17466512       0.50536844      -1.48852153
H        4.50845486       5.50713992       5.46910967      -0.13960102       0.04994794      -0.08600479       1.30179304       0.32945733      -0.72554169
H        6.28383788       4.57779032       5.05482013      -0.06933024      -0.02876452      -0.17142775      -0.10742073       0.18238890       0.25779962
H        6.09654338       6.43322916       4.30085512      -0.09837255       0.06819821      -0.18019315      -0.97838944      -0.88025156       0.92931406
N        6.44137697       6.47038987       6.80148011      -0.37298852       0.48975585      -0.84105419      -0.44785884      -0.15561426       0.45293797
8
Lattice="12.0 0.0 0.0 0.0 12.0 0.0 0.0 0.0 12.0" Properties=species:S:1:pos:R:3:momenta:R:3:forces:R:3 energy=-440.52527538713684 free_energy=-440.52527538713684 stress="0.000644698291539582 -0.00021584512923004078 -0.0007967289455718109 -0.00021584512923004078 -0.00015210188149476718 -0.0008128983314733464 -0.0007967289455718109 -0.0008128983314733464 -0.0005729830523862295" pbc="T T T"
B        5.68027599       5.65027492       5.38647189       0.15265123       0.79654107       1.64897769       0.03449618      -0.91529972       0.62124025
H        5.83427084       7.33929227       6.80475718       0.05922935      -0.06095288      -0.16355659       1.10151128      -0.98402268      -0.01869321
H        7.41538262       6.53565923       6.47436153      -0.08345949       0.04426502      -0.06854482      -1.05667936       0.08433011       0.46838139
H        6.18279783       5.77110557       7.51856092       0.06148362       0.12156271      -0.14292723       0.52588255       0.84125436      -0.83287186
H        4.58461738       5.46646773       5.73592801      -0.12498939      -0.02821352       0.34457871      -0.33773580       0.33671969      -0.44427730
H        6.25934816       4.66070773       5.41550604       0.05190740       0.12065654       0.10448349       0.29181995      -0.79205192      -0.46481611
H        5.94178301       6.29818366       4.48143908       0.17375494       0.08764514      -0.18212125      -0.30507276       0.45883889      -0.73310914
N        6.36365930       6.40202017       6.65991489      -1.35650759      -0.88788003      -2.58320308      -0.25422203       0.97023127       1.40414597
8
Lattice="12.0 0.0 0.0 0.0 12.0 0.0 0.0 0.0 12.0" Properties=species:S:1:pos:R:3:momenta:R:3:forces:R:3 energy=-440.5173538027886 free_energy=-440.5173538027886 stress="0.00037672896168439683 5.9568628858216825e-05 0.0004322106999438926 5.9568628858216825e-05 0.0005255245753798155 0.0010522198257871345 0.0004322106999438926 0.0010522198257871345 0.00010794639679522184" pbc="T T T"
B        5.62047534       5.56837664       5.32420136      -1.72251032      -1.08539252      -1.71561882       0.67073868      -0.44808310       1.90785240
H        5.93101057       7.46796706       6.66981358       0.13179146      -0.10050993      -0.12042569       0.48696177      -0.36567192       0.03564609
H        7.46222345       6.62973308       6.29453007      -0.10428805       0.11564885       0.04121357      -0.82778687       0.15635460       0.54976860
H        6.36906612       6.01909466       7.55279956       0.11583071       0.20100570      -0.08742580       0.15250311       0.17026424      -0.18796576
H        4.53777655       5.48406983       5.69463640      -0.03253633      -0.25558906       0.10197424      -0.67089670       0.03091811       0.36676075
H        6.17527176       4.53203294       5.28203904      -0.18984044       0.15363118      -0.03807473       0.18170772       0.31003278       0.07849173
H        5.74267821       6.25305487       4.44720044       0.09543511      -0.19400354      -0.05789879       0.31446872       0.93176294      -1.43460342
N        6.45705564       6.54882635       6.64625231       0.68462854       1.35076082       0.87739891      -0.30769643      -0.78557766      -1.31595038
8
Lattice="12.0 0.0 0.0 0.0 12.0 0.0 0.0 0.0 12.0" Properties=species:S:1:pos:R:3:momenta:R:3:forces:R:3 energy=-440.23766685468445 free_energy=-440.23766685468445 stress="0.0010259823134676153 -1.332877882333627e-05 0.0011063632269897358 -1.332877882333627e-05 0.00118857281567566 0.0009494320015405429 0.0011063632269897358 0.0009494320015405429 0.0009371937711448861" pbc="T T T"
B        5.57229474       5.49461902       5.36292489       0.12544430       0.59954811       0.58641622       0.84175162       0.00482055       0.82524770
H        6.06911437       7.54144647       6.76714618       0.05931620      -0.10030108      -0.13329085      -0.39519056       0.70426551      -0.23819225
H        7.53116145       6.72013761       6.39576251      -0.27962404      -0.07361462      -0.07701064       0.25208397       0.02552591      -0.28988593
H        6.49174016       6.15422794       7.61778037      -0.06805599      -0.11063373      -0.28645926      -0.08900427      -0.45155571       0.27101138
H        4.46883855       5.48152222       5.80123217       0.09614880      -0.02669560       0.09312240       0.52710990      -0.26558014       0.32739705
H        6.25137067       4.45855353       5.40139795      -0.13683193      -0.00492081      -0.00037041      -0.99541258       1.52773791      -0.07756302
H        5.57053835       6.16292077       4.38221963      -0.02320176      -0.14510185       0.21165715       0.61645284      -0.20316315       0.28295086
N        6.53540632       6.62249246       6.68876776      -0.72121733       0.03392585      -1.32108188      -0.75779092      -1.34205087      -1.10096578
8
Lattice="12.0 0.0 0.0 0.0 12.0 0.0 0.0 0.0 12.0" Properties=species:S:1:pos:R:3:momenta:R:3:forces:R:3 energy=-440.20798615406915 free_energy=-440.20798615406915 stress="-0.0017379564490446636 -0.0016568322766303998 -0.0008228609449780263 -0.0016568322766303998 -0.002140280000432497 -0.0016302693164028075 -0.0008228609449780263 -0.0016302693164028075 -0.0018805083463369508" pbc="T T T"
B        5.66935381       5.58937445       5.59687310      -0.53164198       0.00339248      -0.13845810      -1.88672921      -2.72858911      -3.28468201
H        6.01654865       7.41178698       6.58437779       0.00120080       0.01848735      -0.17465964      -0.45565575       1.15422729      -0.09050979
H        7.41140041       6.61030330       6.19864646      -0.08185871       0.05971471      -0.04937507       1.64349870       0.23677845      -0.69920921
H        6.49467965       6.11963858       7.46604754       0.16175546       0.14787289      -0.03848901       0.02248247      -0.54249238       0.84265924
H        4.58859959       5.51733346       6.04086048      -0.17708054       0.06411162      -0.05286381       0.07862545      -0.36166346       0.08227339
H        6.32572851       4.58821302       5.61030015       0.16598046      -0.27461829       0.05382151      -0.82596021       0.28715122      -0.33442465
H        5.61074159       6.13137563       4.53395246      -0.21256148      -0.00391519      -0.00143199       0.23425076      -0.48689297       0.49495146
N        6.44332352       6.47661567       6.49305715      -0.18545068       0.14110936      -0.43915393       1.18948778       2.44148097       2.98894157
8
Lattice="12.0 0.0 0.0 0.0 12.0 0.0 0.0 0.0 12.0" Properties=species:S:1:pos:R:3:momenta:R:3:forces:R:3 energy=-440.31544230081676 free_energy=-440.31544230081676 stress="-0.0007823136254126272 0.001507006080779647 0.0008586834759048608 0.001507006080779647 -0.00024527581146583527 0.0011621913974091684 0.0008586834759048608 0.0011621913974091684 -6.259322248101987e-05" pbc="T T T"
B        5.50376441       5.40189167       5.48940372      -0.87419621      -0.61757901      -0.37733487       0.52327651       2.64260346       0.25510557
H        6.06645432       7.55563178       6.58181518       0.02391498       0.14911346      -0.01802314      -0.37521783       0.59859535      -0.21818435
H        7.48564830       6.71448102       6.11393508       0.18010400       0.11364307      -0.01555542       0.87337078       0.09305150      -0.48687373
H        6.64270378       6.28632300       7.53235065       0.08665500      -0.00922016       0.01525677       0.07388479      -0.55335487       0.87194857
H        4.51435170       5.39339633       6.07174083      -0.10218874       0.10021469      -0.08329237      -0.63270917       0.08944131       0.34440825
H        6.08235159       4.44436822       5.48166369       0.16773171      -0.12725840       0.06983953       1.15423623      -1.41123575       0.29482079
H        5.53218718       5.97805891       4.46764935      -0.20192832       0.00964976      -0.05118984      -0.17232398       0.03225632       0.08367334
N        6.57058402       6.65392748       6.57557406      -0.03111763       0.51785883      -0.27408606      -1.44451732      -1.49135733      -1.14489844
8
Lattice="12.0 0.0 0.0 0.0 12.0 0.0 0.0 0.0 12.0" Properties=species:S:1:pos:R:3:momenta:R:3:forces:R:3 energy=-440.6651275927661 free_energy=-440.6651275927661 stress="0.00012995764542213207 0.0006206629953479628 -0.00024524520674273844 0.0006206629953479628 -0.00045807864603615784 0.00021653506595633592 -0.00024524520674273844 0.00021653506595633592 0.0004567535428262636" pbc="T T T"
B        5.53710370       5.46638038       5.63940086       0.82064445       0.86836881       1.15186403      -0.17169218       0.48437623      -0.08795859
H        6.01266070       7.50833898       6.58079939      -0.11373121       0.07490942      -0.12535040       0.09841350       0.22707788      -0.14429911
H        7.45420522       6.66382126       6.04966373       0.01959066      -0.06991555      -0.20877316      -0.31605453       0.13477360       0.22248940
H        6.59503610       6.18255141       7.47755332      -0.02487043      -0.16140995       0.02777218       0.21957429      -0.06419759       0.26559562
H        4.54579478       5.37510642       6.26659342       0.20504019       0.13621765      -0.03875997       0.02171285       0.36239249      -0.29735160
H        6.12568526       4.49166102       5.69843762      -0.15808726       0.23901201      -0.05127489       0.66038779      -0.80001567       0.11761919
H        5.48679188       5.85182502       4.52244668       0.03712024       0.00691447       0.14606730      -0.22793898       0.20166635       0.49421446
N        6.50893024       6.58706453       6.51847424      -1.45641657      -0.97226373      -1.55739471      -0.28440273      -0.54607330      -0.57030935
8
Lattice="12.0 0.0 0.0 0.0 12.0 0.0 0.0 0.0 12.0" Properties=species:S:1:pos:R:3:momenta:R:3:forces:R:3 energy=-440.6517777844025 free_energy=-440.6517777844025 stress="0.001266971944225751 -0.00037294957991913086 -0.0004427936378804724 -0.00037294957991913086 0.0004973980586392547 -0.0003735082770882675 -0.0004427936378804724 -0.0003735082770882675 0.0013715218724516334" pbc="T T T"
B        5.55978418       5.49016128       5.65363366      -1.26419853      -1.10362245      -0.59290061      -0.16178636      -0.76264059       0.33560919
H        6.00078690       7.53348609       6.41393050      -0.07989514       0.13458637      -0.10483591       0.51003443      -0.27698569       0.02404899
H        7.45840366       6.71815975       5.88164807       0.06577926       0.07379681      -0.08342611      -0.60685947       0.04475532       0.47317750
H        6.76683498       6.38044218       7.45584359       0.08805013       0.01991523       0.15073481      -0.14277413       0.01991978      -0.75727213
H        4.54159634       5.45592034       6.31202530      -0.10001394      -0.20034187      -0.00017727       0.89378454       0.18456790      -0.75324349
H        6.18336556       4.46651391       5.72932627      -0.24931813       0.03585200      -0.13948981      -0.45015872       0.67502567      -0.17057326
H        5.47594698       5.92902205       4.54415641      -0.07571246      -0.21134158      -0.22609356      -0.13304036      -0.28911081       0.67988970
N        6.54958684       6.62241688       6.43622844       0.98949776       1.36483283       0.38424295       0.09080008       0.40446843       0.16836351
8
Lattice="12.0 0.0 0.0 0.0 12.0 0.0 0.0 0.0 12.0" Properties=species:S:1:pos:R:3:momenta:R:3:forces:R:3 energy=-440.3922175728579 free_energy=-440.3922175728579 stress="0.0011674022593539631 0.00014172155214911802 0.0003564801262494768 0.00014172155214911802 0.0019074741004607518 0.0004926747239435588 0.0003564801262494768 0.0004926747239435588 0.0005159871234728167" pbc="T T T"
B        5.43207959       5.32699399       5.61145917       0.17868119       0.45356152       0.31890540       1.39168725       0.91992537       1.79637089
H        6.10000169       7.63642283       6.46078458      -0.00349973       0.02169512      -0.07288820       0.34755276      -1.02623220      -0.29986866
H        7.48869718       6.71105909       5.88284813      -0.04684709      -0.01622777      -0.04657894      -0.60500315       0.01745693       0.18710168
H        6.75556070       6.33639332       7.42202794      -0.06187945      -0.08242620      -0.09487654      -0.21991310       0.29342387      -1.12926626
H        4.51130282       5.43107766       6.33128265      -0.09821832      -0.00536884       0.26709094      -0.03344014      -0.24070913      -0.03655295
H        6.12919794       4.36357717       5.75320338       0.04011335       0.01216804       0.05109195      -0.51009714       0.54919506      -0.28765769
H        5.28620397       5.80392970       4.57797206       0.04003115       0.05963759      -0.19884038      -0.02425111       0.00514978      -0.87677360
N        6.56566889       6.66766145       6.41228067      -0.65746914      -0.33239983      -0.81949725      -0.34653538      -0.51820969       0.64664660
8
Lattice="12.0 0.0 0.0 0.0 12.0 0.0 0.0 0.0 12.0" Properties=species:S:1:pos:R:3:momenta:R:3:forces:R:3 energy=-440.3864244901609 free_energy=-440.3864244901609 stress="-0.00122592821995828 -0.00171693786025519 -0.00046626120559214974 -0.00171693786025519 -0.0015590599154620844 -0.0006259700281784494 -0.00046626120559214974 -0.0006259700281784494 -0.0013288762077343429" pbc="T T T"
B        5.55212799       5.47539143       5.72912859      -0.37000924      -0.41973813      -0.22316390      -0.55448044      -2.48394238      -0.31875761
H        5.98778699       7.50251535       6.27610946       0.05935612      -0.07791764      -0.11382348       0.49448923      -0.52764205      -0.06967596
H        7.37553438       6.60486516       5.73012383      -0.08973897       0.03693145      -0.03359256      -0.42262811       0.14888376       0.30152875
H        6.74562374       6.36911441       7.31100969       0.05123073       0.14267208      -0.17339855      -0.09613965      -0.00025676      -0.47405522
H        4.62446562       5.48882362       6.37184257       0.03637210       0.17115939       0.12159981      -1.05960473      -0.25885351       0.88130952
H        6.19049128       4.49748465       5.80844465       0.04792853      -0.03000476       0.06773255      -0.32169013      -0.20029778      -0.21828949
H        5.29258186       5.80795282       4.68899031       0.07149461       0.21553718       0.16373090      -0.17960304       0.20064882      -1.61580189
N        6.47009050       6.54431335       6.29344865      -0.41912770       0.07261871      -0.40800813       2.13965688       3.12145989       1.51374189
8
Lattice="12.0 0.0 0.0 0.0 12.0 0.0 0.0 0.0 12.0" Properties=species:S:1:pos:R:3:momenta:R:3:forces:R:3 energy=-440.45559111588403 free_energy=-440.45559111588403 stress="0.0012159932028185767 0.0009732453487788202 0.0004748191940623002 0.0009732453487788202 0.0012168437155522685 0.0006390040019808304 0.0004748191940623002 0.0006390040019808304 0.00038560800186286355" pbc="T T T"
B        5.45215047       5.37310742       5.76180062      -1.02495038      -0.61262518      -0.48852966       0.60954296       0.11106606      -0.53246113
H        6.07272898       7.62843111       6.29979523       0.16150757      -0.05337958      -0.02018998       0.04389419       0.14937101      -0.14779670
H        7.47664034       6.73947693       5.74407191      -0.06061892       0.08963140       0.09644051      -0.32740170       0.04754273       0.16139655
H        6.87431831       6.55172177       7.36085164       0.01962273       0.02465602      -0.16035948       0.09303675      -0.19994808       0.25268997
H        4.52335966       5.37957790       6.47334227       0.09436124       0.05591530      -0.11790863       0.21535450       0.34153292       0.33672874
H        6.08709164       4.37156889       5.80598046       0.14197843       0.04302852       0.13207473       0.04616544       0.56087315       0.22233675
H        5.15620561       5.65107051       4.63914836      -0.10353789      -0.05345741       0.27732703       0.43041527       0.30222602       0.61435621
N        6.62215381       6.73931151       6.36552651       0.14788125       0.61953497      -0.32879048      -1.11100741      -1.31266380      -0.90725038
8
Lattice="12.0 0.0 0.0 0.0 12.0 0.0 0.0 0.0 12.0" Properties=species:S:1:pos:R:3:momenta:R:3:forces:R:3 energy=-440.5826500052775 free_energy=-440.5826500052775 stress="-0.00030062305690330046 0.00029556660061042124 -0.00016479983210698862 0.00029556660061042124 8.422445536275264e-06 0.00015880928822625912 -0.00016479983210698862 0.00015880928822625912 0.00083782095720985" pbc="T T T"
B        5.51803705       5.42410659       5.87379094       0.95851750       1.50530629       0.68394517      -1.34552572      -0.39558004      -1.39515106
H        6.10150992       7.59591690       6.31391518      -0.07042175      -0.13524097      -0.13587428      -0.43312776       0.81974692      -0.24908377
H        7.38403167       6.63183788       5.70268664      -0.21510974      -0.04680006      -0.03012875       0.69762563       0.18161077      -0.45910959
H        6.82386847       6.44147551       7.30067956      -0.01791421      -0.02114979      -0.10987057       0.41627460      -0.03563446       0.65240432
H        4.61596833       5.44701067       6.66946363      -0.04598701       0.00114444      -0.10208012       0.66749921       0.17773038      -0.65498440
H        6.10839921       4.40408310       5.90875751      -0.02414240      -0.14171905      -0.04104089       0.25420782       0.40966099       0.33718952
H        5.20452658       5.62926805       4.69932044      -0.08176491      -0.02879756       0.06384097       0.26021626       0.11450962       1.62170019
N        6.56125134       6.67223327       6.32546049      -1.15056833      -1.01514603      -0.96183871      -0.51717005      -1.27204419       0.14703479
8
Lattice="12.0 0.0 0.0 0.0 12.0 0.0 0.0 0.0 12.0" Properties=species:S:1:pos:R:3:momenta:R:3:forces:R:3 energy=-440.60712407365713 free_energy=-440.60712407365713 stress="-0.0011918443016496574 0.0008774747433703475 0.0002253044761810808 0.0008774747433703475 -0.0012485428970839812 0.000264163920378481 0.0002253044761810808 0.000264163920378481 -0.0005542008913516368" pbc="T T T"
B        5.47431003       5.39134162       5.88616016      -0.90471776      -0.85559621       0.07109127       0.09767434       1.70953832      -0.17361697
H        6.00486636       7.52625850       6.17616172      -0.01108520       0.12262210      -0.06193079      -0.40812343       0.88712998      -0.19361635
H        7.32364508       6.66019542       5.57408495       0.01029477       0.02162266      -0.09416956       1.08397576       0.01110073      -0.93434389
H        6.94476634       6.62063570       7.22512794       0.01513914      -0.03039294       0.00471159       0.26107741      -0.29656601       0.60538009
H        4.67635492       5.51640970       6.71901838      -0.20208434      -0.14151703       0.05323708      -0.47711042      -0.05871225      -0.06269118
H        6.10662907       4.47374150       5.97837036      -0.21264178      -0.32299067      -0.14720910       0.89511668      -1.54929209       0.17182340
H        5.20474263       5.65565071       4.77487206      -0.20348369      -0.25065684      -0.28851637      -0.38760916      -0.09526379       0.18279683
N        6.56698175       6.66630298       6.26003859       0.83062318       1.58005823      -0.20014893      -1.06500118      -0.60793488       0.40426807
8
Lattice="12.0 0.0 0.0 0.0 12.0 0.0 0.0 0.0 12.0" Properties=species:S:1:pos:R:3:momenta:R:3:forces:R:3 energy=-440.4290021587641 free_energy=-440.4290021587641 stress="0.00010382964537335679 0.0011682536408031223 4.50316608232828e-06 0.0011682536408031223 0.00038175463516077726 0.00037698667000489645 4.50316608232828e-06 0.00037698667000489645 -0.0009480067812485373" pbc="T T T"
B        5.37122369       5.22761630       5.89764908      -0.00136828       0.37443456       0.31381656       1.43273065       2.10004333       1.24312662
H        6.12733589       7.60746239       6.19582127      -0.12121197       0.05616880      -0.08276045      -0.40694328       0.12235782      -0.29369111
H        7.36916828       6.63255249       5.53218711       0.05179232      -0.03901018      -0.19985773       0.15315451      -0.13660527      -0.41265860
H        6.95623494       6.52519985       7.16700967      -0.02124329      -0.06619863       0.02146187       0.19680290      -0.33886254       0.58853452
H        4.63083172       5.42961962       6.77617569       0.22203009       0.04002980       0.02588946      -0.32514085      -0.11150999      -0.03587111
H        6.13746776       4.39253761       6.09033812      -0.14477888       0.44210022      -0.07571465       0.18480203      -0.82771884      -0.19033772
H        5.04499218       5.49002884       4.83299033       0.16061735      -0.04205206      -0.02834016      -0.40382039      -0.14697504      -0.85467886
N        6.57822628       6.66444872       6.21052049      -0.86121839      -0.63552496      -0.67402590      -0.83158558      -0.66072947      -0.04442374
8
Lattice="12.0 0.0 0.0 0.0 12.0 0.0 0.0 0.0 12.0" Properties=species:S:1:pos:R:3:momenta:R:3:forces:R:3 energy=-440.3708893529616 free_energy=-440.3708893529616 stress="-0.00034802333734343675 -0.0021946461930429308 -0.0005784465648520928 -0.0021946461930429308 -0.0004537196124122108 -0.00032416121169140887 -0.0005784465648520928 -0.00032416121169140887 0.0004078062813186963" pbc="T T T"
B        5.57311942       5.48966235       5.97907204      -0.83099421      -0.88287143      -0.03854865      -2.73275208      -3.49380117       0.59488017
H        6.02016131       7.58166453       6.06776886      -0.08172515       0.09808824      -0.11174483       0.13334964      -0.20287143      -0.18613700
H        7.28786884       6.62748198       5.37768006       0.06639858       0.08824331      -0.15361604      -0.44015184       0.20183176       0.49683384
H        7.03844391       6.69004393       7.07197924       0.13660833       0.14741265       0.03604362       0.00078596      -0.20473590      -0.02473208
H        4.71213116       5.63754665       6.81144311       0.10104622       0.20136335       0.18688821       0.81780939      -0.17862040      -0.47079750
H        6.17188690       4.41833547       6.13479602       0.03085900       0.19681269       0.04487330      -0.70011414       1.62844129      -0.39561020
H        5.07447128       5.66220775       4.92802076       0.14666016       0.24077939      -0.05813635       0.26621097      -0.37404200      -0.07704621
N        6.53416570       6.65594706       6.14114082      -0.33192837       0.04878294      -0.65192795       2.65486209       2.62379785       0.06260899
8
Lattice="12.0 0.0 0.0 0.0 12.0 0.0 0.0 0.0 12.0" Properties=species:S:1:pos:R:3:momenta:R:3:forces:R:3 energy=-440.2367104797657 free_energy=-440.2367104797657 stress="0.0020133530911514465 0.0007459731596695123 6.192835761400852e-05 0.0007459731596695123 0.0024186221540796983 0.00011353175849026184 6.192835761400852e-05 0.00011353175849026184 -3.6418428026850565e-05" pbc="T T T"
B        5.43341264       5.33039034       5.97315765      -0.46337499      -0.39549569      -0.19854194       1.14433883      -1.10762259       0.59517226
H        6.07285176       7.68023296       5.96899399       0.10092118       0.19263296      -0.07496290       0.58966841      -0.62713498      -0.16314002
H        7.36133622       6.64372522       5.25251582       0.01330636       0.02405320      -0.02230614      -0.66925321       0.33040629       0.71597558
H        7.12166832       6.73321314       7.01502691       0.05652168      -0.03690499       0.01239645      -0.38034793       0.03166386      -1.05382914
H        4.63866378       5.44157886       6.81185940      -0.16391233       0.03766533       0.15348208       0.30864082       0.65738893       0.73258431
H        6.10008700       4.31976704       6.11606988       0.12974298      -0.18381059       0.12174302      -0.26290417       1.35282145      -0.11327853
H        4.84697176       5.31434742       4.98497309      -0.16291647       0.04793804       0.02664889       0.33728654       0.65121367      -1.06466835
N        6.65632792       6.78880882       6.04675512      -0.32098916       0.46118393      -0.81119825      -1.06742929      -1.28873663       0.35118388
8
Lattice="12.0 0.0 0.0 0.0 12.0 0.0 0.0 0.0 12.0" Properties=species:S:1:pos:R:3:momenta:R:3:forces:R:3 energy=-440.65127540300284 free_energy=-440.65127540300284 stress="-0.00018299740613155944 -0.00039449379931014525 0.0002526072136817767 -0.00039449379931014525 8.654420375694144e-05 0.00013209677156302612 0.0002526072136817767 0.00013209677156302612 0.00033954003799840357" pbc="T T T"
B        5.48722551       5.37847664       6.06821609       1.03663588       2.06578543      -0.11954531       0.01073102      -0.56424118      -1.02377927
H        5.99619392       7.57116059       5.91972985      -0.22970107      -0.23643127      -0.11911620       0.70078697      -0.73328397      -0.14192858
H        7.20673564       6.47093879       5.20694402      -0.17576748      -0.06817072      -0.03989531      -0.15198429       0.44239977       0.38509832
H        7.06337589       6.65398614       6.96386664      -0.04808393       0.00765655      -0.16150314      -0.24919244       0.15727328      -1.11555802
H        4.79326436       5.55688440       6.95567196      -0.16975379      -0.19016901      -0.22121937      -0.47197911       0.21750665       0.74313882
H        6.14637041       4.42883941       6.15191395      -0.07674708      -0.20591602       0.01380699       0.30698583      -0.19537147       0.28274932
H        4.94465001       5.37311512       5.03613336      -0.19242075      -0.15406362       0.36753377      -0.14840241       0.24384481      -0.08578167
N        6.54848856       6.65518215       6.01730172      -1.00745308      -1.06187620      -0.56422556       0.00305443       0.43187213       0.95606107
8
Lattice="12.0 0.0 0.0 0.0 12.0 0.0 0.0 0.0 12.0" Properties=species:S:1:pos:R:3:momenta:R:3:forces:R:3 energy=-440.51019973604 free_energy=-440.51019973604 stress="-0.0004642878252071535 0.00038170556447531716 0.00013330591879914236 0.00038170556447531716 0.0002503465286449368 6.863416621535475e-05 0.00013330591879914236 6.863416621535475e-05 0.0006864237410219575" pbc="T T T"
B        5.37720714       5.31440643       6.05595468      -0.91000066      -0.55022253       0.36068500       0.58282442       2.48364573      -1.33767656
H        5.92794966       7.56889224       5.73118252       0.06093605      -0.07142010      -0.09323846       0.19518045      -0.51453859      -0.14174482
H        7.12400031       6.51950946       5.02814852      -0.07069881      -0.01990954      -0.01381766      -0.13826587       0.07497430       0.19998414
H        7.07635976       6.82312877       6.73992497      -0.11132164      -0.13833044      -0.17079096      -0.05244852      -0.25895880      -0.27516007
H        4.87632349       5.71582536       7.02136536      -0.15444352      -0.26976241      -0.19957893      -0.78770894      -0.42138092       0.15355280
H        6.08181058       4.43110776       6.15935053      -0.23403900      -0.19400912      -0.05159125       0.58177322      -1.08853127       0.22244714
H        4.87599969       5.43676454       4.97863464      -0.23664581      -0.36222668       0.25044388      -0.39973230      -0.49136131       0.88481545
N        6.49903061       6.68169412       5.86383608       0.74944860       1.77059284      -0.96878606       0.01837753       0.21615086       0.29378191
8
Lattice="12.0 0.0 0.0 0.0 12.0 0.0 0.0 0.0 12.0" Properties=species:S:1:pos:R:3:momenta:R:3:forces:R:3 energy=-440.25585949576896 free_energy=-440.25585949576896 stress="0.0003879203192689541 0.0008534659809235069 -0.00020859987732010782 0.0008534659809235069 0.00026650368069212107 0.0001827440048637951 -0.00020859987732010782 0.0001827440048637951 0.0015500237031447043" pbc="T T T"
B        5.40675861       5.20619420       6.04240886       0.14713934       0.53592411       0.22626500       0.59095057       2.54005857      -0.36708092
H        6.12334534       7.55972111       5.59018281       0.02987032      -0.16608156      -0.09147695      -0.77780254       0.38200650      -0.31274652
H        7.19312941       6.44264058       4.89132720      -0.17418688       0.01778567       0.04139849      -0.05510597      -0.24782984      -0.19947377
H        7.19521461       6.76467050       6.54379588      -0.05526123      -0.01632489      -0.20199046       0.57262334      -0.32922320       0.88598669
H        4.94856975       5.62077387       7.10867280       0.23101408       0.21395164      -0.12065071      -0.00636804      -0.70141825      -1.51650778
H        6.27572804       4.44027889       6.18444550      -0.02971386       0.18699996      -0.11259121      -0.26312495      -0.71672732      -0.09805948
H        4.80478539       5.24541716       4.95988281       0.19690096       0.15872413      -0.10826816       0.41655493      -0.37953749       1.76832442
N        6.58347712       6.63739599       5.72156559      -1.28665679      -0.76006752      -0.55273353      -0.47772733      -0.54732895      -0.16044265
8
Lattice="12.0 0.0 0.0 0.0 12.0 0.0 0.0 0.0 12.0" Properties=species:S:1:pos:R:3:momenta:R:3:forces:R:3 energy=-440.4844092650992 free_energy=-440.4844092650992 stress="-0.0013026006785222166 -0.0006904305300515652 0.00011145722971348787 -0.0006904305300515652 -0.002020639055041885 0.00043132558930916953 0.00011145722971348787 0.00043132558930916953 -0.0004247109379084456" pbc="T T T"
B        5.55637226       5.48724779       6.13005040      -0.99830183      -0.79723382       0.42466051      -2.52529455      -1.76863381       1.48579315
H        5.90836997       7.47141600       5.62036343       0.03102344       0.03296167      -0.12141276      -0.65173197       1.18217669      -0.48130645
H        7.00601754       6.43404991       4.86911547      -0.01094300       0.19363275      -0.02630294       0.55523367      -0.09692967      -0.96042756
H        7.20235066       6.90550269       6.46797452       0.10320413       0.13989723      -0.17497005       0.74256538      -0.04739046       0.73934119
H        4.97288808       5.80645803       7.13088453       0.03630061       0.31908368       0.41465521       0.48110379       0.01480148      -0.72989317
H        6.18078662       4.52858400       6.34162040       0.29402301       0.08734229       0.02910127       0.23216439      -0.12446163      -0.28008714
H        4.79764934       5.40713220       5.22656132      -0.22439990       0.06975056      -0.52752614       0.30425778      -0.16507010       0.18384379
N        6.50770020       6.64859718       5.74554933      -0.19929178       0.13047092      -0.96513480       0.86170151       1.00550750       0.04273619
8
Lattice="12.0 0.0 0.0 0.0 12.0 0.0 0.0 0.0 12.0" Properties=species:S:1:pos:R:3:momenta:R:3:forces:R:3 energy=-440.08776470004693 free_energy=-440.08776470004693 stress="-0.0007895318559099431 0.0015561046030159924 -0.0010919298281366896 0.0015561046030159924 0.0007815335039673899 -0.001375238462798564 -0.0010919298281366896 -0.001375238462798564 -0.002462234674477928" pbc="T T T"
B        5.49017479       5.32718468       6.26933589      -0.26608022      -0.24405157      -0.02637409       2.03981048       0.50956881       0.57798640
H        6.06762851       7.60306238       5.53483686      -0.04579590       0.16631938      -0.13808966      -0.45385050       0.48428842      -0.35347499
H        7.04600551       6.34577126       4.80164426      -0.01371921      -0.06274535      -0.14373048       0.47889722      -0.22718688      -1.21192597
H        7.28883334       6.80883455       6.43021112       0.05251124      -0.04396713      -0.02369720       0.41735666       0.08655056       0.27323721
H        4.97143705       5.67284900       7.19835574       0.00156687      -0.09866998       0.00266952      -0.15771815       1.18118092       1.56856805
H        6.14625352       4.39693762       6.46190358      -0.19353238       0.24295758       0.07997735       0.87596803       0.00288817      -0.10485151
H        4.71116666       5.11741975       5.54435838      -0.00761202       0.02807399       0.16401901      -1.61902621      -0.07453228      -2.73145796
N        6.62024115       6.73884076       5.64122658      -0.50774827       0.19017260      -0.87346230      -1.58143754      -1.96275772       1.98191878
8
Lattice="12.0 0.0 0.0 0.0 12.0 0.0 0.0 0.0 12.0" Properties=species:S:1:pos:R:3:momenta:R:3:forces:R:3 energy=-440.5041262723365 free_energy=-440.5041262723365 stress="0.0009412504818925636 -0.0014982297289227063 0.00032791637319877997 -0.0014982297289227063 0.0005755662692910491 0.0008898933639391347 0.00032791637319877997 0.0008898933639391347 0.0006239795852331923" pbc="T T T"
B        5.53878160       5.48774916       6.28322171       0.92444125       1.50618098      -0.89114997       0.03104879      -2.39419047       0.19250257
H        5.87130821       7.48838544       5.50978034      -0.35409668      -0.08532553      -0.00890657       0.34017542      -0.16655945      -0.32454502
H        6.87359081       6.28970118       4.71943508      -0.12466252      -0.23695064      -0.20936899      -0.10263396       0.25695448       0.05896292
H        7.27999241       6.90924744       6.26739470      -0.00119583      -0.04480317       0.03741360       0.09216488      -0.11151441       0.06164384
H        5.07953825       5.98338849       7.28056492      -0.11478371      -0.17800098      -0.18263439       0.40988026      -0.58852264      -0.67972311
H        6.33607103       4.51161456       6.41196869      -0.27535690      -0.02832351       0.09597033      -1.59225737       1.68539733       0.11429884
H        4.72000759       5.26536821       5.41586053       0.03514042       0.00686061       0.47916058       0.61322889       0.20604460       0.90344796
N        6.48286610       6.63284047       5.63792826      -1.07785661      -0.76010221      -0.28695673       0.20839309       1.11239057      -0.32658800
8
Lattice="12.0 0.0 0.0 0.0 12.0 0.0 0.0 0.0 12.0" Properties=species:S:1:pos:R:3:momenta:R:3:forces:R:3 energy=-440.35108465851056 free_energy=-440.35108465851056 stress="0.000911835522105648 -0.00012246904671980188 1.1925811745051136e-05 -0.00012246904671980188 0.0010151216430479002 7.232330023345178e-05 1.1925811745051136e-05 7.232330023345178e-05 0.0010261149233636827" pbc="T T T"
B        5.48019167       5.33235046       6.44755773      -1.08968841      -0.32320378       0.56177258       2.03239678       0.95380235      -2.26979236
H        5.93129765       7.48042575       5.39094392      -0.06225810       0.07822608      -0.13121130       0.09555390      -0.84336292       0.00344972
H        6.88619705       6.22547319       4.63286197       0.00984353      -0.06623018      -0.17996589      -0.63146863       0.21689401       1.01135417
H        7.30647117       6.88387216       6.17233778       0.07602064      -0.01698175       0.03659865      -0.34444400      -0.42962522      -0.11625680
H        5.28267533       6.01652700       7.36713803      -0.18240587      -0.00428722       0.20390635      -0.67696023      -0.41828639       0.50385751
H        6.36153454       4.51957425       6.52315365       0.24387178      -0.24481526      -0.05140626      -1.00374722       0.10074120       0.36389720
H        4.69352883       5.17887282       5.55713627      -0.26284821      -0.24671354       0.15512346      -0.06706066      -0.26854862       1.09473144
N        6.48118735       6.57755710       5.57186026       0.28697137       1.00211030      -1.55358695       0.59573005       0.68838559      -0.59124089
8
Lattice="12.0 0.0 0.0 0.0 12.0 0.0 0.0 0.0 12.0" Properties=species:S:1:pos:R:3:momenta:R:3:forces:R:3 energy=-440.4489969499339 free_energy=-440.4489969499339 stress="0.00015724741040168454 0.000999136745153229 0.0001256195088462578 0.000999136745153229 0.0005518475484024321 -0.00024958991899933294 0.0001256195088462578 -0.00024958991899933294 0.0010077453272108185" pbc="T T T"
B        5.52273781       5.33921998       6.47240712      -0.07344067       0.66426578      -0.04505952      -0.24677600       2.38314278      -1.98160561
H        5.92985953       7.46157073       5.25614762      -0.01272722      -0.07318934      -0.08726631       0.15914660      -0.85351229       0.04984857
H        6.80035979       6.07139055       4.58102086      -0.10029048       0.09178410       0.01552437      -0.31232183       0.58965450       0.75691677
H        7.34299195       6.87095523       6.05735723      -0.01659269       0.08273666      -0.19283529      -0.83055921      -0.47654009      -0.64312250
H        5.33925221       5.96761377       7.41897914       0.26431403       0.32773209      -0.29015362      -0.55021534       0.22004823       0.52185021
H        6.28917049       4.53842927       6.60434824       0.24855280       0.02591259      -0.18124274       1.18371593      -1.52637162       0.12909482
H        4.65700805       5.14176840       5.69055744       0.23681132       0.30910679      -0.30386922       0.00465384      -0.14718984       0.63462886
N        6.48529464       6.57357226       5.47524425      -1.50834203      -1.25365506       0.14449523       0.59235602      -0.18923168       0.53238888
8
Lattice="12.0 0.0 0.0 0.0 12.0 0.0 0.0 0.0 12.0" Properties=species:S:1:pos:R:3:momenta:R:3:forces:R:3 energy=-440.4457953744037 free_energy=-440.4457953744037 stress="-0.00012069657250529413 1.018827586837466e-05 0.00031270332337820426 1.018827586837466e-05 -0.001257135297852038 0.0010558968745150192 0.00031270332337820426 0.0010558968745150192 -0.0004805161465172816" pbc="T T T"
B        5.67465070       5.56070524       6.40774103      -1.06253148      -1.03816442       1.26264187      -2.41100325      -1.02531233       2.12546286
H        5.77028860       7.33196077       5.31370225       0.15202296       0.03679380      -0.18995225       0.57145389      -0.15794662      -0.51759953
H        6.69739263       6.02093008       4.57110832      -0.02898721       0.12473398       0.01522326       0.10680173       0.40108991      -0.10299548
H        7.32842988       6.91932641       5.94827358      -0.10825448      -0.03151146      -0.18841018      -0.42621432      -0.32311260      -0.57357818
H        5.39260269       6.07771794       7.42889168       0.27992636       0.22977145      -0.07940798       0.34098176       0.45515730      -0.43322641
H        6.31381997       4.66803923       6.64224384       0.11058991       0.24245812      -0.09012817       1.14805580      -1.15181983      -0.00891241
H        4.67157012       5.21843254       5.90738699      -0.07672978       0.02951645      -0.25103844       0.23113294       0.23815272      -0.46447052
N        6.45807753       6.53557332       5.45830948      -0.19706182       0.57552103      -1.38932577       0.43879144       1.56379145      -0.02468033
8
Lattice="12.0 0.0 0.0 0.0 12.0 0.0 0.0 0.0 12.0" Properties=species:S:1:pos:R:3:momenta:R:3:forces:R:3 energy=-440.2106626764432 free_energy=-440.2106626764432 stress="0.0006074175557097104 0.00039967563691554434 -0.0012670073082397114 0.00039967563691554434 0.0015414276828690692 -0.0010244444471316715 -0.0012670073082397114 -0.0010244444471316715 0.001405756720082943" pbc="T T T"
B        5.65010047       5.47453195       6.53166253      -0.00447203       0.35008939      -0.17692796      -0.40110214      -0.09257623       1.11211810
H        5.94461011       7.45964186       5.05604988      -0.08704249      -0.19064605       0.05329489      -0.22367837      -0.11204327      -0.17096379
H        6.72334481       5.99273024       4.45425969      -0.13690465      -0.01855300       0.02951609       0.02102646      -0.02981441      -0.44732494
H        7.39044933       6.88308161       5.77456046      -0.16066377      -0.06099292      -0.14379005       0.46527881       0.08360737       0.07710830
H        5.38860757       6.09955363       7.54574031      -0.02334653      -0.17389933       0.01485349       0.92569237      -0.01881255      -1.26004338
H        6.38248099       4.54035814       6.73238197      -0.22875202       0.26057111       0.02785772      -0.05473586       1.01602296      -0.47159873
H        4.60955067       5.09660853       6.11799588      -0.04849409      -0.07242700       0.14319118       0.46558848       0.40636864      -0.82693907
N        6.52604164       6.61522626       5.26284584      -0.18481181       0.06470670      -0.80310752      -1.19806975      -1.25275251       1.98764352
8
Lattice="12.0 0.0 0.0 0.0 12.0 0.0 0.0 0.0 12.0" Properties=species:S:1:pos:R:3:momenta:R:3:forces:R:3 energy=-440.5219064083636 free_energy=-440.5219064083636 stress="-0.00099260325292784 -0.0010141588134111605 0.000221354320040834 -0.0010141588134111605 2.2319846652202622e-05 0.0006487775299837881 0.000221354320040834 0.0006487775299837881 -0.0011259864063301375" pbc="T T T"
B        5.70865212       5.62396075       6.55998424       1.06378821       1.09606212      -1.45214175      -0.05480109      -1.06677235       1.53649889
H        5.78703400       7.32416081       5.23074627      -0.08117426      -0.10294473       0.03453632      -0.83358630       0.59591492      -0.30821619
H        6.54150793       5.97927333       4.55527815      -0.13159798      -0.09455447       0.05694157      -0.03760960      -0.33797409      -0.45112016
H        7.29857969       6.93260424       5.68990128      -0.07514084      -0.08515115       0.03650282       1.15784552       0.14382784       0.60552809
H        5.52905281       6.40691807       7.44472185      -0.20407466       0.09347468       0.21339209       0.24894996      -0.75438906      -0.19100046
H        6.45396243       4.67583919       6.76748048      -0.14659596      -0.13747589       0.16910250      -0.88262549       1.19543048      -0.05034345
H        4.70142031       5.32914353       6.05567817      -0.25026005      -0.09065370       0.19896975      -0.23673543      -0.34319662       0.09741776
N        6.38999976       6.51085749       5.44026540      -0.96870400      -0.53457202      -0.03347621       0.63856244       0.56715889      -1.23876448
8
Lattice="12.0 0.0 0.0 0.0 12.0 0.0 0.0 0.0 12.0" Properties=species:S:1:pos:R:3:momenta:R:3:forces:R:3 energy=-440.3806714361454 free_energy=-440.3806714361454 stress="-0.0013661370556387533 0.0003510901858669203 -0.0010488858596798044 0.0003510901858669203 -0.001209845766534263 -0.0011383034862650122 -0.0010488858596798044 -0.0011383034862650122 -0.0006124480372436467" pbc="T T T"
B        5.63953335       5.48234758       6.72685453      -0.55330840      -0.37554039       0.69761790       2.66029210       0.64048447      -2.39312323
H        5.82520225       7.27153941       5.09428553       0.02047198       0.10413028      -0.18779176      -0.82011735       0.44387395      -0.12454316
H        6.50804807       5.83712797       4.50564651      -0.00998929       0.01012048      -0.09371757      -0.08215760      -0.55065919      -0.41183321
H        7.30806617       6.79123070       5.63855128       0.09609402       0.04722307      -0.08911990       0.60774482      -0.09190211       0.42650136
H        5.63998710       6.28976427       7.49435349      -0.13568404       0.06126433       0.05487711      -0.33045297       1.15221867       1.61537935
H        6.51156775       4.72846059       6.77792745       0.02506532      -0.11236879      -0.03109719       0.01751444      -0.74738669       0.55107437
H        4.69193383       5.15613340       6.24056715       0.01700335      -0.01848287       0.22493623      -1.82135307      -0.72289174      -0.44624068
N        6.37728876       6.43188452       5.34644050      -0.14694909       0.40849987      -1.24777317      -0.23147037      -0.12373735       0.78278520
8
Lattice="12.0 0.0 0.0 0.0 12.0 0.0 0.0 0.0 12.0" Properties=species:S:1:pos:R:3:momenta:R:3:forces:R:3 energy=-440.6628535394795 free_energy=-440.6628535394795 stress="0.0006735236485714477 0.0003255485801653239 0.0002903503100526875 0.0003255485801653239 0.00040619500090143 -0.0003233051921315576 0.0002903503100526875 -0.0003233051921315576 0.0005708941403970309" pbc="T T T"
B        5.72162601       5.58468832       6.66271798      -0.11245716       0.66220524      -0.53212837      -0.10879282      -0.03310130      -0.74109178
H        5.74664111       7.26961064       5.07174126      -0.14902993       0.00363374       0.03419557      -0.09580611      -0.09779692      -0.13751670
H        6.42557740       5.78567633       4.48588511      -0.05940682      -0.04109781      -0.10981426       0.08940393      -0.08936030      -0.36866708
H        7.33636909       6.83747792       5.53132745       0.02492711       0.07148952      -0.09824069      -0.08760653      -0.22053507      -0.12661520
H        5.70503346       6.39240415       7.51411489       0.10708582       0.04680011      -0.40318377      -0.25698364       0.01812468      -0.13355484
H        6.50910440       4.73038936       6.89212452       0.10047817       0.16411936      -0.26151248      -0.27542621       0.17775173      -0.30668474
H        4.66363091       5.21713331       6.21775329       0.35227482       0.26326875      -0.12778351       0.78893780       0.25749477       0.57957487
N        6.38434904       6.46111369       5.27832107      -0.86584141      -1.06107237       0.90983541      -0.05372644      -0.01257761       1.23455548
8
Lattice="12.0 0.0 0.0 0.0 12.0 0.0 0.0 0.0 12.0" Properties=species:S:1:pos:R:3:momenta:R:3:forces:R:3 energy=-440.553193451812 free_energy=-440.553193451812 stress="0.001004810711242558 0.00017948707004906205 0.0005861557290967678 0.00017948707004906205 0.0007201804999100281 0.0006887403307987198 0.0005861557290967678 0.0006887403307987198 4.641359026000524e-05" pbc="T T T"
B        5.80667331       5.65488875       6.59866846      -0.63656333      -0.44288372       1.12462163      -2.14931073      -0.92738739       2.24621818
H        5.71573021       7.22447342       5.05457256      -0.00652163       0.10602038      -0.19453470       0.34003862      -0.48959846      -0.16965563
H        6.40204171       5.69859258       4.49473604      -0.00041774      -0.09799028      -0.11536831       0.10598821       0.55526555       0.06493688
H        7.32246864       6.79187110       5.51781205       0.03639299      -0.01929421      -0.01122833      -0.21223254      -0.17627357      -0.39867312
H        5.77075162       6.44469587       7.50526396       0.13386085       0.08954938       0.02777992       0.06065878      -0.26908014      -0.92877235
H        6.52380070       4.77552658       6.90562939       0.18348362      -0.10185248       0.07523001       0.17646978       0.14844250      -0.51790799
H        4.67753136       5.22084728       6.36313406      -0.14582103      -0.05071871      -0.07416262       1.48611828       0.69924586      -0.02373891
N        6.36254104       6.40960293       5.28095594      -0.12079969       0.61823604      -1.37639623       0.19226960       0.45938565      -0.27240705
8
Lattice="12.0 0.0 0.0 0.0 12.0 0.0 0.0 0.0 12.0" Properties=species:S:1:pos:R:3:momenta:R:3:forces:R:3 energy=-440.4478717493183 free_energy=-440.4478717493183 stress="5.8883009931162147e-05 0.0006366600731249088 -0.0009126991923507649 0.0006366600731249088 0.0004437404200334066 -0.0005284619340612233 -0.0009126991923507649 -0.0005284619340612233 0.0017685948115708722" pbc="T T T"
B        5.74993429       5.60034897       6.75092043       0.27300547       0.59262057      -0.75040314      -0.64276348       1.04747830      -0.86987756
H        5.71055922       7.23088154       4.92221020      -0.12003983      -0.07864477       0.08697599       0.24449322      -0.62309748       0.07496502
H        6.38806944       5.66955534       4.41277992      -0.08570410      -0.05763551       0.02517293      -0.07050174       0.72804117       0.61892773
H        7.32762931       6.80709768       5.36748122      -0.01775586      -0.00419918      -0.02222578      -0.35981866      -0.30745680      -0.07141225
H        5.73100764       6.41229575       7.58722008       0.01699841      -0.04621519       0.13422310       0.35366266       0.42939280      -0.19300317
H        6.49876022       4.76911846       6.90570861      -0.06142674      -0.04604905       0.19649913       1.08813859      -0.85620930       0.06850041
H        4.67237069       5.19323523       6.55487897      -0.21602613      -0.11166918       0.05819777      -0.05042985       0.11920159      -0.60345934
N        6.35749465       6.42288039       5.17386583      -0.32813004      -0.15028510      -0.25557492      -0.56278073      -0.53735028       0.97535917
8
Lattice="12.0 0.0 0.0 0.0 12.0 0.0 0.0 0.0 12.0" Properties=species:S:1:pos:R:3:momenta:R:3:forces:R:3 energy=-440.4892554388649 free_energy=-440.4892554388649 stress="-0.0008306566822591177 -0.000415225629058314 0.0005039899442344398 -0.000415225629058314 -0.00031737677622219114 0.0010428624749583414 0.0005039899442344398 0.0010428624749583414 -0.0021750873784109593" pbc="T T T"
B        5.82019764       5.71650128       6.70450951       0.36465913       0.50155767      -0.74881110      -0.36994635      -0.01633881       1.42180586
H        5.62306132       7.14455865       5.10899631      -0.00703945      -0.07576061       0.01011427       0.01997296      -0.30494270      -0.07999951
H        6.29184659       5.65227130       4.56891131      -0.03727346       0.02976458       0.08290982      -0.02695829       0.27169861       0.24434900
H        7.24334501       6.80204569       5.41630757      -0.05542051      -0.07294554       0.02124565      -0.25798974      -0.38074302       0.05744578
H        5.82929492       6.62514331       7.43108869      -0.07768622      -0.14756079       0.05542262       0.12958596      -0.16805213       0.56190361
H        6.55701420       4.85544135       6.89919529      -0.25178085       0.22073250      -0.00142476       0.28467585      -0.40723540       0.47430208
H        4.75665499       5.38848717       6.46519264      -0.01515107      -0.06825609       0.27137587      -0.99150481      -0.60071187       0.14079218
N        6.27702016       6.35128587       5.37151947      -0.46201374      -0.28913187      -0.22053644       1.21216442       1.60632531      -2.82059899
8
Lattice="12.0 0.0 0.0 0.0 12.0 0.0 0.0 0.0 12.0" Properties=species:S:1:pos:R:3:momenta:R:3:forces:R:3 energy=-440.44565671933555 free_energy=-440.44565671933555 stress="0.0005477880343324275 -0.00025389572324278193 -0.00028394194273519976 -0.00025389572324278193 0.0010249626128492574 -0.0004487592007896337 -0.00028394194273519976 -0.0004487592007896337 0.0010727739239584746" pbc="T T T"
B        5.79295099       5.65838564       6.85228379      -0.06239575      -0.35453766       0.75860355       1.88062662       0.60204303      -1.47640467
H        5.70544323       7.17715617       4.85190219       0.04774904      -0.04399057      -0.10545659      -0.32465240      -0.15422571       0.16888649
H        6.29529918       5.59655031       4.48927612      -0.01760525       0.08672120      -0.00711724      -0.09083002      -0.26148644      -0.21549255
H        7.28399510       6.74390907       5.28962421      -0.09163880      -0.04466210      -0.14181419      -0.08226095      -0.21212650       0.11110571
H        5.91770778       6.64838789       7.51072388      -0.13284836       0.02235513      -0.04429487      -0.19710255      -0.72792842      -0.09354539
H        6.68620457       4.82284383       6.92929437      -0.19022630       0.05204761       0.02187854      -1.20264103       0.84769904       0.21737834
H        4.71600490       5.29401515       6.58713808       0.08389039       0.07649128       0.09544932      -0.17886950      -0.16038224       0.24561062
N        6.30138722       6.37664268       5.18168976      -0.19261508       0.30651511      -1.12062671       0.19572983       0.06640725       1.04246144
8
Lattice="12.0 0.0 0.0 0.0 12.0 0.0 0.0 0.0 12.0" Properties=species:S:1:pos:R:3:momenta:R:3:forces:R:3 energy=-440.64730698392475 free_energy=-440.64730698392475 stress="0.0001842644973142709 -0.00025023529738317404 -8.453038525414294e-06 -0.00025023529738317404 0.0001847105735430505 -0.00012340038782092004 -8.453038525414294e-06 -0.00012340038782092004 0.00033363176357088933" pbc="T T T"
B        5.84596149       5.74683035       6.76584871       0.13529476       0.63568246      -1.37681950       1.54509597      -0.90222083       0.20677489
H        5.60613652       7.10416663       5.02463087      -0.01960676      -0.09481843       0.08459727      -0.38215016       0.28454860      -0.36105468
H        6.20043061       5.58014920       4.50512320      -0.05501938       0.01262762       0.01915594      -0.04190910      -0.34265757      -0.37470226
H        7.24200951       6.75121863       5.19815592      -0.13461464      -0.04964504      -0.05375386       0.68831446       0.05417553       0.09403106
H        5.97656867       6.66719909       7.49487680       0.04730500       0.32371534      -0.14876322      -0.31549092      -0.10268019      -0.32927479
H        6.69241070       4.89583337       7.00837744       0.21916797      -0.06652820      -0.20172362      -1.08771251       0.81611358      -0.37194293
H        4.75799049       5.33278284       6.59646413      -0.00053622       0.11251648      -0.20479856       0.13993089       0.14127738       0.14111904
N        6.28909042       6.34114328       5.20741707      -0.77613218      -0.76744209       1.31090639      -0.54607864       0.05144350       0.99504966
8
Lattice="12.0 0.0 0.0 0.0 12.0 0.0 0.0 0.0 12.0" Properties=species:S:1:pos:R:3:momenta:R:3:forces:R:3 energy=-440.6362880519206 free_energy=-440.6362880519206 stress="-0.0012999549126285505 0.00016016558927865735 -6.894812861148845e-05 0.00016016558927865735 -0.0012800369494251368 -0.0005368921163763838 -6.894812861148845e-05 -0.0005368921163763838 -0.0004059451032609221" pbc="T T T"
B        5.87349838       5.74365302       6.75368494      -0.90507318      -0.14074432       1.50359225      -0.13833355      -0.64048868      -0.34143084
H        5.59807653       7.04914088       4.91147115      -0.02630808       0.02586545      -0.16936739      -0.56620273       0.36180009      -0.25947480
H        6.14040686       5.44599638       4.56510889      -0.02885263      -0.03259584      -0.10080827      -0.05931875      -0.14462636      -0.41473821
H        7.19559248       6.61820238       5.22405188       0.03730730       0.00454654      -0.11517335       0.91278549       0.23394377      -0.14490582
H        6.01659731       6.62695915       7.43489111       0.13158184       0.02994432       0.13827577      -0.06179327       1.41455563       0.67236735
H        6.65796122       4.95085912       7.02006142       0.27247310      -0.13234134       0.06949782       0.55004288      -0.64366352      -0.22397750
H        4.80440752       5.31122283       6.72619522      -0.02341730      -0.05762408       0.07435228      -0.49317113      -0.04120546      -0.12670341
N        6.22395258       6.27234935       5.19477138      -0.08017342       0.41601833      -2.00904016      -0.14400894      -0.54031547       0.83886324
8
Lattice="12.0 0.0 0.0 0.0 12.0 0.0 0.0 0.0 12.0" Properties=species:S:1:pos:R:3:momenta:R:3:forces:R:3 energy=-440.4140884225769 free_energy=-440.4140884225769 stress="-0.00020985135184949604 0.0005776205121622306 -0.0005592735947879455 0.0005776205121622306 -0.0003233830860496329 -0.0006917679748598302 -0.0005592735947879455 -0.0006917679748598302 0.0017997158502116388" pbc="T T T"
B        5.90140838       5.75014071       6.92258882      -0.08224543       0.51800909      -0.82258283      -1.39083073       0.82499292      -1.69340631
H        5.57789079       7.06290012       4.83955008      -0.16534010       0.02403343       0.08066206      -0.35411223       0.04004097      -0.01802471
H        6.12832327       5.44917078       4.49351353      -0.10307664      -0.08531672       0.02462914      -0.11376251      -0.18764947      -0.16869814
H        7.22463694       6.66775294       5.02846538       0.05837404       0.04171498       0.00739206       0.15658192      -0.09696415       0.12015979
H        6.01119273       6.74991993       7.50648647       0.10575526      -0.26537518      -0.14607708       0.23414489       0.24873485       0.03146666
H        6.67834879       4.93709988       7.09507331      -0.10850360       0.13077086       0.22559821       0.88811286      -0.67172251       0.04737376
H        4.77536306       5.36089570       6.86029132       0.19662323       0.06537946      -0.03272379       0.57719902       0.18055335      -0.15006950
N        6.24578860       6.29986119       5.08470408      -0.56913970      -0.30795626       0.01033967       0.00266679      -0.33798596       1.83119843
8
Lattice="12.0 0.0 0.0 0.0 12.0 0.0 0.0 0.0 12.0" Properties=species:S:1:pos:R:3:momenta:R:3:forces:R:3 energy=-440.2472473082793 free_energy=-440.2472473082793 stress="0.0010900081228343381 2.740555349286896e-05 0.00013169291889127743 2.740555349286896e-05 0.000950485716778829 0.0014371527527155385 0.00013169291889127743 0.0014371527527155385 -0.0035187077580561095" pbc="T T T"
B        5.99720336       5.86627854       6.75926595       0.11612072       0.45386899      -0.54925769      -2.02830221      -0.24518522       3.82785293
H        5.53300456       6.98708001       5.02771223      -0.09322237       0.03715742      -0.08667347       0.01380832      -0.39205617      -0.09497918
H        6.09687202       5.40707118       4.64977504      -0.05662631      -0.14523983       0.00403128      -0.13041427      -0.03987420       0.00562524
H        7.17183110       6.63242086       5.11874938       0.03577780      -0.02020139       0.02885243      -0.23361489      -0.32288723       0.17081697
H        6.10529952       6.93165338       7.35022496       0.03811489      -0.06271752      -0.06173811       0.24139892      -1.41292899      -0.32656667
H        6.78218394       5.01291999       6.93164513      -0.06641590       0.13751080      -0.09143819      -0.08514260       0.14039979       0.70682620
H        4.82816890       5.49637595       6.83151622      -0.04957923      -0.02314469       0.08790978       1.46185748       0.20422445       0.06516828
N        6.20759964       6.21762782       5.31844711      -0.64545988      -0.24621283      -0.03699533       0.76040925       2.06830757      -4.35474376
8
Lattice="12.0 0.0 0.0 0.0 12.0 0.0 0.0 0.0 12.0" Properties=species:S:1:pos:R:3:momenta:R:3:forces:R:3 energy=-440.39985912091316 free_energy=-440.39985912091316 stress="0.0003383686601120108 -7.061689589343445e-05 -0.0001560362389023461 -7.061689589343445e-05 0.0013745943989940206 -0.0003207501227506809 -0.0001560362389023461 -0.0003207501227506809 0.00219653149738809" pbc="T T T"
B        5.97290010       5.85081007       6.96421286       0.27443622      -0.03703460       0.91261055      -0.06939678       1.17682397      -1.43135584
H        5.48797995       6.98514073       4.70441454      -0.05534192      -0.00123024      -0.07200272       0.16296155      -0.68453120       0.48629579
H        6.02357478       5.30513807       4.56319754      -0.05672278      -0.03189034      -0.17184930      -0.02876196       0.69497740       0.30584112
H        7.14679135       6.59131402       4.89734800      -0.05433772       0.00952859      -0.20928342      -0.44455508      -0.33247596       0.25608411
H        6.15473825       6.93652797       7.43680246      -0.11334911       0.30153603       0.05885125       0.14746911      -0.73556327      -0.26294687
H        6.79012895       5.01485927       7.09244837      -0.02193831      -0.05752903      -0.09606285      -0.01913568       0.18870065       0.03160353
H        4.85320865       5.50563576       7.02158715      -0.38576966      -0.01095244       0.05570384       0.03056006      -0.13913490      -0.07526653
N        6.15708871       6.23619713       5.06709941      -0.35581762      -0.03276956      -1.22977374       0.22085879      -0.16879669       0.68974469
8
Lattice="12.0 0.0 0.0 0.0 12.0 0.0 0.0 0.0 12.0" Properties=species:S:1:pos:R:3:momenta:R:3:forces:R:3 energy=-440.5150298410392 free_energy=-440.5150298410392 stress="-0.001308045856354786 -0.00031345230345567534 6.626070729629592e-05 -0.00031345230345567534 -0.00022403063961016364 -0.0001605690260193677 6.626070729629592e-05 -0.0001605690260193677 0.0010949870302079513" pbc="T T T"
B        5.97593710       5.88725752       6.90531380       0.43483430       0.24949230      -2.04450043       2.30996711      -0.01836492      -1.33879661
H        5.37029564       6.90098189       4.97356216       0.02109149      -0.06167660       0.00795261       0.14710378      -0.47007612      -0.27376742
H        5.89693643       5.23375118       4.63912666      -0.02949148       0.04851746       0.10566878       0.15395259       0.82479415       0.21709801
H        7.05762925       6.55151684       4.91332405      -0.10748633      -0.04710285       0.03450104      -0.25176056      -0.36945325       0.00202209
H        6.23374244       6.89445011       7.36087334      -0.13354191       0.18444873      -0.20697031       0.01627075       1.15588527       0.26906116
H        6.78018966       5.09901811       7.18755538      -0.14814000       0.08826723      -0.15515342       0.19324638      -0.34235556      -0.26575525
H        4.94237075       5.53995086       7.03813958       0.01052519       0.15931564      -0.07614619      -2.41300645      -0.68774369       0.25602639
N        6.10259958       6.15527719       5.13604470      -0.86479108      -0.47285551       1.53574962      -0.15577359      -0.09268589       1.13411163
8
Lattice="12.0 0.0 0.0 0.0 12.0 0.0 0.0 0.0 12.0" Properties=species:S:1:pos:R:3:momenta:R:3:forces:R:3 energy=-440.6226818630039 free_energy=-440.6226818630039 stress="0.0007599624746086952 -0.00019942605495566968 0.0001013913234732108 -0.00019942605495566968 0.0003555066170189493 -3.503217877529847e-05 0.0001013913234732108 -3.503217877529847e-05 -0.0008640121863998768" pbc="T T T"
B        6.03071321       5.89742692       6.79275921      -0.32269480       0.14317049       1.75230769       1.74587050      -1.44892494       0.81768575
H        5.36160996       6.76356359       4.84811447      -0.01311142      -0.06577311      -0.09916461      -0.09761745      -0.20235419      -0.23149763
H        5.85643618       5.08431784       4.76904595      -0.04484069       0.08194809       0.03412413      -0.01619675       0.22740400      -0.32343476
H        7.03168011       6.36960068       4.88807226      -0.09581496      -0.05753973      -0.10766232      -0.21595437      -0.22643504      -0.15606731
H        6.38262955       6.91568216       7.23095405      -0.01832357      -0.13808916       0.10365242      -0.45335291       0.38899795       0.00176586
H        6.92773093       5.09137969       6.99364423      -0.10518189       0.12653640       0.09403511      -1.16133454       0.63111848      -0.14449413
H        4.96831989       5.48849629       7.06002077       0.35497864       0.11800690       0.13384728      -0.02697972       0.22666418       0.09352858
N        6.06363513       6.04134182       5.15254092      -0.61041458      -0.05287757      -2.74759055       0.22556523       0.40352955      -0.05748634
8
Lattice="12.0 0.0 0.0 0.0 12.0 0.0 0.0 0.0 12.0" Properties=species:S:1:pos:R:3:momenta:R:3:forces:R:3 energy=-440.18695118762184 free_energy=-440.18695118762184 stress="0.0012277602715460706 -0.00018377469578843267 0.00018763485496449343 -0.00018377469578843267 0.000444010095847094 -0.0004613943613619139 0.00018763485496449343 -0.0004613943613619139 0.002182036054040255" pbc="T T T"
B        6.13433221       5.84712783       7.09433903      -0.56095406       0.53640502      -0.64823576      -0.28678820      -0.60454270      -1.47919630
H        5.36632769       6.65895628       4.78475922      -0.02689283      -0.03782110       0.16733676      -0.40075576       0.09907948       0.23212937
H        5.81905310       5.01188299       4.70996471      -0.09579399       0.02443612       0.04091435      -0.25808437      -0.76169570      -0.12378398
H        6.99054327       6.24550869       4.69378286      -0.12797932      -0.00919233       0.04826434       0.45517574      -0.02989605       0.18786217
H        6.41433351       6.98811701       7.30621714       0.17364639       0.05901941      -0.08280269      -0.20940304      -0.53387803       0.01834345
H        7.03260829       5.02417319       7.27633493       0.25345509      -0.07953477       0.06310425      -1.18551668       0.93188697      -0.31121590
H        4.96739171       5.49539816       7.26909810       0.03647570      -0.02099966      -0.07916651       1.50103812       0.40809060      -0.02327378
N        6.06858076       5.94410195       5.07865001      -0.53310426      -0.31225403      -0.37103925       0.38433418       0.49095542       1.49913497
8
Lattice="12.0 0.0 0.0 0.0 12.0 0.0 0.0 0.0 12.0" Properties=species:S:1:pos:R:3:momenta:R:3:forces:R:3 energy=-440.4163108840846 free_energy=-440.4163108840846 stress="-0.0014399517826541133 0.0002450623126632266 -0.0005632965068250495 0.0002450623126632266 -0.001460456865219509 0.00011642658202714297 -0.0005632965068250495 0.00011642658202714297 -0.002941600765186638" pbc="T T T"
B        6.13857728       5.92784466       6.78671189      -0.31159781       0.45616167      -1.72633817      -1.88615490       0.36036117       2.18141072
H        5.31728967       6.62508639       4.93245845      -0.00193189      -0.08860026      -0.19667039      -0.71883312       0.27598067      -0.09486760
H        5.74463936       4.99041179       4.85832427      -0.05750334      -0.04581855       0.05289980      -0.24120804      -0.47971087      -0.06663106
H        6.89010446       6.19814197       4.78855856      -0.10428341      -0.04636134      -0.03571524       0.99114803       0.08778870      -0.25997506
H        6.35321693       7.00958821       7.06768830       0.13092877       0.10161625      -0.24904277       0.63481097       0.88511860       0.31412401
H        6.92427266       5.17200418       7.01642246       0.30372632      -0.15184903      -0.08197655       1.38914211      -1.10627690       0.68903477
H        5.07572734       5.65250863       7.21144144      -0.17043950      -0.04221860      -0.12916116       0.20514836      -0.24039299      -0.10591614
N        6.00940846       5.91858479       5.25965566      -0.70151614      -0.01715507       1.47360750      -0.37405340       0.21713162      -2.65717963
8
Lattice="12.0 0.0 0.0 0.0 12.0 0.0 0.0 0.0 12.0" Properties=species:S:1:pos:R:3:momenta:R:3:forces:R:3 energy=-440.38900006626136 free_energy=-440.38900006626136 stress="-0.0015091897824940305 0.0005632028361753614 1.1280712208753474e-05 0.0005632028361753614 -0.0008340019071813986 0.00037322277045310527 1.1280712208753474e-05 0.00037322277045310527 0.0020669081794861964" pbc="T T T"
B        6.12193019       6.00459955       6.91725155       0.47463505       0.45284248       1.26435252      -1.80374807       1.29921836      -1.21035556
H        5.13780745       6.57470578       4.76457160      -0.10344478       0.03296360      -0.15831586      -0.54658344       0.16011502      -0.06740274
H        5.58660183       4.88471777       4.89163361      -0.10501465      -0.06200594      -0.22978750      -0.09079754       0.03026773      -0.17735621
H        6.76781057       6.11996540       4.58567612      -0.04342987       0.00656670      -0.34156571       0.40167148      -0.08368943      -0.09325878
H        6.38079753       7.11528223       7.14653469      -0.14635123      -0.15484570       0.00314782       0.40024379       0.22337867      -0.42730477
H        6.89732505       5.23435729       7.08499924      -0.21855199       0.20439451      -0.01931291       1.71528445      -1.39700874       0.20732281
H        5.10267495       5.74121254       7.41432388       0.00819936       0.14132155       0.09445527      -0.40664183      -0.28931969      -0.38264331
N        5.86126594       5.88332758       5.03904834      -0.79561423      -0.45238224      -1.52195027       0.33057116       0.05703806       2.15099857
8
Lattice="12.0 0.0 0.0 0.0 12.0 0.0 0.0 0.0 12.0" Properties=species:S:1:pos:R:3:momenta:R:3:forces:R:3 energy=-440.3823685258014 free_energy=-440.3823685258014 stress="0.001468619972069917 0.00011845967536320077 0.00029161273100773054 0.00011845967536320077 0.001830872252543929 -0.0002963647519932009 0.00029161273100773054 -0.0002963647519932009 0.0016561632403131333" pbc="T T T"
B        6.10066176       6.00655382       6.95942287       0.11322628      -0.02937516      -2.12925347       0.43029701       0.47404870      -0.74233741
H        5.01968326       6.51868982       4.91770085      -0.07743593       0.11076163       0.12045109       0.06433272      -0.44053221      -0.06977434
H        5.45554967       4.80513510       4.95339279      -0.01653282      -0.09091537       0.18818764      -0.02349582       0.04634408      -0.21252562
H        6.66244998       6.06346408       4.60933427       0.06729454       0.04995024       0.09968663      -0.42118140      -0.38139201       0.12222393
H        6.44861441       7.19486490       6.96785908      -0.17937214       0.01043721      -0.06367980      -0.58286318      -1.64152241       0.09768454
H        6.98948866       5.21004068       7.23656242      -0.32096148       0.16682819      -0.13856519      -1.03726991       0.82478572      -0.56489030
H        5.01051134       5.74070985       7.39066573      -0.02538179       0.13509760       0.07211913       0.78720779       0.29454039      -0.19188376
N        5.76369139       5.79427814       5.09908201      -0.50491610      -0.18129419       0.92789165       0.78297279       0.82372773       1.56150296
8
Lattice="12.0 0.0 0.0 0.0 12.0 0.0 0.0 0.0 12.0" Properties=species:S:1:pos:R:3:momenta:R:3:forces:R:3 energy=-440.3767446689063 free_energy=-440.3767446689063 stress="0.0008337559273723264 -0.00026220828300157047 -0.00046865106836187296 -0.00026220828300157047 0.0009551159909671385 -0.0008119734641005884 -0.00046865106836187296 -0.0008119734641005884 -0.002511536579869342" pbc="T T T"
B        6.10152263       6.09878629       6.79912581       0.39467178       0.39723705       0.67389434       2.78461833      -0.25040782       1.02387558
H        4.97870982       6.43952760       4.90150049      -0.12561620       0.04189911      -0.03965880       0.29077248      -0.45648882       0.48597136
H        5.45647826       4.80599882       5.19394939      -0.06376015      -0.14528719       0.15560688       0.09186547       0.45295905      -0.09893108
H        6.59238044       5.99918865       4.66953775       0.01574510      -0.01029559      -0.00416548      -0.35465336      -0.30551381       0.47046048
H        6.56453661       7.19400118       6.76972839       0.12628329       0.38625445      -0.02216488      -0.68234606      -0.28192768       0.60001736
H        7.02129018       5.30489297       6.96283676       0.09554594      -0.05427176       0.13267462      -1.15871565       0.77869017       0.39125209
H        5.11520628       5.83805525       7.33046225      -0.19257771      -0.01319472       0.18392956      -0.25734233       0.28306718       0.89027780
N        5.75573886       5.82186144       5.31470512      -1.20546012      -0.42883697      -2.01412149      -0.71419887      -0.22037826      -3.76292358
8
Lattice="12.0 0.0 0.0 0.0 12.0 0.0 0.0 0.0 12.0" Properties=species:S:1:pos:R:3:momenta:R:3:forces:R:3 energy=-440.1830889306776 free_energy=-440.1830889306776 stress="-0.0005847175288933887 -0.00018033790275292255 0.0010826776902509638 -0.00018033790275292255 -0.00042071267457762337 0.0007405494296123747 0.0010826776902509638 0.0007405494296123747 0.002063948711851829" pbc="T T T"
B        6.22160655       6.21534596       7.02755608      -0.46815395       0.63826196       0.26245966       0.95283185      -1.86032152      -2.66894499
H        4.90001535       6.41865604       4.87231425       0.01637725      -0.05558651      -0.01687571       0.26318913      -0.41040440       0.48551418
H        5.32768298       4.74187889       5.08809550      -0.10785827       0.03175772      -0.14313286       0.33210415       0.88624584       0.33991847
H        6.44559016       5.89646449       4.43957511      -0.19054737      -0.03659766      -0.10823571       0.09412400      -0.12592549       0.65227330
H        6.59090280       7.25812111       6.87090324       0.19179832       0.01177054      -0.30008100       0.27994944       1.83743693      -0.22750576
H        7.09998465       5.45838057       7.18266999       0.14037820      -0.00157397      -0.17417973      -0.11769561      -0.25850386       0.11881158
H        5.25644185       6.03531461       7.56042489       0.03396289      -0.09897552      -0.24474473      -1.55104456      -0.23818048       0.91643852
N        5.68109447       5.75285840       5.16264424      -0.56770752      -0.31617297      -0.20587329      -0.25345839       0.16965298       0.38349470
8
Lattice="12.0 0.0 0.0 0.0 12.0 0.0 0.0 0.0 12.0" Properties=species:S:1:pos:R:3:momenta:R:3:forces:R:3 energy=-440.5754336105515 free_energy=-440.5754336105515 stress="8.571474215327101e-05 -0.0003198187192681291 -0.0004192413900247616 -0.0003198187192681291 2.5867951827051853e-05 -0.0002996571572132069 -0.0004192413900247616 -0.0002996571572132069 -0.0004446605399496663" pbc="T T T"
B        6.21939384       6.16767861       6.67554179      -1.12838487       0.14330414      -1.66416316      -0.67448432       0.43469297       2.54840627
H        4.92240746       6.39693335       4.93906931       0.03787805      -0.14713909      -0.12245711      -0.20673235      -0.37116234      -0.15956274
H        5.37882850       4.71486019       5.28796936       0.02274810       0.15544210       0.03673107      -0.18090794       0.30700837      -0.44072357
H        6.50831244       5.83776759       4.56073368      -0.16486199      -0.06247831      -0.01635933      -0.32715806      -0.28101507      -0.17899141
H        6.51269208       7.28513981       6.62929604       0.09734778      -0.34678167      -0.26102474       0.45729909       0.31483990      -0.49213287
H        7.07759254       5.45269005       7.02919982       0.03568636       0.10938544      -0.25682755       0.01894564      -0.02896024      -0.44196444
H        5.29809494       6.11906459       7.43926632       0.22839409      -0.06944557      -0.40467604       0.34826627      -0.36800739      -0.71291344
N        5.68233819       5.72279836       5.20775048      -0.08129330       0.39073010       1.75739444       0.56477167      -0.00739621      -0.12211781
8
Lattice="12.0 0.0 0.0 0.0 12.0 0.0 0.0 0.0 12.0" Properties=species:S:1:pos:R:3:momenta:R:3:forces:R:3 energy=-440.38719003855454 free_energy=-440.38719003855454 stress="0.0004373420252464739 -1.0067817827473354e-05 -0.0003517208251452861 -1.0067817827473354e-05 0.0007743915870876844 0.0003537049556333063 -0.0003517208251452861 0.0003537049556333063 0.0015720740759482031" pbc="T T T"
B        6.29985890       6.19224850       6.67555282       0.42657773       0.85945407       0.56586346      -1.88908737       1.11451467       1.66399935
H        4.86486731       6.25675259       4.88248728       0.00273515      -0.01749981      -0.02826837      -0.53171990       0.00240383      -0.21654426
H        5.34154552       4.63133598       5.36873753      -0.04697002       0.06415458      -0.05190444      -0.47268002      -0.73570354      -0.19484961
H        6.42525821       5.64338547       4.46595752      -0.16375261      -0.03307332      -0.07177265      -0.01114753      -0.18468427      -0.29521786
H        6.56649667       7.36866402       6.52396852       0.00160915       0.01385916       0.14455432       0.18314258      -1.37895522      -0.38342291
H        7.13513269       5.41477756       6.95965223       0.19921961       0.07550285       0.26596644       0.09368990       0.27704770      -0.38163654
H        5.37479154       6.17135137       7.53404248       0.06581470       0.16585403       0.14420681       1.27865784      -0.35998531      -1.77178970
N        5.62197517       5.59325733       5.13046831      -1.42380971      -0.95776108      -1.88642639       1.34914452       1.26536214       1.57946152
8
Lattice="12.0 0.0 0.0 0.0 12.0 0.0 0.0 0.0 12.0" Properties=species:S:1:pos:R:3:momenta:R:3:forces:R:3 energy=-440.39234214123695 free_energy=-440.39234214123695 stress="-0.0008934686502835176 0.0007972662912102799 0.0006420753434633558 0.0007972662912102799 -0.0005729062319971147 0.0006536780898654451 0.0006420753434633558 0.0006536780898654451 0.0010579568564680706" pbc="T T T"
B        6.37061448       6.30428107       6.84260550      -0.25405160      -0.24912626      -1.98676588      -2.59813789       0.53309413      -2.01662646
H        4.81755817       6.21423537       4.96905516       0.04985215       0.11896826       0.11545816      -0.50366780       0.37453454       0.16575545
H        5.22637790       4.62258080       5.39644901       0.05165392      -0.04682643       0.22325043      -0.23058606      -0.69821033       0.40384845
H        6.25801641       5.56530293       4.45633648       0.04261997       0.07493956       0.13774494       0.84109393       0.00525014      -0.29282867
H        6.61450061       7.37741920       6.41877320      -0.15310152       0.24368989      -0.02394666       0.25132581      -0.21145567       0.33085385
H        7.18244183       5.55429033       7.02295783      -0.05650231      -0.16278516      -0.00354671       1.46305520      -0.96276071       0.37717540
H        5.42365603       6.23922039       7.54366352      -0.23618275       0.14557878       0.28297334       0.30538009       0.08159937       0.03625440
N        5.59164880       5.57938080       5.24999385      -0.35491423       0.04097483       0.36438195       0.47153673       0.87794853       0.99556758
8
Lattice="12.0 0.0 0.0 0.0 12.0 0.0 0.0 0.0 12.0" Properties=species:S:1:pos:R:3:momenta:R:3:forces:R:3 energy=-440.2889634645652 free_energy=-440.2889634645652 stress="-0.001878291964893422 -8.134273950004418e-05 -0.00032499040314245116 -8.134273950004418e-05 -0.0014136902386229142 -0.0010071032730543368 -0.00032499040314245116 -0.0010071032730543368 -0.0028396388699735487" pbc="T T T"
B        6.30695246       6.31074844       6.63878089       0.82806209       0.54409234       0.23798085       1.77769289       0.83612581      -0.30679751
H        4.80013739       6.14413734       4.99821019      -0.08313014      -0.03590384      -0.13425201      -0.57951062       0.59852471       0.33398217
H        5.28821676       4.68474511       5.62916115      -0.06477123      -0.11729235       0.00107518      -0.04886263      -0.17033418       0.25951782
H        6.25913354       5.56204417       4.61049155      -0.08245234      -0.06279337      -0.15511731       0.88740784      -0.08235878      -0.42164949
H        6.67608849       7.31525489       6.19497712      -0.22645525       0.02474816      -0.17708385      -0.04763644       0.67759781       0.52911792
H        7.19986261       5.61263469       6.81429515      -0.36911607       0.05427269      -0.14504819       0.56926289      -0.37157612       0.70097091
H        5.48680567       6.28030123       7.38950845      -0.04632318       0.05659023      -0.10440606      -0.94550292       0.48467036       1.86193485
N        5.62557365       5.66255711       5.42961616      -0.82605456      -0.30563638      -0.37410814      -1.61285101      -1.97264961      -2.95707666
8
Lattice="12.0 0.0 0.0 0.0 12.0 0.0 0.0 0.0 12.0" Properties=species:S:1:pos:R:3:momenta:R:3:forces:R:3 energy=-440.3395047616398 free_energy=-440.3395047616398 stress="0.0015955695422119826 0.00030829947858290003 0.0006802049941869953 0.00030829947858290003 0.001204396349266038 0.000417498150198052 0.0006802049941869953 0.000417498150198052 0.001668527073901935" pbc="T T T"
B        6.34296404       6.40693806       6.70172563       0.32750204       0.57994866       0.36738321       1.90351597      -0.87213266      -0.74344815
H        4.64845983       6.14928737       5.04516021      -0.13772188      -0.01727958      -0.16556882      -0.12584518      -0.20474508       0.04371741
H        5.12324580       4.57034314       5.64561323      -0.11250918      -0.09111832      -0.10847655       0.06273096       0.26282216      -0.19963131
H        6.08656774       5.42402001       4.43843452      -0.12261263      -0.07071285      -0.23311374      -0.06406337      -0.10920495       0.39096000
H        6.74275052       7.42965686       6.21804953      -0.04436450      -0.05211590      -0.27992267      -0.85320021      -0.52849564       0.08868236
H        7.35154017       5.72548657       6.96259075      -0.15317150       0.05193823      -0.18834028      -1.77815480       0.48738866      -0.45762847
H        5.54252543       6.46365929       7.56156548      -0.07665129      -0.10909228      -0.30640021      -0.08326389      -0.01568625      -0.31544636
N        5.44510239       5.50385762       5.27376413      -0.48189684      -0.14599054       0.13076975       0.93828054       0.98005375       1.19279451
8
Lattice="12.0 0.0 0.0 0.0 12.0 0.0 0.0 0.0 12.0" Properties=species:S:1:pos:R:3:momenta:R:3:forces:R:3 energy=-440.49289046099454 free_energy=-440.49289046099454 stress="0.0008728195161343915 -0.0006284166629083618 -3.994852835469412e-05 -0.0006284166629083618 0.0003530319010887759 -0.0003180263559493852 -3.994852835469412e-05 -0.0003180263559493852 0.000333831213613827" pbc="T T T"
B        6.33495640       6.35796451       6.50768791      -1.44848757      -0.50089016      -1.47726848       2.30322850       0.43187865       2.28435985
H        4.68141071       6.14148131       5.08527240      -0.02288511       0.06567692      -0.01099562       0.25495529      -0.73266345       0.01244930
H        5.25640919       4.61107894       5.79841508       0.06619451       0.02480994       0.14875199      -0.23248534       0.13979831      -0.52797082
H        6.19382870       5.43353086       4.53933505       0.02604931       0.04812995       0.03115559      -0.75237872      -0.23002874       0.43096330
H        6.71543855       7.38892106       6.10993476       0.21620976       0.02663219      -0.13854324      -0.32073292      -0.06230095      -0.62866020
H        7.31858929       5.72252504       6.86110032       0.17351683      -0.00903320      -0.11002097      -1.26563507       0.24527954      -0.77421236
H        5.67059450       6.54793882       7.46066495       0.06380234      -0.02932322      -0.05803183      -0.41796641      -0.34135433      -0.46533946
N        5.51292564       5.53497198       5.35661826       0.20451002       0.50498215       0.90983918       0.43101467       0.54939098      -0.33158961
8
Lattice="12.0 0.0 0.0 0.0 12.0 0.0 0.0 0.0 12.0" Properties=species:S:1:pos:R:3:momenta:R:3:forces:R:3 energy=-440.64317926066065 free_energy=-440.64317926066065 stress="0.0001483859247182029 -5.021099484511559e-05 0.00037432404868782216 -5.021099484511559e-05 -0.0001230319301143388 0.0004243399485755114 0.00037432404868782216 0.0004243399485755114 0.0003908373781202734" pbc="T T T"
B        6.45243542       6.43209887       6.54942936      -0.12230222       0.60131531      -0.10381781      -1.42417095      -0.52775495       0.51054275
H        4.66361217       6.07626448       5.11377878       0.02769836       0.09883000       0.05530208       0.52847469      -0.54256899       0.33670323
H        5.26043626       4.59164996       5.87575044      -0.01519883      -0.00118171       0.09605869      -0.06057814       0.44990649      -0.34000371
H        6.13169014       5.33430037       4.55706375      -0.06932083       0.02323447       0.00280812      -0.36465522      -0.01819796       0.44562952
H        6.67549019       7.40835004       6.02610056       0.20946389       0.13792062       0.17733384       0.54610118       0.94060575      -0.86481313
H        7.33638783       5.77027844       6.85839345       0.39442778       0.17929051       0.27723683       0.62791518      -0.43937139      -0.11224348
H        5.72739122       6.63430331       7.44293625       0.21713143       0.16722179       0.11119838      -0.19521107      -0.22698254       0.03763117
N        5.52111361       5.51112631       5.41167331      -1.28849046      -1.08917904      -1.24838507       0.34212433       0.36436359      -0.01344636
8
Lattice="12.0 0.0 0.0 0.0 12.0 0.0 0.0 0.0 12.0" Properties=species:S:1:pos:R:3:momenta:R:3:forces:R:3 energy=-440.4596178348102 free_energy=-440.4596178348102 stress="-0.0002857585557537 0.0007129569142657961 0.00015783706104494685 0.0007129569142657961 9.391062332795971e-05 0.0004218546646301708 0.00015783706104494685 0.0004218546646301708 0.00047009919716834667" pbc="T T T"
B        6.52429170       6.50839907       6.59167189      -0.57737609      -0.38187276      -1.27059045      -3.23900569      -0.32057894      -1.20622442
H        4.66398964       6.03278511       5.16138875       0.09128274      -0.05014669      -0.01210404       0.13392315       0.05635908       0.35368058
H        5.20745189       4.58016136       5.89942768       0.07564560       0.08948005       0.04612089       0.23682214       0.51683753       0.08125310
H        6.01911624       5.24729631       4.56434012      -0.00393685       0.06702989       0.10706429       0.42601075       0.10933278       0.16246107
H        6.66646894       7.41983864       5.88417870      -0.10628272      -0.14076455       0.18547618       0.56574754       0.34907264       0.14992984
H        7.33601036       5.75723758       6.77137582      -0.11798585       0.08456614       0.01657202       1.62654777      -0.64664851       0.56006419
H        5.70140819       6.65554926       7.43565988       0.15807498       0.08410776      -0.08585645       0.67744333       0.11230424      -0.01502375
N        5.52609839       5.49768692       5.46270496      -0.11425653       0.35565071       0.43166204      -0.42748897      -0.17667882      -0.08614061
8
Lattice="12.0 0.0 0.0 0.0 12.0 0.0 0.0 0.0 12.0" Properties=species:S:1:pos:R:3:momenta:R:3:forces:R:3 energy=-440.4862934779459 free_energy=-440.4862934779459 stress="-0.00018447302551530305 -0.0006202349934067005 -0.0012034116572915189 -0.0006202349934067005 2.0310670800967467e-05 -0.001110391823185818 -0.0012034116572915189 -0.001110391823185818 0.000350159616054333" pbc="T T T"
B        6.42497249       6.43182120       6.42774781       0.79996575       0.70647322       0.08153934       0.35727397       1.28988029       0.13760785
H        4.64281669       5.96701024       5.15264047       0.03135023      -0.09910352      -0.05207205      -0.43041315       0.33169499       0.11606449
H        5.24702623       4.62329936       5.99260036      -0.06015707       0.04351857      -0.13175432      -0.09622185      -0.16179601       0.12083105
H        6.04057129       5.22951638       4.62673732      -0.21011096      -0.08534112      -0.05234838       0.28523864      -0.12326614      -0.14094461
H        6.67144291       7.37670064       5.66958301      -0.22796397      -0.03487584      -0.07145894      -0.19356408      -0.96666918       1.41762181
H        7.35718331       5.70753991       6.60805818      -0.26364243      -0.05535980      -0.10467290      -0.28668016       0.71350668       0.35786201
H        5.67953049       6.63780722       7.37326268      -0.12429605       0.04272428      -0.03031818       1.19554113       0.09303099      -0.81169321
N        5.51761941       5.50587522       5.49285930      -0.51244662      -0.41498664      -0.19364653      -0.83117448      -1.17638162      -1.19734939
8
Lattice="12.0 0.0 0.0 0.0 12.0 0.0 0.0 0.0 12.0" Properties=species:S:1:pos:R:3:momenta:R:3:forces:R:3 energy=-440.53109529083497 free_energy=-440.53109529083497 stress="0.0005606779420802459 0.0009205378809162521 0.0006817227558430429 0.0009205378809162521 0.0001307038050844173 0.0005187397671549766 0.0006817227558430429 0.0005187397671549766 0.00023141412005744767" pbc="T T T"
B        6.43824500       6.49926473       6.47243362       0.23153323       0.15227632      -0.19890432       0.67680202      -0.07030389      -1.01206011
H        4.55084884       5.97509416       5.22712590      -0.04531520      -0.05627368      -0.08049497      -0.59170296       0.21827852      -0.05353914
H        5.13593752       4.58986252       6.06465529      -0.01934164       0.00162136      -0.03940805      -0.26860273      -0.73011094       0.40475968
H        5.89097573       5.12710295       4.60413922      -0.11028127      -0.02420947      -0.01814950       0.25175281      -0.21311017      -0.21792003
H        6.71630616       7.41013748       5.75627477      -0.06644529       0.16768915      -0.39166856      -0.67741196      -0.38839559       0.19629671
H        7.44915116       5.93873970       6.73216798       0.02646507      -0.20625432      -0.12704142      -0.64239642      -0.43880122      -0.12430544
H        5.77984163       6.74089741       7.39586078      -0.37689957      -0.00134413       0.15782460      -0.31883686       0.07550590       0.14254241
N        5.37493687       5.39491306       5.46764845      -0.19695650       0.06771652       0.15294732       1.57039612       1.54693736       0.66422592
8
Lattice="12.0 0.0 0.0 0.0 12.0 0.0 0.0 0.0 12.0" Properties=species:S:1:pos:R:3:momenta:R:3:forces:R:3 energy=-440.4380173503703 free_energy=-440.4380173503703 stress="-0.0012080115985296286 -0.00011099827792568146 0.0005610214846306114 -0.00011099827792568146 -0.001632966424851622 -0.00014021645459644848 0.0005610214846306114 -0.00014021645459644848 -0.0020870008398923483" pbc="T T T"
B        6.41806996       6.46882429       6.36012458      -0.72692886      -0.37695734      -0.62945983       2.48710190      -0.27479432       0.21554864
H        4.60178678       5.96863056       5.25939991      -0.04091933       0.05970187      -0.02251218      -0.48243993      -0.03121955      -0.01870050
H        5.27321033       4.65742462       6.16532447       0.04300312      -0.01254553       0.14826545      -0.36522924      -0.55103598       0.17365487
H        5.99386852       5.17524966       4.70212129       0.03302971       0.06172666       0.00168062       0.18009736      -0.37164754      -0.49994167
H        6.72381017       7.34257538       5.72671219       0.15566158      -0.09493848      -0.01498270      -0.11344645       1.12744614      -1.27111775
H        7.39821322       5.90786690       6.62882860      -0.06796554       0.23653810      -0.12284035       0.02020980      -0.59962117      -0.09373418
H        5.94816578       6.80015885       7.29787871       0.11529861      -0.04875528      -0.15798218      -1.57253969       0.53047643       1.84324794
N        5.47245705       5.47123947       5.55140668      -0.07479829       0.27761027       0.24669978      -0.15375376       0.17039600      -0.34895734
8
Lattice="12.0 0.0 0.0 0.0 12.0 0.0 0.0 0.0 12.0" Properties=species:S:1:pos:R:3:momenta:R:3:forces:R:3 energy=-440.61153029445023 free_energy=-440.61153029445023 stress="0.0010061006531723398 -0.0002071560639966353 0.0004630938896601576 -0.0002071560639966353 0.0011806796283016625 1.5245794025014092e-05 0.0004630938896601576 1.5245794025014092e-05 0.000722052686229286" pbc="T T T"
B        6.49826988       6.54620946       6.38020521      -0.39972030       0.46987298      -0.16408169      -0.13066078      -0.91760483       0.42603464
H        4.52838042       5.92180091       5.29943496      -0.04523498       0.14149336       0.01211488      -0.04878982      -0.05199616       0.20760775
H        5.19260244       4.58931666       6.20155775      -0.02759478      -0.06582323       0.14492246      -0.01122725       0.27240916      -0.13614749
H        5.83176193       5.04077368       4.66942502      -0.01089216      -0.02213796      -0.13670838       0.29380865      -0.06890608      -0.08993593
H        6.61365431       7.41068334       5.58144857       0.28733471       0.02385482       0.17615994       0.24095322      -0.35803123       0.14944879
H        7.47161958       5.85414323       6.66194398       0.15052076       0.33426389       0.05331522      -1.08835047       0.95779267      -0.48472508
H        5.85251588       6.89310107       7.33057498       0.39301789       0.07145735      -0.12885604       0.42822808      -0.32172230      -0.56666303
N        5.40532543       5.40009335       5.55688102      -0.93197723      -0.84679956      -0.52846124       0.31603838       0.48805877       0.49438035
8
Lattice="12.0 0.0 0.0 0.0 12.0 0.0 0.0 0.0 12.0" Properties=species:S:1:pos:R:3:momenta:R:3:forces:R:3 energy=-440.4344314378417 free_energy=-440.4344314378417 stress="0.0005339579033239157 -0.000589045479800051 -0.0002792802526417539 -0.000589045479800051 0.0005267676066413339 -0.00018355410681397514 -0.0002792802526417539 -0.00018355410681397514 0.0007470827972865365" pbc="T T T"
B        6.57860651       6.59124133       6.35262682      -0.99418876      -0.45045880      -1.01193283      -2.46908079      -0.88130913       0.23170147
H        4.55883791       5.89351640       5.34120338      -0.05805318      -0.00564208      -0.05731968       0.34816854       0.02948396       0.41442877
H        5.29065447       4.63512301       6.28009249       0.05688440       0.02228273       0.06711600       0.09028518       0.59713087      -0.23522188
H        5.89549243       5.05555404       4.73444072       0.06262478       0.02239486      -0.05113977       0.01464200       0.24600996       0.54136790
H        6.57119942       7.36487699       5.46802690      -0.06693418      -0.00061263      -0.09487621       0.89281296       0.20017693       0.28231915
H        7.44116209       5.81281156       6.57261039       0.14223019      -0.22121399       0.01089941       0.34209768       0.92950167       0.10504406
H        5.84580000       6.92376853       7.26555928       0.00981858       0.02873886      -0.02573949       1.31205340      -0.02746779      -0.45912535
N        5.48658222       5.46278961       5.63377610       0.22597587       0.71743113       0.55512342      -0.53097897      -1.09352647      -0.88051413
8
Lattice="12.0 0.0 0.0 0.0 12.0 0.0 0.0 0.0 12.0" Properties=species:S:1:pos:R:3:momenta:R:3:forces:R:3 energy=-440.5916272765616 free_energy=-440.5916272765616 stress="-0.00026524169041656115 -0.000270208210488128 -0.000519236043567309 -0.000270208210488128 0.0002078463903800292 9.236545273731941e-06 -0.000519236043567309 9.236545273731941e-06 0.0010236225887035218" pbc="T T T"
B        6.56818743       6.58432188       6.28910229       1.24697263       1.26076974      -0.06957036      -2.15205138       0.35727339      -0.25522352
H        4.55600343       5.89531034       5.39984237      -0.07324134      -0.06458666      -0.06249905       0.53814883      -0.27813408       0.38493043
H        5.31631957       4.66352672       6.37591109      -0.10198430      -0.04930482      -0.07210658       0.01159896       0.38385244      -0.31655549
H        5.87076175       4.99543886       4.76582921      -0.20524377      -0.11790131      -0.04094888      -0.18347572       0.35058838       0.88955875
H        6.62529199       7.33647328       5.38139727      -0.36329571      -0.01388101      -0.12564328       0.40547222       0.01758827       0.40596653
H        7.44399657       5.88609549       6.47464725      -0.06502456      -0.29187677      -0.01159808       1.28680003      -0.11084496       0.45371927
H        5.94842920       6.98915765       7.23417079      -0.29190828       0.02752904      -0.03129282       0.81908062      -0.11065948      -0.46601918
N        5.48595642       5.43988047       5.66820567      -0.82087457      -0.62820848      -0.24599435      -0.72557356      -0.60966396      -1.09637680
8
Lattice="12.0 0.0 0.0 0.0 12.0 0.0 0.0 0.0 12.0" Properties=species:S:1:pos:R:3:momenta:R:3:forces:R:3 energy=-440.4310619841067 free_energy=-440.4310619841067 stress="0.00040570734185843896 0.0013974629382690939 0.0003466743234414663 0.0013974629382690939 0.0006002602087489932 0.0004298307410699792 0.0003466743234414663 0.0004298307410699792 0.00014808533679583057" pbc="T T T"
B        6.52856674       6.59499192       6.25582334       0.03051998       0.00690529      -0.64220021      -0.53600567       0.21540986      -0.76633465
H        4.46079252       5.87481536       5.45058196       0.04810131      -0.10037500      -0.04408547       0.37362728      -0.47913010       0.26040332
H        5.23147337       4.64623877       6.46841024       0.01812353       0.03494215      -0.05383630      -0.12005210       0.11948745      -0.35854983
H        5.73742930       4.89063318       4.79342657      -0.10900209       0.03572525       0.11799360      -0.13015861       0.04930014       0.47007802
H        6.71725083       7.35376123       5.39308897      -0.31333318      -0.08986387      -0.15392261      -0.74843233       0.03056498      -0.42521561
H        7.53920748       6.14421782       6.47948223      -0.32160614      -0.32982979      -0.17096697       0.84769562      -1.46888103       0.27660148
H        6.07824939       7.05647490       7.20657343      -0.25576208       0.02732130      -0.01430423      -0.72823374       0.10767653       0.39455086
N        5.34705744       5.33202715       5.67406134       0.16725527       0.54881372       0.24191910       1.04155955       1.42557217       0.14846641
8
Lattice="12.0 0.0 0.0 0.0 12.0 0.0 0.0 0.0 12.0" Properties=species:S:1:pos:R:3:momenta:R:3:forces:R:3 energy=-440.31482450518234 free_energy=-440.31482450518234 stress="-9.780388445624452e-05 -0.0006768907850386849 -0.00013238860042414012 -0.0006768907850386849 -0.0013067752030349624 -0.0009460446291203683 -0.00013238860042414012 -0.0009460446291203683 -8.603644679775948e-05" pbc="T T T"
B        6.42012731       6.50260928       6.12692552       0.13846832       0.14726857      -0.51345176       4.63992696       2.69815726       0.44915158
H        4.47155135       5.82609938       5.47862663       0.09761472      -0.00852780       0.01466803      -0.27106338      -0.12897273       0.15085379
H        5.32159540       4.73970706       6.54759615       0.02359464       0.10618634      -0.00555546      -0.32892683      -0.15254824      -0.23683523
H        5.79566048       4.93350033       4.89610197      -0.10861604       0.04573078       0.07415331      -0.03757750      -0.56930971      -0.34306838
H        6.65118816       7.26029294       5.22717850       0.08792148      -0.06422457       0.07911228      -1.00203658      -0.52219331       0.33990948
H        7.52844865       6.05315082       6.35229713      -0.27848887       0.36463071      -0.14799673      -1.41700858      -0.44170677      -0.24628383
H        6.12104633       7.04504497       7.10389803       0.11323605       0.02829719      -0.13936828      -0.77192087       0.14555759       0.17600997
N        5.40067039       5.40755592       5.73614635      -0.86795285      -0.47509227      -0.13818707      -0.81139320      -1.02898409      -0.28973738
8
Lattice="12.0 0.0 0.0 0.0 12.0 0.0 0.0 0.0 12.0" Properties=species:S:1:pos:R:3:momenta:R:3:forces:R:3 energy=-440.3887042692672 free_energy=-440.3887042692672 stress="0.0012213670173319684 0.0003235693363134603 0.0005972687571046755 0.0003235693363134603 0.001331295960181074 -0.0002219113823284317 0.0005972687571046755 -0.0002219113823284317 0.00031263282106743694" pbc="T T T"
B        6.54408339       6.67387326       6.11530086      -0.71023335      -0.05633309      -0.58594371       0.88900057      -1.97906705      -0.73713509
H        4.40959175       5.79704311       5.55831207       0.04308732       0.03965955      -0.01172424      -0.82588681       0.48390133       0.03323416
H        5.20582925       4.70188248       6.59840139       0.05305289       0.10653762       0.00261231      -0.00159658      -0.19359162       0.46882576
H        5.53844743       4.74159980       4.92942438      -0.00307824       0.05632908      -0.03324688       0.56249997      -0.31330670      -0.55126688
H        6.50664045       7.29811752       5.07749651       0.27877305       0.21778347      -0.30728715       0.07236453      -0.51242424       0.97685759
H        7.59040825       5.99384933       6.32665099       0.33313137       0.20642651      -0.01120029      -1.83077600       1.31831176      -0.41839930
H        6.07110791       7.17539490       7.07057562       0.18033393       0.15576276       0.14791847       0.03073538      -0.00842282      -0.16706680
N        5.29641164       5.31014214       5.76049100      -1.01190128      -0.57415659      -0.01942184       1.10365894       1.20459932       0.39495056
8
Lattice="12.0 0.0 0.0 0.0 12.0 0.0 0.0 0.0 12.0" Properties=species:S:1:pos:R:3:momenta:R:3:forces:R:3 energy=-440.33069509113113 free_energy=-440.33069509113113 stress="-0.0017426522980145032 5.849069984601409e-05 0.00016669477251907424 5.849069984601409e-05 -0.0016955972586785656 0.0003206586908585661 0.00016669477251907424 0.0003206586908585661 -0.0026365139136972017" pbc="T T T"
B        6.59888726       6.63307992       6.07353916      -1.48243522      -0.41748747      -0.68909537      -1.12685664      -1.82971289       0.52316251
H        4.51588285       5.76096147       5.66359696      -0.05052451       0.02091563      -0.04322614      -0.72338006       0.67708944       0.09882825
H        5.42736304       4.81624077       6.69727920       0.04104667       0.04800291       0.04493267       0.01502303      -0.47617690       1.06475438
H        5.72971065       4.83395138       5.06908237      -0.04791976       0.00806516      -0.03527516       0.44574428      -0.21881040      -0.39825941
H        6.45322429       7.14759463       5.11001326      -0.09351222      -0.14208183      -0.23739116       0.57911276       1.41976119      -2.07935673
H        7.48411715       5.94128167       6.25560189       0.07149124      -0.29288847      -0.05320187       1.43854498       0.26419827       0.20000029
H        6.13427193       7.18375923       6.93091763       0.04083297      -0.09856712      -0.09417450       0.02699026       1.09653972       1.52895519
N        5.48013580       5.44308603       5.88013899       0.65355833       1.03161402       0.25918862      -0.65517860      -0.93288844      -0.93808447
8
Lattice="12.0 0.0 0.0 0.0 12.0 0.0 0.0 0.0 12.0" Properties=species:S:1:pos:R:3:momenta:R:3:forces:R:3 energy=-440.6246147221708 free_energy=-440.6246147221708 stress="0.0003912505618805531 0.0003086057502836004 -8.681464979053088e-05 0.0003086057502836004 0.0008180354950377695 0.0003217731595360948 -8.681464979053088e-05 0.0003217731595360948 0.0003813396702751488" pbc="T T T"
B        6.58347408       6.62186873       6.06376909       1.22795591       1.78568210      -0.63632987      -1.96314277       0.84231659       0.58069128
H        4.42453622       5.75389487       5.82471451      -0.22089548      -0.07714534      -0.05666114      -0.02917490       0.14302195       0.24177962
H        5.38964903       4.80071097       6.89482251      -0.11353019      -0.16487370       0.11977408      -0.05921745      -0.15268974       0.36582955
H        5.56232873       4.67785301       5.19769709      -0.24707090      -0.19572664      -0.03865841       0.27810298      -0.10428048      -0.06641340
H        6.44931523       7.18286595       5.02777849      -0.25981754      -0.22964153       0.20579713       0.25218646      -0.41791717       0.22227007
H        7.57546378       6.05539958       6.25426795      -0.20351343      -0.13639987      -0.05151037       0.35833042      -0.09754049       0.04915315
H        6.15069269       7.32214699       6.97222151      -0.11868161      -0.22539362      -0.35202448       0.72173686      -0.93690897      -0.85615151
N        5.37069434       5.33052959       5.99678726      -0.95000667      -0.59564121      -0.05632630       0.44117842       0.72399831      -0.53715876
8
Lattice="12.0 0.0 0.0 0.0 12.0 0.0 0.0 0.0 12.0" Properties=species:S:1:pos:R:3:momenta:R:3:forces:R:3 energy=-440.25203039614917 free_energy=-440.25203039614917 stress="0.0011922156529452987 0.0009774273992216396 -5.64203029380002e-05 0.0009774273992216396 0.002142558987378276 8.991753831814521e-05 -5.64203029380002e-05 8.991753831814521e-05 0.002028766148304801" pbc="T T T"
B        6.54559792       6.57670526       6.04015318      -0.82638427      -0.86313337      -0.79328420       0.41518231       2.08936073       0.19837081
H        4.37972206       5.72929117       5.92510530      -0.09261730       0.01042618      -0.07962671       0.34575751      -0.51664361       0.34528991
H        5.42296758       4.78533366       7.05065863       0.08542632      -0.00624268       0.10437282      -0.39764430       0.20445526      -0.86345935
H        5.54216456       4.59494683       5.28185582       0.03495896       0.00793437      -0.08583952      -0.10904523      -0.03184928       0.37049324
H        6.55242842       7.13300854       4.94934137      -0.21839020       0.00764278      -0.04173376      -0.76315716      -1.00792732       1.04951350
H        7.62027794       6.13568078       6.20531540      -0.07574970      -0.21217948      -0.03540603      -0.34470332      -0.78647086       0.09605283
H        6.34065789       7.40505317       6.95428201      -0.17111790       0.15591077      -0.02451135      -0.41588268      -1.63675241      -1.30019897
N        5.30362128       5.23175482       6.08824124       0.36695237       1.06256547       0.07897933       1.26949286       1.68582749       0.10393804
8
Lattice="12.0 0.0 0.0 0.0 12.0 0.0 0.0 0.0 12.0" Properties=species:S:1:pos:R:3:momenta:R:3:forces:R:3 energy=-440.3904628371606 free_energy=-440.3904628371606 stress="-0.0011929347888240192 -0.0009169302892721849 0.0002798525895169682 -0.0009169302892721849 -0.0014929500750487051 8.700233361920692e-05 0.0002798525895169682 8.700233361920692e-05 0.0008087898872009569" pbc="T T T"
B        6.48337988       6.53990975       5.97151064      -0.14710365      -0.06066022      -0.84775623       2.26354332       2.30799380      -0.92556042
H        4.46144769       5.81607712       5.98979004       0.00748391       0.14835668      -0.04669275       0.57387415      -0.55727542       0.39266805
H        5.56513854       4.98539501       7.11940571       0.06488498       0.11527534       0.05223473      -0.49332767       0.17268148      -1.07463787
H        5.62001262       4.67900356       5.36965480      -0.06491764      -0.06441258      -0.05790475      -0.25418098       0.29869407       0.81569546
H        6.44082347       6.95388927       4.88059429       0.15449459       0.24449703      -0.17860099      -0.57707718       0.14109339       0.02442079
H        7.53855231       6.13122383       6.09359815       0.02945473       0.30552164      -0.10703092       0.73716294      -0.97311147       0.24419351
H        6.35287961       7.32099644       6.80210737       0.20974065       0.44779480       0.07169200      -0.64858836       0.51134915       0.34634195
N        5.44538764       5.41169991       6.13486282      -1.15976115      -0.97184979       0.22840262      -1.60140622      -1.90142499       0.17687853
8
Lattice="12.0 0.0 0.0 0.0 12.0 0.0 0.0 0.0 12.0" Properties=species:S:1:pos:R:3:momenta:R:3:forces:R:3 energy=-440.26127204823786 free_energy=-440.26127204823786 stress="0.0012351586272053314 0.0010314707234263328 7.653010328672822e-05 0.0010314707234263328 0.000857450513197626 -0.0005481648564871742 7.653010328672822e-05 -0.0005481648564871742 -0.0004141670367587684" pbc="T T T"
B        6.65473210       6.79419024       5.87814601      -0.50871619      -0.17409824      -0.65189075      -0.57748884      -3.56726188      -0.62048960
H        4.35422590       5.75549838       6.10983493       0.02922859      -0.00694240      -0.03821432       0.77730803       0.03475007       0.19824686
H        5.47041278       5.00356228       7.21408819       0.03757007       0.11651025      -0.07734360       0.03207199       0.35023446      -0.48175879
H        5.43029366       4.55035123       5.53571451       0.01957378       0.11869402      -0.00884801       0.28171940       0.91069827       0.58495571
H        6.35498789       7.01050011       4.78591181       0.19997152       0.00517038      -0.14337012      -0.07127293       0.51267743      -0.50758929
H        7.64577410       6.16970589       6.02197487      -0.06553315       0.40476227      -0.14888810      -0.07123875       0.29536158       0.01485228
H        6.33179948       7.44964877       6.71228529       0.28303297       0.06621943      -0.04470555      -0.40544885       1.62707170       1.38536657
N        5.34712182       5.37493245       6.22416882      -0.90093709      -0.36577721       0.22752016       0.03434995      -0.16353163      -0.57358375
8
Lattice="12.0 0.0 0.0 0.0 12.0 0.0 0.0 0.0 12.0" Properties=species:S:1:pos:R:3:momenta:R:3:forces:R:3 energy=-440.5051515691801 free_energy=-440.5051515691801 stress="0.00023653110711261208 -0.0013805470596646927 0.0004928159599603567 -0.0013805470596646927 0.00019648178826896687 0.00012963063817678235 0.0004928159599603567 0.00012963063817678235 6.0927254330288154e-05" pbc="T T T"
B        6.52994775       6.56919187       5.86339249      -1.47077143      -0.65646764      -0.25416500       0.60231296      -1.00183491      -0.12981763
H        4.44944209       5.72219212       6.15699218       0.14347622      -0.10884870      -0.00182793       0.15511278       0.15423669       0.18682081
H        5.58919420       5.04277485       7.24184430      -0.05667577       0.07024739      -0.13589388       0.02780539       0.11693449       0.17656000
H        5.55123069       4.57290831       5.61825288      -0.15008413       0.15400890       0.17189418       0.18512310       0.09307158       0.01331133
H        6.17547174       6.81200333       4.75815570      -0.11051581      -0.33449955      -0.02289222       0.65244490       0.13298798       0.22431927
H        7.55055791       5.87876593       5.99819349      -0.22789484      -0.06214971      -0.06984652      -0.91597734       1.68446855      -0.29483965
H        6.26227728       7.42709169       6.62815521      -0.02990398      -0.41090104      -0.10951867       0.64994149      -0.04367831      -0.11526436
N        5.45280302       5.40425296       6.26327410       0.99228854       1.51392479      -0.46766731      -1.35676328      -1.13618607      -0.06108977
8
Lattice="12.0 0.0 0.0 0.0 12.0 0.0 0.0 0.0 12.0" Properties=species:S:1:pos:R:3:momenta:R:3:forces:R:3 energy=-440.5028689371957 free_energy=-440.5028689371957 stress="0.0010755946936057265 -0.00010644206128110647 -7.635808726319419e-05 -0.00010644206128110647 0.0010590572422670105 -0.00031483003239135283 -7.635808726319419e-05 -0.00031483003239135283 -0.0001759531013291824" pbc="T T T"
B        6.51336860       6.56624865       5.75690593       0.69551449       1.63638203      -1.14890317      -0.35631884       0.29906408       0.71027050
H        4.40392010       5.74173925       6.24813110      -0.02409515      -0.19752538       0.04538209      -0.64766489       0.26897353       0.15977456
H        5.62588120       5.14243514       7.32516788      -0.12947971      -0.07841501      -0.02920391      -0.11136425      -0.17638008       0.52573229
H        5.42083465       4.47515132       5.76101891      -0.26158432      -0.07016576       0.18513696       0.16865317      -0.83522191      -0.52360128
H        6.11800961       6.83841027       4.67483212      -0.15821530      -0.03545291      -0.23981654       0.35807877      -0.56990406       0.07597590
H        7.59607990       6.00900566       5.88014929       0.24041259      -0.28631833      -0.03510818      -1.27306663       0.78487211      -0.18096529
H        6.25206482       7.52484868       6.46858926      -0.09426630       0.04476258      -0.06644136       0.61547318      -1.23767988      -0.33931036
N        5.34289150       5.32021337       6.34299792      -1.17427034      -0.84869701       0.40304314       1.24620949       1.46627621      -0.42787631
8
Lattice="12.0 0.0 0.0 0.0 12.0 0.0 0.0 0.0 12.0" Properties=species:S:1:pos:R:3:momenta:R:3:forces:R:3 energy=-440.29364091476884 free_energy=-440.29364091476884 stress="-0.000988869371753937 0.0019509057107065797 -0.0010425775793540275 0.0019509057107065797 0.0002755590863115409 -0.0007044263824819112 -0.0010425775793540275 -0.0007044263824819112 -0.0011672543692185248" pbc="T T T"
B        6.56886205       6.56563283       5.67391027      -1.09691191      -1.07159709      -0.18846279      -2.14528738       0.80947080       1.55225351
H        4.42073020       5.67736219       6.32664527       0.01197000       0.06653997      -0.11688499      -1.07311245       0.54390457       0.07862649
H        5.67377823       5.12170014       7.38411102       0.13713719       0.10049762      -0.07295679       0.14713598      -0.11509897       0.83318094
H        5.47919468       4.46001680       5.81371596       0.09688816       0.09565926      -0.13244554       0.14559214      -0.88487433      -0.48503060
H        6.22416817       6.75805560       4.61588898      -0.19632569       0.08952464       0.05107205      -0.67578417      -0.29735255      -1.26763703
H        7.57926980       6.13203033       5.77596781       0.14408369      -0.16411365      -0.02177813       1.85517340      -1.35944851       0.27982574
H        6.44255723       7.53998320       6.32234626      -0.20863199       0.08945062      -0.19242346      -0.27814075      -0.38995180       0.24843373
N        5.35931979       5.28135932       6.41786213       0.21463126       0.95700585      -0.20340209       2.02442323       1.69335079      -1.23965279
8
Lattice="12.0 0.0 0.0 0.0 12.0 0.0 0.0 0.0 12.0" Properties=species:S:1:pos:R:3:momenta:R:3:forces:R:3 energy=-440.3725633234085 free_energy=-440.3725633234085 stress="-0.0024915428904132932 -0.0006391671187556985 0.0009729047224222272 -0.0006391671187556985 -0.0017238919072327223 0.0012008304118458176 0.0009729047224222272 0.0012008304118458176 -0.0009515728211762035" pbc="T T T"
B        6.42935970       6.46753558       5.71978412       0.16707010      -0.07280932      -1.13586090       1.54823527       2.51721796      -1.59929143
H        4.53498326       5.80111976       6.39319508      -0.14063090       0.14040333      -0.08149765      -0.54220427       0.27492267       0.19244649
H        5.79566923       5.31609422       7.40010830       0.18411547       0.12358325       0.09784333       0.19145596      -0.09817889       0.76769170
H        5.50237591       4.53725903       5.93837685      -0.02493477      -0.11158645      -0.07150578       0.26001660      -0.33707379      -0.17525276
H        6.07903323       6.49932649       4.59989170       0.05925838       0.24589976       0.19100747      -0.07787411       0.41067098       0.18138099
H        7.46501674       6.02752409       5.78918851      -0.26177885       0.26559655      -0.08236494       1.37304319      -0.55591902      -0.00905385
H        6.40318787       7.46274097       6.34711156       0.02431128       0.09356743      -0.31278587      -0.33285431      -0.02810603      -0.38882705
N        5.52738806       5.47432449       6.40921442      -0.89724568      -0.52301780       0.52504464      -2.41981834      -2.18353388       1.03090590
8
Lattice="12.0 0.0 0.0 0.0 12.0 0.0 0.0 0.0 12.0" Properties=species:S:1:pos:R:3:momenta:R:3:forces:R:3 energy=-440.1899971504955 free_energy=-440.1899971504955 stress="0.001861849812973859 0.0006468402236541344 -0.00023375002764829263 0.0006468402236541344 0.0012769582616944104 -1.3960755339164254e-05 -0.00023375002764829263 -1.3960755339164254e-05 0.0019628956866269017" pbc="T T T"
B        6.54127915       6.63903923       5.54768176      -0.08370971       0.04638808      -0.98086849      -0.60302358      -2.06341950       0.20867007
H        4.38027872       5.71833609       6.59237611      -0.17959244      -0.01917913      -0.02167813       0.56890274       0.27553029      -0.07843303
H        5.74968554       5.32963241       7.56349434       0.00218046      -0.03120802       0.18703176       0.03541518       0.14297973      -0.28814624
H        5.36726316       4.41757780       6.15284272      -0.10183701      -0.10615812      -0.01620196       0.39889449       0.32564060      -0.08809292
H        6.02741685       6.47569489       4.43650566      -0.01363408      -0.03210089      -0.05983289       0.48842000       0.77084223       1.46878534
H        7.61972128       6.07533124       5.63659073      -0.20041339       0.16316811      -0.06633409      -1.01628588       0.57659357       0.06251569
H        6.38868200       7.58242220       6.27248939       0.09417320       0.16522800      -0.02460201       0.00221336      -0.28582929      -0.88993316
N        5.39185838       5.39052161       6.57011396      -0.38828178      -0.02790176       0.13067159       0.12546370       0.25766238      -0.39536577
8
Lattice="12.0 0.0 0.0 0.0 12.0 0.0 0.0 0.0 12.0" Properties=species:S:1:pos:R:3:momenta:R:3:forces:R:3 energy=-440.6419807808161 free_energy=-440.6419807808161 stress="0.0009631527203536787 -0.0005685723826069967 0.0005477174146950586 -0.0005685723826069967 -6.575705227259337e-05 0.00020819096448073047 0.0005477174146950586 0.00020819096448073047 0.0008678755756905668" pbc="T T T"
B        6.43012292       6.48169140       5.55086880      -1.44519786      -1.17492853       0.45734718       0.70318917      -1.66909537      -0.81866278
H        4.48720195       5.83253562       6.47559577      -0.05357193      -0.04211445      -0.01550307       0.78580665      -0.41147296       0.35661579
H        5.88491872       5.43369910       7.51589713       0.03425207       0.07833123      -0.00355684      -0.63259153      -0.07012415      -1.02791904
H        5.53283045       4.50244866       6.04554486      -0.05676633      -0.00622823      -0.02448556      -0.08257626       0.52896846       0.59203972
H        5.92592518       6.36512513       4.48410287      -0.23508591      -0.37947935      -0.23749007       0.13216484       0.33635568       0.37880411
H        7.51279805       5.95884051       5.56916696      -0.02404711      -0.11631407      -0.03930034      -0.68311682       0.60022906       0.09359188
H        6.34240459       7.49755134       6.06197316      -0.10480831       0.03285624       0.34469412       0.04771149       0.91945366       0.24235718
N        5.49193597       5.46174782       6.51211165       1.03034781       1.76316396      -1.31764223      -0.27058754      -0.23431438       0.18317314
8
Lattice="12.0 0.0 0.0 0.0 12.0 0.0 0.0 0.0 12.0" Properties=species:S:1:pos:R:3:momenta:R:3:forces:R:3 energy=-440.5279569385958 free_energy=-440.5279569385958 stress="0.00034310102551129865 1.4744649377737452e-05 -0.00016707799469122724 1.4744649377737452e-05 7.33579191602404e-05 -0.0007094082079350051 -0.00016707799469122724 -0.0007094082079350051 -0.000459306750559124" pbc="T T T"
B        6.42862608       6.49138591       5.47600041       0.48433513       1.44228082      -1.69909132       0.33130176      -1.78155668       0.85984375
H        4.51917149       5.89223618       6.57503838      -0.03102729      -0.06530355       0.02307520       0.65426794      -0.48181152       0.30756057
H        6.02080777       5.62290146       7.51109276      -0.06664583       0.00659656      -0.03851808      -0.78190198      -0.35711451      -0.64730712
H        5.52418501       4.46794002       6.24653450      -0.12362227      -0.03800267       0.09017351      -0.04816020       0.87888119       0.42268877
H        5.90387325       6.43388345       4.48890724       0.02030488      -0.15373148      -0.20836211      -0.77488687      -0.53037222      -1.51273432
H        7.48082851       5.99815038       5.52671069       0.02556758      -0.03523810      -0.17982752       0.22112660       0.09327966      -0.09810691
H        6.34615709       7.53205998       5.87011874       0.04326643      -0.11146603      -0.06398652       0.02716526       1.59319564       1.09417829
N        5.50412876       5.48419985       6.58407340      -1.17878605      -0.89498396       1.26824382       0.37108749       0.58549844      -0.42612303
8
Lattice="12.0 0.0 0.0 0.0 12.0 0.0 0.0 0.0 12.0" Properties=species:S:1:pos:R:3:momenta:R:3:forces:R:3 energy=-440.36165480489996 free_energy=-440.36165480489996 stress="0.0014030210634515168 0.00022818933304251428 -0.0008162979610629834 0.00022818933304251428 0.0015666667336856263 -0.000677584077164258 -0.0008162979610629834 -0.000677584077164258 0.0011485101566486619" pbc="T T T"
B        6.44330793       6.46291104       5.33948693      -1.02232764      -0.34300547       0.18801998      -0.66400273       0.66231202       1.61324839
H        4.45069193       5.75010993       6.69912895       0.13519704       0.02016494      -0.15313860       0.51862578       0.05336903      -0.07884619
H        5.90964241       5.50204757       7.61480417       0.02992277       0.07072008      -0.19323208       0.02675075       0.14833208      -0.20220540
H        5.47825220       4.40797165       6.34377895       0.02429370       0.20964899      -0.07897794       0.07390341       0.58298235       0.12217233
H        5.78003578       6.33385226       4.38519583       0.06039042       0.03121358       0.18205994       0.08207407      -0.49356187      -0.11854043
H        7.54930807       6.01535639       5.37947458      -0.11100406      -0.07043561      -0.04317502      -0.72064756       0.01700629      -0.01991774
H        6.31765656       7.59202835       5.76798624      -0.05422563      -0.30063793      -0.29035849       0.25419735      -1.10370191      -0.10171919
N        5.45988086       5.42348007       6.66446479       0.15197747       0.52506606      -0.37956399       0.42909893       0.13326201      -1.21419177
8
Lattice="12.0 0.0 0.0 0.0 12.0 0.0 0.0 0.0 12.0" Properties=species:S:1:pos:R:3:momenta:R:3:forces:R:3 energy=-440.2723946361409 free_energy=-440.2723946361409 stress="-0.0008456812959505387 -0.0007742680917034755 0.0015785385977273737 -0.0007742680917034755 -0.00026597763211089594 0.0017616492809566305 0.0015785385977273737 0.0017616492809566305 -0.001874065566488755" pbc="T T T"
B        6.30237928       6.29609818       5.48973964      -0.39182018      -0.41496190      -0.55693357       1.72648970       3.51714587      -2.70271251
H        4.59760392       5.81346068       6.70535430       0.08945524      -0.10019915       0.02164781      -0.38189621       0.37091429      -0.03661954
H        6.05758528       5.65545644       7.50689742       0.02542128       0.04860058      -0.12809380       0.31180606       0.15523657       0.42550381
H        5.57141706       4.51754205       6.38959733      -0.06901672       0.15204744       0.11326333       0.14920424      -0.61687892      -0.20118265
H        5.67497867       6.08188283       4.49310258      -0.11902082       0.14044000      -0.03305008       0.60670436       0.27165727       0.48383750
H        7.40239608       5.87367103       5.49369337       0.20434077      -0.02638072      -0.03974850      -0.17180426       0.13380161      -0.34047169
H        6.28556407       7.48245795       5.85018385      -0.14307948       0.07846994      -0.09466302      -0.00217744      -1.61036206      -0.72740026
N        5.60307173       5.54611118       6.57116032      -0.34135753       0.25732564      -0.01099161      -2.23832645      -2.22151462       3.09904535
8
Lattice="12.0 0.0 0.0 0.0 12.0 0.0 0.0 0.0 12.0" Properties=species:S:1:pos:R:3:momenta:R:3:forces:R:3 energy=-440.3558853283047 free_energy=-440.3558853283047 stress="-0.0013306812234366227 0.0012036648193054725 -0.0009533833687444985 0.0012036648193054725 -0.00040516643859299866 -0.0009350705421883215 -0.0009533833687444985 -0.0009350705421883215 0.0008096335811736396" pbc="T T T"
B        6.38972126       6.41836337       5.28234442      -0.08161606       0.05222520      -1.15291382      -1.57552705      -0.44352147       1.39193905
H        4.58275766       5.85243239       6.82198033      -0.02364607      -0.12498427       0.01808792      -0.90863692       0.49634239       0.03387659
H        6.08223731       5.72181471       7.61646862      -0.08477463      -0.08404743       0.05693542       0.41520059       0.17337883       0.52010908
H        5.51554647       4.47187266       6.60301670      -0.12615847       0.00813314       0.09107967       0.20537067      -1.06897749      -0.35366101
H        5.74544843       6.06099136       4.38353138      -0.16851324      -0.02755794      -0.08037343      -0.40102703       0.20065130      -0.13083930
H        7.41724234       5.96886909       5.28662813       0.08921346      -0.04469659       0.03128648       1.54712952      -0.75335229       0.16450565
H        6.36300940       7.52812734       5.65268710      -0.02084205       0.31343426      -0.02984997      -0.33411150       0.02819921      -0.08941028
N        5.54124123       5.48426054       6.76838169      -0.28163488       0.03427884       0.38324011       1.05160172       1.36727953      -1.53651977
8
Lattice="12.0 0.0 0.0 0.0 12.0 0.0 0.0 0.0 12.0" Properties=species:S:1:pos:R:3:momenta:R:3:forces:R:3 energy=-440.65178299700085 free_energy=-440.65178299700085 stress="-0.00100459798401751 0.0004033204211824482 -0.00040794835240736625 0.0004033204211824482 -0.0012700187984836582 -0.0001957609153333343 -0.00040794835240736625 -0.0001957609153333343 -8.746595540198438e-05" pbc="T T T"
B        6.31340130       6.33117308       5.34844061      -1.07701355      -1.00378996       0.89175640      -0.54751236      -0.86289623      -0.19610210
H        4.62388991       5.88832910       6.79716938      -0.07317761       0.02280218      -0.09744206      -0.77187385       0.31281441       0.19760134
H        6.15837671       5.78740974       7.55487951       0.12631431       0.11791720      -0.11365478       0.36258292       0.13958058       0.74481378
H        5.63354090       4.56068851       6.47888437      -0.01820755      -0.03068906      -0.09416301      -0.01444399      -0.71667031       0.12062185
H        5.66411799       5.97174359       4.44512049       0.06379765      -0.12710144       0.17289395      -0.27080103       0.18235322       0.06455675
H        7.37611009       5.91220449       5.24765950      -0.40551831       0.09309567       0.05102312       0.72299642      -0.32943627       0.29438592
H        6.28170454       7.43931149       5.59379573       0.02814068      -0.09223534       0.08195027      -0.14210621       1.09016277       0.13694953
N        5.60189142       5.56869482       6.71360957       0.69558754       1.13990241      -1.53781601       0.66115809       0.18409183      -1.36282705
8
Lattice="12.0 0.0 0.0 0.0 12.0 0.0 0.0 0.0 12.0" Properties=species:S:1:pos:R:3:momenta:R:3:forces:R:3 energy=-440.6576789703528 free_energy=-440.6576789703528 stress="0.0012370853024787805 -0.0003146711973614326 0.00024308896945805165 -0.0003146711973614326 0.00032841999313158054 -1.5218540950494623e-06 0.00024308896945805165 -1.5218540950494623e-06 0.0002842491158841558" pbc="T T T"
B        6.24440746       6.30234887       5.35488885       0.30982437       0.53699684      -1.66571333       0.54094493      -0.92137262      -0.88327879
H        4.61620162       5.94795121       6.89273565      -0.19977834       0.02723821      -0.00661815       0.01981556       0.00823846       0.11460900
H        6.21235488       5.90472890       7.54697406       0.10866239       0.07991673       0.09698178       0.03435298       0.02346273       0.37308463
H        5.58993911       4.54471605       6.70075066      -0.06555192      -0.13132086      -0.00516875       0.04972514       0.03785676      -0.04353856
H        5.51702221       5.95220474       4.45302594       0.10112288      -0.06481903      -0.16976829       0.67628870       0.17954969       0.82908442
H        7.38379838       5.84413245       5.29639398      -0.13223356       0.18285045      -0.32247827      -1.41560352       0.66260657       0.03573524
H        6.16866851       7.45528395       5.55770979       0.09080165      -0.04842148      -0.09603527       0.16494521      -0.06205775       0.06498942
N        5.59779630       5.59555592       6.76116754      -0.84157754      -0.46823329       1.55400043      -0.07046900       0.07171616      -0.49068537
8
Lattice="12.0 0.0 0.0 0.0 12.0 0.0 0.0 0.0 12.0" Properties=species:S:1:pos:R:3:momenta:R:3:forces:R:3 energy=-440.4065903258829 free_energy=-440.4065903258829 stress="0.0015387898197928573 -0.0002613331191905233 -0.0001647991683408412 -0.0002613331191905233 0.0006889035971509559 -0.000775502910358296 -0.0001647991683408412 -0.000775502910358296 0.0016107876163046046" pbc="T T T"
B        6.28811641       6.32569486       5.12544147      -0.67343682      -0.17798219       0.47715662      -0.05856026      -1.34769383       1.64420473
H        4.60640985       5.92072038       6.89764240      -0.08485730       0.00233439      -0.07774542       0.68571395      -0.08028270      -0.13973210
H        6.19988074       5.86987233       7.61150459       0.11519420       0.05950602       0.02126090      -0.28902170      -0.01271456      -0.71380382
H        5.60304835       4.52703007       6.69915763      -0.01516431      -0.04497932      -0.06694541       0.11996734       0.51734696      -0.16285559
H        5.46829837       5.91026654       4.38849541      -0.20398753      -0.15237014      -0.12700051       0.37079456      -0.19994411      -0.07483035
H        7.39359015       5.82221654       5.15864387       0.08604451      -0.17320578       0.04420424      -1.05627351       0.66238015      -0.36545666
H        6.16259488       7.47296993       5.31159142      -0.04068995       0.04305696      -0.07420989       0.32009507       0.15488651       0.16557093
N        5.61217591       5.58893142       6.76462421       0.21107181       0.55368704      -0.78912319      -0.09271546       0.30602157      -0.35309714
8
Lattice="12.0 0.0 0.0 0.0 12.0 0.0 0.0 0.0 12.0" Properties=species:S:1:pos:R:3:momenta:R:3:forces:R:3 energy=-440.39049016387685 free_energy=-440.39049016387685 stress="-0.00038160807624712913 -0.00047192322139825505 0.0006964853357984733 -0.00047192322139825505 -0.000557972655274126 0.0009766326600146587 0.0006964853357984733 0.0009766326600146587 -0.0027982597806796928" pbc="T T T"
B        6.21475880       6.22654447       5.31258152      -0.25302691       0.08330717      -0.61585205       0.95891410       1.53157521      -1.20743873
H        4.71218462       5.99976401       6.89635861      -0.00654127      -0.04108106       0.00653866       0.66154200      -0.09080483      -0.16450205
H        6.36205014       6.04805257       7.44483159       0.01516674       0.02296434      -0.04183079      -0.70200069      -0.35045214      -0.57164181
H        5.73057859       4.63195774       6.66816995      -0.07553537      -0.00120210       0.15669951      -0.03107130       0.71180466       0.13391230
H        5.48064162       5.84857672       4.55516841      -0.21194325       0.03316936       0.05284503      -0.79319054      -0.60549618      -1.35842440
H        7.28781538       5.83082465       5.22660831       0.16639594      -0.16834874       0.10127126       0.64754765      -0.17549714      -0.38399220
H        6.14782384       7.36804226       5.43609419      -0.21060294      -0.11577311       0.02777655       0.21718703       0.71368341      -0.25853925
N        5.71505870       5.70597446       6.65181344      -0.02231668       0.29566300      -0.27259361      -0.95892826      -1.73481299       3.81062615
8
Lattice="12.0 0.0 0.0 0.0 12.0 0.0 0.0 0.0 12.0" Properties=species:S:1:pos:R:3:momenta:R:3:forces:R:3 energy=-440.4418938482274 free_energy=-440.4418938482274 stress="-1.0976743244125694e-05 0.0005218346517898718 -0.00048658227714838144 0.0005218346517898718 0.0012546241952112395 -0.0005544032266356664 -0.00048658227714838144 -0.0005544032266356664 0.0019263631694553837" pbc="T T T"
B        6.23786289       6.23736150       5.15317267       0.01814168       0.03279445      -1.30194385      -0.54147591       0.72496014       1.03329314
H        4.69707842       5.99930272       6.97951758       0.01230689      -0.13520310       0.06983104       0.61204910      -0.18416487       0.06436794
H        6.35105064       6.05274718       7.58821241      -0.08655190      -0.10269281      -0.01596074      -0.40145784      -0.29987761      -0.38542646
H        5.69536518       4.56635295       6.87897523      -0.04468816       0.09822898       0.00965931       0.11682215       0.81044024       0.00613736
H        5.48454795       5.74984656       4.41178759      -0.01815370       0.14333715       0.20774758      -0.42732836      -0.04738361       0.13855363
H        7.30292158       5.84680017       5.00123056      -0.05714127      -0.02206612       0.04303279       0.79814366      -0.54023029       0.31227108
H        6.22773550       7.43364705       5.22365301      -0.16573240      -0.17790685      -0.03848146      -0.34790310      -0.79283364       0.22027058
N        5.69019643       5.63394035       6.86874583      -0.26008573       0.27284308       0.43754659       0.19115030       0.32908964      -1.38946727
8
Lattice="12.0 0.0 0.0 0.0 12.0 0.0 0.0 0.0 12.0" Properties=species:S:1:pos:R:3:momenta:R:3:forces:R:3 energy=-440.5877733147844 free_energy=-440.5877733147844 stress="0.00027238124012436167 0.00042506199087678315 0.00017160054554671487 0.00042506199087678315 0.0013716347738091685 0.0003057601647207344 0.00017160054554671487 0.0003057601647207344 0.00038401579360972213" pbc="T T T"
B        6.16690030       6.15109552       5.27295061      -1.00459936      -0.75342471       1.35657296       0.28104600       0.79515824      -1.67032940
H        4.74640449       5.98155610       7.02270792       0.12543662      -0.03500548      -0.15054209       0.09458719       0.01273517       0.11866574
H        6.40641692       6.07783922       7.50564013       0.00413858       0.03813473      -0.27010864       0.07884451       0.02161761       0.25889363
H        5.77756251       4.62026941       6.81694383      -0.04219605       0.19371552      -0.02183463       0.02328605       0.01994663       0.22756459
H        5.41765928       5.58826821       4.49435987       0.07446204       0.03281650       0.04550875       0.40882579       0.81621541       1.03352220
H        7.25359551       5.73416134       5.09035795      -0.13126963       0.04257526       0.00706591      -0.12134550      -0.05449142       0.37236325
H        6.20749628       7.37973059       5.22920533       0.02134609       0.00926299      -0.08477757      -0.50622107      -1.56418499       0.25301596
N        5.73221815       5.67075949       6.81726454       0.32709415       0.58556192      -1.49361167      -0.25902297      -0.04699665      -0.59369596
8
Lattice="12.0 0.0 0.0 0.0 12.0 0.0 0.0 0.0 12.0" Properties=species:S:1:pos:R:3:momenta:R:3:forces:R:3 energy=-440.68541847213334 free_energy=-440.68541847213334 stress="-0.00047967198437035496 0.00032286538328622007 -0.00017954640354754902 0.00032286538328622007 -0.0008109849097311471 0.00010974369004384465 -0.00017954640354754902 0.00010974369004384465 0.0001328303228549006" pbc="T T T"
B        6.14046866       6.14201195       5.18885849      -0.20130516      -0.06421475      -1.32434346      -0.86133256      -0.52444541       0.44492661
H        4.78668456       6.07175780       7.02201146       0.03045277      -0.06907483      -0.05507192      -0.56861905       0.31055022       0.08990771
H        6.42858015       6.18488678       7.43776731      -0.02476164       0.00477631      -0.00792247       0.43828035       0.30703621       0.45771126
H        5.76184878       4.70157283       6.96180338      -0.09752799       0.08521076       0.01833483       0.11689178      -0.93783226       0.02989637
H        5.30500750       5.57796408       4.56223269      -0.04406834      -0.16558945      -0.33459968       0.32023219       0.39776888       0.12764442
H        7.21331544       5.73895692       5.01023024       0.03678912       0.08857370      -0.40538484       0.32198875      -0.11227037       0.05016570
H        6.05746284       7.29842717       5.25931725       0.11464703       0.38983628      -0.26064841      -0.02571218       0.29990571      -0.36200630
N        5.74178782       5.72332138       6.81397625      -0.48643536      -0.14741250       1.71231989       0.25827073       0.25928700      -0.83824577
8
Lattice="12.0 0.0 0.0 0.0 12.0 0.0 0.0 0.0 12.0" Properties=species:S:1:pos:R:3:momenta:R:3:forces:R:3 energy=-440.3089362265878 free_energy=-440.3089362265878 stress="-0.001441512621211066 0.00013760449289746147 -0.00031369989960845866 0.00013760449289746147 -0.0024320455806580463 -0.0007746118526643869 -0.00031369989960845866 -0.0007746118526643869 0.0011048919292396093" pbc="T T T"
B        6.13522820       6.15902432       4.98729633      -0.49231782      -0.30372717       0.26882769      -0.37322561      -2.19260951       2.71080303
H        4.81684907       6.07765505       7.05823350      -0.04683002      -0.06739771       0.01707316      -1.14829648       0.57664221       0.08352621
H        6.45115614       6.19364340       7.45953192       0.07048955       0.04059166      -0.13032536       0.66605606       0.53241779       0.25157359
H        5.80051040       4.74185830       6.93999293      -0.02560978      -0.01123842      -0.10113627       0.16110268      -1.15770799      -0.15898298
H        5.26375481       5.56395644       4.54046808      -0.00191831      -0.15175100       0.10613954      -0.40808796      -0.50274167      -0.67232380
H        7.18315093       5.67900999       4.99874354      -0.25742068       0.04267259       0.02386470       0.60342252       0.01933663      -0.60365377
H        5.99418089       7.25814170       4.99309997       0.02973648      -0.12696902       0.13563841       0.07953967       2.26068605      -0.14585413
N        5.76282948       5.76192789       6.82090004      -0.02146039       0.71320697      -1.04889921       0.41948911       0.46397649      -1.46508815
8
Lattice="12.0 0.0 0.0 0.0 12.0 0.0 0.0 0.0 12.0" Properties=species:S:1:pos:R:3:momenta:R:3:forces:R:3 energy=-440.39936700815406 free_energy=-440.39936700815406 stress="0.0006893186295600297 -0.0005072098374082642 0.00045624171997044386 -0.0005072098374082642 -0.00015264086062173499 0.00026111068342250885 0.00045624171997044386 0.00026111068342250885 -0.0030708498077315293" pbc="T T T"
B        6.01259176       6.04397304       5.28352081      -0.36321493       0.29442188      -1.53918671       1.28845338       0.15951568      -3.85817114
H        4.84814977       6.14511402       7.07184607      -0.17006161       0.03991420      -0.03881608      -0.59843070       0.31131993       0.21765276
H        6.50765527       6.31007809       7.31047802       0.06600664       0.08791814       0.04156358       0.44242671       0.37167290       0.51859807
H        5.83520234       4.79413972       7.04901104      -0.08765869      -0.06725401       0.24885140       0.07848862      -0.37054184      -0.05050297
H        5.15199772       5.48651258       4.68952198      -0.16026998      -0.08476227       0.22682035       0.47282629      -0.09957189       0.22688960
H        7.15185023       5.62038557       5.07288730      -0.12213752      -0.11226327       0.24628900      -1.53993853       0.61583131       0.04470345
H        5.88178669       7.20586028       5.10794642      -0.15474290      -0.23939800       0.21943574       0.35220461      -0.25829641       0.12078231
N        5.78219669       5.80323894       6.76571663       0.15243712       0.23394260      -0.22599598      -0.49603037      -0.72992969       2.78004792
8
Lattice="12.0 0.0 0.0 0.0 12.0 0.0 0.0 0.0 12.0" Properties=species:S:1:pos:R:3:momenta:R:3:forces:R:3 energy=-440.2158357652306 free_energy=-440.2158357652306 stress="0.0006990741248919256 -0.0001300704898815647 -0.000657665184453678 -0.0001300704898815647 0.0007125220145822257 -0.0003574095738541067 -0.000657665184453678 -0.0003574095738541067 0.0031541511477265138" pbc="T T T"
B        6.05568792       6.02459227       5.06941336      -0.47659611      -0.04359770      -0.93608291       0.30805269       1.26709263      -0.62654107
H        4.87391347       6.19601044       7.19841564      -0.19154481      -0.03606660       0.16371720       0.71955232      -0.12950617      -0.11072898
H        6.61447333       6.39477706       7.44566547       0.16304422       0.06150378       0.08822484      -0.22825249      -0.12802838      -0.09838720
H        5.92417652       4.80187366       7.16188341      -0.00482200      -0.09539981       0.00480333       0.05620777       0.44246412       0.02579085
H        5.18965563       5.42857783       4.55433453      -0.23429322      -0.03014901      -0.04181576      -0.23045130      -0.35292168       0.65473792
H        7.12608653       5.67176759       4.66328782       0.26803336      -0.18594967      -0.05967662      -0.42781558      -0.20346702       1.23793942
H        5.93949738       7.19812634       4.79593407      -0.19795930      -0.04357433      -0.06341196      -0.05144208      -0.78633235       0.98271961
N        5.85231347       5.84144562       6.97016026      -0.24482580       0.54016127      -0.05436113      -0.14585133      -0.10930114      -2.06553055
8
Lattice="12.0 0.0 0.0 0.0 12.0 0.0 0.0 0.0 12.0" Properties=species:S:1:pos:R:3:momenta:R:3:forces:R:3 energy=-440.5788162681478 free_energy=-440.5788162681478 stress="0.00015290857130053774 0.00029073299500361957 -2.1233023186511987e-05 0.00029073299500361957 0.000952722144487587 -0.0002572859676494333 -2.1233023186511987e-05 -0.0002572859676494333 3.74067510868551e-05" pbc="T T T"
B        6.00253388       5.99193573       5.19414764      -0.84930364      -0.56549755       2.22721306       0.37815749       1.28598000      -0.52690597
H        4.95462756       6.25748754       7.20825881      -0.06862855       0.00459744      -0.15774006       1.08521998      -0.33622278      -0.15316536
H        6.72844134       6.50828816       7.24204964       0.10807679       0.11496270      -0.24193396      -1.08217505      -0.75532950      -0.14509261
H        6.05082558       4.87132208       7.10476406      -0.02210294      -0.01109700      -0.04545473      -0.11483075       0.93783231       0.10868841
H        5.20134051       5.30188775       4.75795036       0.01950995       0.16613862      -0.21343585      -0.78799944      -0.32647090      -0.08359103
H        7.04537244       5.60569241       4.95347730       0.02972505       0.06530020      -0.40670434       0.97636551      -0.58173080      -0.04495782
H        5.96951597       7.12867792       4.84026361      -0.05134406      -0.15622013      -0.24423093      -0.46307382      -0.47876749       0.55569818
N        5.91447387       5.90638555       6.86249734      -0.14552223       0.55975624      -1.87559893       0.00833609       0.25470917       0.28932621
8
Lattice="12.0 0.0 0.0 0.0 12.0 0.0 0.0 0.0 12.0" Properties=species:S:1:pos:R:3:momenta:R:3:forces:R:3 energy=-440.4968095666635 free_energy=-440.4968095666635 stress="-0.00014368610688564153 0.0004653959558732787 0.00023055853974219596 0.0004653959558732787 0.0009034882637123217 -0.0001567690788311802 0.00023055853974219596 -0.0001567690788311802 0.0002628255897047946" pbc="T T T"
B        5.97241937       5.89951486       4.99801894      -0.89354964      -0.50585841      -1.20209554      -1.03725610       0.44341386       2.37458035
H        5.01324730       6.31579613       7.01678212       0.00878277      -0.07307810      -0.07677210       0.89834594      -0.33648636      -0.03322605
H        6.74637822       6.59673799       7.12391020      -0.01747939      -0.00731446      -0.06704205      -0.95236187      -0.90205813      -0.42950435
H        6.09472767       4.95268300       7.20976434      -0.06092966       0.02229621      -0.01771194      -0.04004358       0.96206004      -0.55774325
H        5.08403729       5.16447226       4.86852880       0.18531206       0.06642198      -0.28288848      -0.33489546       0.04765315      -0.70055135
H        6.98675270       5.47035916       4.79023566      -0.28763991       0.13902343      -0.35778985       1.51191786      -0.50876485      -0.75346301
H        5.81831094       7.04731700       4.84621855       0.05927659      -0.00797923      -0.59554671      -0.13203294      -0.06410695      -0.69886959
N        5.97813355       5.92452260       6.75848263      -0.00305091       0.54982196       1.61293024       0.08632615       0.35828924       0.79877724
8
Lattice="12.0 0.0 0.0 0.0 12.0 0.0 0.0 0.0 12.0" Properties=species:S:1:pos:R:3:momenta:R:3:forces:R:3 energy=-440.24141463030105 free_energy=-440.24141463030105 stress="0.0014986690561447876 7.48581769532774e-05 -8.591420940032993e-05 7.48581769532774e-05 0.0013182953067390132 0.00021202777434164977 -8.591420940032993e-05 0.00021202777434164977 0.0013219421569899711" pbc="T T T"
B        5.92744153       5.84395004       4.89857286      -0.54408149      -0.42960599       0.18669138      -0.80508550      -1.03205060       2.83266553
H        5.12978495       6.33680393       7.28656188       0.13329579      -0.10335231      -0.02979978       0.08858975      -0.04691256      -0.59405022
H        6.80874817       6.60452309       7.09078515      -0.13727887      -0.10320372      -0.24652521      -0.17006908      -0.02835407      -0.34965030
H        6.20912228       5.00828526       7.14615070      -0.06873391       0.21445658      -0.12163751      -0.17613667       0.51845460      -0.31380560
H        4.97025010       5.05321770       4.88162581       0.11718015      -0.03287115       0.21589558       1.31829853       1.09942852      -0.53286767
H        7.02974990       5.34803928       4.80205625      -0.31513598       0.10437034       0.13872260      -0.92025267       0.64721224      -0.56215436
H        5.69165944       6.99171474       4.71343812       0.06607243       0.00215918       0.26776104       0.29715979      -0.43901881      -0.69898983
N        6.00034741       5.99124574       6.78744585      -0.26908349       0.53292213      -1.40632376       0.36749586      -0.71875933       0.21885245
8
Lattice="12.0 0.0 0.0 0.0 12.0 0.0 0.0 0.0 12.0" Properties=species:S:1:pos:R:3:momenta:R:3:forces:R:3 energy=-440.44396417931284 free_energy=-440.44396417931284 stress="0.000819103134446957 -0.00022979874830623317 -5.815970063577109e-05 -0.00022979874830623317 -0.0005301848841564717 -0.0002697553357024342 -5.815970063577109e-05 -0.0002697553357024342 -0.0023674178261281105" pbc="T T T"
B        5.94209051       5.86576415       5.19829671      -0.44312406      -0.32791792      -1.25517471      -0.22331271      -2.26609997      -3.42774252
H        5.21283429       6.45927403       7.07993619       0.10645518      -0.10223872      -0.01230137      -0.27314506       0.17000975       0.35824915
H        6.86366713       6.74520598       6.90930051      -0.10306358      -0.06443501       0.05737635       0.66008889       0.65503806       0.20102429
H        6.32805664       5.20904338       7.28095963      -0.11563333       0.31446997       0.08138160       0.06189683      -0.61842458       0.03125107
H        5.00584927       5.11402275       5.01721490      -0.41502534      -0.35787819       0.25856044       0.99543328       0.50412363       0.41424182
H        6.99415073       5.38650029       4.81884327       0.16765657      -0.21456040       0.07198006      -1.08390855       0.61737555       0.21437114
H        5.65544945       6.88597725       4.71904037      -0.22167109       0.41266123       0.17219203       0.33352572       0.39338605       0.09601958
N        6.10977902       6.06146250       6.71782671       0.00888515       0.52436633      -0.36703494      -0.47057840       0.54459152       2.11258548
8
Lattice="12.0 0.0 0.0 0.0 12.0 0.0 0.0 0.0 12.0" Properties=species:S:1:pos:R:3:momenta:R:3:forces:R:3 energy=-440.1139657547115 free_energy=-440.1139657547115 stress="-0.0024184848148056117 -1.140392682510018e-05 0.0005278949126612863 -1.140392682510018e-05 -0.003098708938117792 0.0012201550805713138 0.0005278949126612863 0.0012201550805713138 0.0019739523620236417" pbc="T T T"
B        5.87674662       5.83247870       5.16228246      -0.72804953       0.18075140      -0.63026944       1.30287614       0.42350809       1.10844742
H        5.28636781       6.59353981       7.34043521       0.06141360      -0.07104741       0.11661146      -0.94834627       0.51967366       0.42572122
H        6.96112404       6.87660066       7.04337458       0.06324114      -0.02331078      -0.07092840       0.73472916       0.78690814       0.03143833
H        6.40088874       5.31448577       7.38299100      -0.02039630       0.10059381       0.04609911       0.35137298      -1.45604851       0.72940602
H        5.03887596       5.12339934       5.08822921      -0.07988466      -0.02411860      -0.15636870      -1.76494980      -1.71348885       0.68695706
H        6.82707636       5.42472180       4.68655078       0.02899683      -0.12852885       0.08034961       1.22394259      -0.49387829       0.41879248
H        5.59871359       6.75727737       4.61700900      -0.17097659      -0.37269139      -0.05060597      -0.45834655       2.26801257      -0.19138433
N        6.17365460       6.22276040       6.99175356      -0.15018308       0.51924392      -0.30866238      -0.44127825      -0.33468681      -3.20937819
8
Lattice="12.0 0.0 0.0 0.0 12.0 0.0 0.0 0.0 12.0" Properties=species:S:1:pos:R:3:momenta:R:3:forces:R:3 energy=-440.54049494754577 free_energy=-440.54049494754577 stress="5.0371710149182416e-05 1.908100558200708e-06 -0.0004995412700065595 1.908100558200708e-06 0.000683908594423965 -0.0005100164711982771 -0.0004995412700065595 -0.0005100164711982771 -0.0008086002378697113" pbc="T T T"
B        5.87367462       5.85329089       5.23640166      -0.13689529       0.15898911       1.66564958       0.21962992       1.22894808      -1.74585990
H        5.38809263       6.70859229       7.24821337      -0.21964676      -0.04713888      -0.17844107      -0.86445067       0.48323601       0.52122886
H        6.99391747       6.95307564       6.73120111       0.04554224       0.04687654      -0.30754718       0.43140371       0.53304774       0.20992707
H        6.50293521       5.43352179       7.28384719      -0.03402554      -0.12410662      -0.01732502       0.24282615      -0.72217932       0.70346400
H        5.00608253       5.04481647       5.32984263       0.06726564       0.25379240      -0.25006374       0.35272362       0.44629016      -0.28921812
H        6.92758984       5.45642330       4.79033063      -0.30316758       0.00985374      -0.31923689      -0.99486896       0.07284397       0.50204601
H        5.61090352       6.95518353       4.71615281      -0.08664218      -0.45421143       0.00600285      -0.01611113      -1.81007143       0.63115245
N        6.20350408       6.28525243       6.78711359      -0.30359251       0.33235478      -1.54868336       0.62884736      -0.23211521      -0.53274037
8
Lattice="12.0 0.0 0.0 0.0 12.0 0.0 0.0 0.0 12.0" Properties=species:S:1:pos:R:3:momenta:R:3:forces:R:3 energy=-440.3593090955381 free_energy=-440.3593090955381 stress="-8.261325847605343e-05 -0.00012647423938702134 0.0003292718654703293 -0.00012647423938702134 0.0011377993197992527 -0.0005638785469415525 0.0003292718654703293 -0.0005638785469415525 0.0005194968434919966" pbc="T T T"
B        5.77665982       5.74434462       5.06050410      -1.03107304      -0.70568643      -0.93876957       0.60329034       1.74370388       2.12068859
H        5.38693834       6.72724120       7.11405394      -0.20940684       0.02714673       0.12434948      -0.08066103       0.05184141      -0.00458603
H        7.00413773       7.04105436       6.70926874       0.15370584       0.10859253      -0.15441358       0.12630050       0.04125432      -0.33032795
H        6.56136050       5.52781403       7.35533219       0.00560871      -0.19844499       0.03137252      -0.07227301       0.01729619      -0.48286772
H        4.99586227       4.95894564       5.47397036      -0.08068021      -0.07463814      -0.09832086      -0.26610422       0.17441359      -0.96553668
H        6.82254191       5.31582881       4.76887465       0.08207292      -0.08346583      -0.25435989      -0.08613499      -0.19452823      -0.79291858
H        5.46891602       6.86148076       4.64466781      -0.10505090       0.05837936      -0.36323268      -0.00346027      -1.77011448      -0.09028498
N        6.25525617       6.30390094       6.70000302       0.25109913       1.03772596       0.74033789      -0.22095732      -0.06386668       0.54583336
8
Lattice="12.0 0.0 0.0 0.0 12.0 0.0 0.0 0.0 12.0" Properties=species:S:1:pos:R:3:momenta:R:3:forces:R:3 energy=-440.4856016162357 free_energy=-440.4856016162357 stress="5.047344139382638e-05 0.00019583151193202814 0.00015438655215493645 0.00019583151193202814 0.0010176073792281094 0.000338584805890849 0.00015438655215493645 0.000338584805890849 0.0011701946039938552" pbc="T T T"
B        5.74170532       5.71078441       5.11572419      -0.59335409      -0.22422514       0.24631315      -0.53823838       0.78185459       2.50587643
H        5.52114090       6.85216097       7.35615547      -0.03871631      -0.00710339       0.05254457       0.51580577      -0.56659406      -0.96295985
H        7.05811157       7.08154992       6.58430022       0.04952699       0.09659605      -0.11431971      -0.52293852      -0.44864057      -0.03518814
H        6.67721919       5.55207023       7.30256902      -0.00400046       0.08585450       0.10919657      -0.39453058       0.73030409      -0.56824792
H        4.94188843       4.91845008       5.46395411       0.12072975       0.00770932       0.36828878      -0.06625204       0.21730611      -0.32717209
H        6.73467211       5.25053857       4.79866113       0.07385732       0.11566942       0.35585579       0.84888171      -0.27787261      -0.71470441
H        5.37353301       6.71072271       4.64384453       0.07475522       0.41030143       0.19426297      -0.11693467      -0.13888720      -0.54895971
N        6.27081602       6.37528672       6.73999400      -0.57329429      -0.32304539      -2.08290809       0.27420670      -0.29747034       0.65135569
8
Lattice="12.0 0.0 0.0 0.0 12.0 0.0 0.0 0.0 12.0" Properties=species:S:1:pos:R:3:momenta:R:3:forces:R:3 energy=-440.47174963586264 free_energy=-440.47174963586264 stress="0.0004570661416028752 0.00021307301594796193 -0.000687357111509632 0.00021307301594796193 -0.0002524121653616853 -0.00033471516874061477 -0.000687357111509632 -0.00033471516874061477 -0.0011249618571905241" pbc="T T T"
B        5.80251454       5.67047439       5.30700303      -0.82214711      -1.00829073      -1.71445548      -1.29980382      -1.97282364      -1.17642887
H        5.46163174       6.75562444       7.11280158       0.10447427      -0.00753422       0.14471425       1.19790588      -0.29969880      -0.21612131
H        7.06328046       7.07781104       6.40773039       0.04349888       0.07281951       0.10266377      -0.75127816      -0.79506151       0.60114466
H        6.75571704       5.57359310       7.29822867      -0.05065556       0.15369089       0.08325423      -0.19716722       0.69772854      -0.36152774
H        4.93671954       4.92218896       5.56075169       0.01601437      -0.06306802       0.31814315       0.24357873      -0.05687955       0.46743778
H        6.62915111       5.13153149       4.71837145      -0.05199024      -0.06162739       0.19560680       0.77338609      -0.07937028       0.03017479
H        5.32333862       6.48732687       4.70177133      -0.08601433       0.30993136       0.17250714      -0.30443983       1.43277556      -0.72527670
N        6.33345432       6.31538154       6.64887305       0.00212170       0.75751633      -0.12841667       0.33781833       1.07332966       1.38059738
8
Lattice="12.0 0.0 0.0 0.0 12.0 0.0 0.0 0.0 12.0" Properties=species:S:1:pos:R:3:momenta:R:3:forces:R:3 energy=-440.2769838686129 free_energy=-440.2769838686129 stress="0.0017799742307410534 0.000668442719139566 0.00019803416502548775 0.000668442719139566 0.0007865151435821812 0.0009198453181762116 0.00019803416502548775 0.0009198453181762116 0.0019341276877977585" pbc="T T T"
B        5.69815885       5.62916942       5.34198915      -0.27526519       0.09808034      -0.12354148       0.75721689      -1.29762431      -0.44573125
H        5.58110515       6.91245282       7.36014544       0.12186199      -0.08493119      -0.03336321       0.56177331      -0.04340172      -0.09092710
H        7.13494574       7.16674643       6.49457924      -0.11862049      -0.15899082      -0.14302332      -0.69637868      -0.52304669       0.54210442
H        6.83926411       5.66623616       7.39967726      -0.07324209       0.08854428      -0.08609791      -0.15484212       0.58601579      -0.09534973
H        4.86505426       4.83325357       5.67146942      -0.01560251       0.02155825      -0.18327869       0.81778938       0.51687429       0.56782563
H        6.65548186       5.12555365       4.78355856      -0.22294968       0.00851452       0.09483617      -0.70001969       0.47302573       1.04121057
H        5.20258464       6.36880313       4.60032274      -0.06176645      -0.31191371       0.12567467       0.05386150       1.08107888       0.38656065
N        6.40922717       6.47526693       6.86701752      -0.14937057       0.48354033      -0.42854813      -0.63940058      -0.79292196      -1.90569320
8
Lattice="12.0 0.0 0.0 0.0 12.0 0.0 0.0 0.0 12.0" Properties=species:S:1:pos:R:3:momenta:R:3:forces:R:3 energy=-440.54914839724233 free_energy=-440.54914839724233 stress="0.0001894626988093563 -0.0006745888287350382 -0.001062199688871313 -0.0006745888287350382 7.938977126815546e-05 -0.000800830479180215 -0.001062199688871313 -0.000800830479180215 -0.0005635155127622347" pbc="T T T"
B        5.72600486       5.63747685       5.38206650       0.18362855       0.80919522       1.21655038      -0.34790252      -0.62901169      -2.37035954
H        5.64247205       6.92996443       7.15758344      -0.11414082      -0.22022422      -0.24820350      -0.30056193       0.11304438       0.10480472
H        7.05558121       7.11566599       6.25456660      -0.16211230      -0.15891624      -0.15084927       0.26311149       0.30327288      -0.16998001
H        6.87399374       5.77375273       7.26353896      -0.15239216       0.05587765      -0.11531967      -0.02605444      -0.09637096      -0.00191647
H        4.94441879       4.88433401       5.87212911      -0.30038515      -0.13245319      -0.08736810       0.38586193       0.25912890      -0.47548433
H        6.65456248       5.13632786       4.75812170      -0.03295328      -0.11212458      -0.26436599      -1.12304775       0.36123020       0.90943617
H        5.24336897       6.53181807       4.73646104      -0.18852564      -0.24498137      -0.15053172       0.05225403      -0.84716157       0.37347540
N        6.36194271       6.41264394       6.59748319       0.01529278       0.14015120      -0.93484788       1.09633921       0.53586785       1.63002405
8
Lattice="12.0 0.0 0.0 0.0 12.0 0.0 0.0 0.0 12.0" Properties=species:S:1:pos:R:3:momenta:R:3:forces:R:3 energy=-440.3717426999199 free_energy=-440.3717426999199 stress="-0.0017607275718494408 0.00018227008843577333 0.0012020089718640212 0.00018227008843577333 -0.0010113432194017852 0.0012135441517706598 0.0012020089718640212 0.0012135441517706598 -0.00047710743995602495" pbc="T T T"
B        5.55487711       5.49431336       5.27865250      -0.86554352      -0.63228737      -0.53248210       1.61602168       2.67705795       1.33011687
H        5.67182255       6.98227794       7.19342141       0.14129003      -0.00036228       0.13186384      -0.85455338       0.20106070       0.11425435
H        7.04272113       7.15324153       6.28294934       0.01162924      -0.04876186      -0.05405214       0.70653083       0.67018010      -0.88004104
H        6.86322352       5.83204798       7.26714872      -0.07996502       0.08249320      -0.07459754       0.28240534      -0.78957099       0.25747149
H        4.95727887       4.84675847       5.94958192      -0.12880537      -0.05112979       0.01287263      -1.60892432      -1.44032872       0.81700503
H        6.47141267       5.02335181       4.81089887       0.10856400      -0.08479879      -0.27263974       0.87646170      -0.65773844      -0.81747697
H        5.07652953       6.38927131       4.73285128      -0.03856981      -0.09686043      -0.12293600      -0.60411782       0.02377095      -0.60789642
N        6.35713906       6.45923193       6.61306835       0.14209637       0.96055100       0.21838239      -0.41382403      -0.68443154      -0.21343331
8
Lattice="12.0 0.0 0.0 0.0 12.0 0.0 0.0 0.0 12.0" Properties=species:S:1:pos:R:3:momenta:R:3:forces:R:3 energy=-440.64449557355056 free_energy=-440.64449557355056 stress="-0.00051362068918843 0.0003313335317678955 0.0007552667381353249 0.0003313335317678955 -8.684456478832461e-05 1.0542751713046958e-05 0.0007552667381353249 1.0542751713046958e-05 -0.0002775279063104719" pbc="T T T"
B        5.60548947       5.57636187       5.41301716      -0.25280016       0.09483468       0.50799791      -0.36193016       0.85309765       0.66377896
H        5.72556839       7.07537929       7.17766140      -0.00252917      -0.03981483       0.01442658      -0.57470698       0.37512862       0.45430126
H        7.05133714       7.18523438       6.13046996       0.02383040       0.05933007      -0.06977560       0.47743410       0.42372779      -0.31256596
H        6.95730426       5.91043532       7.24270510       0.00973237       0.15098168       0.10978614       0.58469529      -0.71145306       0.66372825
H        4.94866286       4.81476562       6.01982575       0.32244231       0.33602844       0.12312231      -0.11198168       0.24834584      -0.00079313
H        6.51430082       5.06013516       4.94050731      -0.05058322       0.22395169       0.22740387       0.46025113      -0.25727340      -0.71070438
H        5.01200166       6.38648941       4.75729490       0.21694584       0.11960731       0.24867732       0.44805996      -0.62995522       0.38590500
N        6.41916729       6.53662023       6.63241397      -0.93972494      -0.82272687      -1.81942100      -0.92182166      -0.30161822      -1.14365001
8
Lattice="12.0 0.0 0.0 0.0 12.0 0.0 0.0 0.0 12.0" Properties=species:S:1:pos:R:3:momenta:R:3:forces:R:3 energy=-440.5308678792778 free_energy=-440.5308678792778 stress="0.0004011020516031751 -1.4539121391258034e-05 -0.00039800141680438396 -1.4539121391258034e-05 0.0004282646580075921 -0.000469377860151084 -0.00039800141680438396 -0.000469377860151084 -2.4801027104326706e-05" pbc="T T T"
B        5.67984403       5.56313573       5.48586011      -1.20000511      -1.02570298      -1.03853377      -2.57846813      -1.56658866      -1.24617764
H        5.71154654       7.01575915       7.06530628      -0.02516370       0.06054317       0.15178217      -0.06402735       0.42289555       0.43141619
H        7.07401813       7.17843087       6.00738694       0.11517699       0.09901351      -0.05666601       0.15901039       0.15857736       0.25052442
H        7.01834181       5.89778983       7.17851348       0.09209486      -0.01877433       0.14149510       0.43507384      -0.02934501       0.46847056
H        4.92598187       4.82156913       6.10509869       0.05512397      -0.07211937       0.09424130       1.12609867       0.93692603      -0.27882984
H        6.42264178       4.90999579       4.82455625       0.07211726      -0.05649082       0.11440790       0.07242366       0.65819244       0.50913589
H        4.97327574       6.28513515       4.82148652      -0.17059735       0.16066030      -0.12599459       0.91645230      -0.33779139       0.52502717
N        6.46773804       6.51883888       6.55320627       0.42282483       0.96883974       0.09498472      -0.06656337      -0.24286634      -0.65956676
8
Lattice="12.0 0.0 0.0 0.0 12.0 0.0 0.0 0.0 12.0" Properties=species:S:1:pos:R:3:momenta:R:3:forces:R:3 energy=-440.4540782232061 free_energy=-440.4540782232061 stress="0.0007870765179308231 0.0009150824740276471 0.00039555470356984686 0.0009150824740276471 0.0007716669754542916 0.000951379552166779 0.00039555470356984686 0.000951379552166779 0.0009447734295463338" pbc="T T T"
B        5.56997228       5.47145680       5.46293702       0.47045639       0.37049073       0.47663469       0.22824844      -0.29490895       1.02335496
H        5.85002036       7.17068702       7.21673601      -0.15538546       0.00334117       0.04743008       0.20933121      -0.20730622      -0.26301053
H        7.11526946       7.21899745       5.99783777      -0.03909037      -0.06599852      -0.26019233      -0.20949702      -0.10708261       0.25893077
H        7.11774709       5.95171174       7.20062924       0.00360925      -0.15157433      -0.01867869      -0.41113800       0.55405113      -0.32479934
H        4.88225291       4.78100255       6.13634925      -0.17036380      -0.13479216      -0.05823256       0.61337899       0.27804299       0.23196103
H        6.39192903       4.90803487       4.85424564      -0.13844659      -0.16789906      -0.05999249       0.34690202       0.02883704       0.26803938
H        4.90807331       6.10571006       4.78326399      -0.24385063       0.04477730      -0.08365270      -0.25632753       1.12748505      -0.34826223
N        6.51368006       6.60770571       6.61531500      -0.32913153       0.21104381      -0.63217627      -0.52089812      -1.37911843      -0.84621405
8
Lattice="12.0 0.0 0.0 0.0 12.0 0.0 0.0 0.0 12.0" Properties=species:S:1:pos:R:3:momenta:R:3:forces:R:3 energy=-440.46215357767943 free_energy=-440.46215357767943 stress="-0.0004477640411939314 -0.0007373021348035936 -0.0009505162695908445 -0.0007373021348035936 -0.0013807597311809514 -0.0006781420526512687 -0.0009505162695908445 -0.0006781420526512687 -0.0008104779356440565" pbc="T T T"
B        5.55167020       5.47962255       5.53427783       0.21893005       0.51619666       0.32574012       0.31462243      -1.49129246      -0.77065386
H        5.70784304       7.03325746       7.02046326      -0.12011205      -0.07617823      -0.00874103       0.60215322      -0.43572502      -0.44182968
H        6.96653776       7.14028835       5.86100078       0.00976266      -0.00938717      -0.14149955      -0.32745609      -0.40223232       0.12295984
H        7.06672946       5.98316237       7.11438240      -0.04740220      -0.00042877      -0.01894836      -0.64350477       0.12553617      -0.65609081
H        4.95100162       4.85971165       6.29349639      -0.17536612      -0.03181446      -0.11111868      -0.41727386      -0.60903572       0.09864575
H        6.36540587       4.92314578       4.91724957      -0.23539108      -0.03498910      -0.03821187      -0.13763408      -0.50957256      -0.14774233
H        4.93327054       6.16206088       4.88561760      -0.12559480      -0.34354415       0.02352289      -1.02068231       0.67675939      -0.84842687
N        6.37884919       6.44150180       6.41855606      -0.08897439       0.08262157      -0.58239214       1.62977545       2.64556253       2.64313795
8
Lattice="12.0 0.0 0.0 0.0 12.0 0.0 0.0 0.0 12.0" Properties=species:S:1:pos:R:3:momenta:R:3:forces:R:3 energy=-440.4727152858058 free_energy=-440.4727152858058 stress="0.0009125353104431695 3.7976575062454175e-05 5.372286478377042e-06 3.7976575062454175e-05 0.0014355503221082251 0.00046336560623686066 5.372286478377042e-06 0.00046336560623686066 0.00104423695743345" pbc="T T T"
B        5.47016196       5.36233139       5.49410647      -0.76690466      -0.45567549      -0.38840746       1.79507298       1.50336201       0.46859622
H        5.88925159       7.20265930       7.13219335       0.15210360      -0.00981910       0.03388412       0.23980518      -0.62190935      -0.60578034
H        7.06534663       7.20821577       5.85200080       0.02787821      -0.00325642       0.00944356      -0.56073329      -0.57220497       0.35852386
H        7.14857689       6.01247321       7.10076185      -0.02598216       0.15970994      -0.00148416      -0.33746202       0.18852354      -0.26954097
H        4.98460103       4.79178423       6.38876768      -0.07254137       0.02284666      -0.07630124      -0.40095612      -0.22066510      -0.16596430
H        6.35964883       4.79688051       4.91776864      -0.07322526       0.10861723      -0.02430049      -0.75837703       0.25274034       0.27599697
H        4.85142311       6.15422615       4.86780665       0.05316955      -0.28845912       0.04586401      -0.14737461      -0.61048824       0.08481109
N        6.48298382       6.57756015       6.49455536       0.18545847       0.56050120      -0.10721982       0.17002490       0.08064178      -0.14664253
8
Lattice="12.0 0.0 0.0 0.0 12.0 0.0 0.0 0.0 12.0" Properties=species:S:1:pos:R:3:momenta:R:3:forces:R:3 energy=-440.6743398402819 free_energy=-440.6743398402819 stress="0.0005540273818709127 -0.000595038116376796 6.298802772986554e-05 -0.000595038116376796 0.0007131167150924308 -0.000456980563917495 6.298802772986554e-05 -0.000456980563917495 0.0005249492493053759" pbc="T T T"
B        5.55180675       5.46881589       5.60404745       0.31832218       0.65778036       0.61320312      -0.12037997       0.02119801      -0.74162767
H        5.84683700       7.18473422       7.02866002       0.07133530      -0.13150003      -0.06980125       0.16929978       0.02751144       0.10793468
H        7.00443636       7.17857570       5.74411916      -0.09968437      -0.10534404       0.04907982      -0.05680177      -0.13925458       0.38487232
H        7.17738765       6.06802567       7.07014133      -0.11033107       0.10683691      -0.03579328       0.02079977       0.12827736       0.05747223
H        5.03571318       4.82079659       6.44252537       0.11825622       0.14860048       0.24276242      -0.13124353       0.28183720      -0.17646996
H        6.34895837       4.81526578       4.99524001       0.15861965      -0.00446251      -0.06510709      -0.50869990       0.53881391       0.18070605
H        4.82261235       6.17798584       4.92985867       0.14298591       0.23235141       0.11750250       0.72475621      -0.92043536       0.71987266
N        6.49667447       6.58524546       6.45947037      -1.07943941      -0.81708322      -1.32114834      -0.09773059       0.06205201      -0.53276032
8
Lattice="12.0 0.0 0.0 0.0 12.0 0.0 0.0 0.0 12.0" Properties=species:S:1:pos:R:3:momenta:R:3:forces:R:3 energy=-440.6720497310463 free_energy=-440.6720497310463 stress="-0.00034019621664964367 0.00030100179585795225 0.0007249638533878661 0.00030100179585795225 -0.0004835722496590992 2.5910625826963156e-05 0.0007249638533878661 2.5910625826963156e-05 -0.0008769327664002357" pbc="T T T"
B        5.56658294       5.45924542       5.62629730      -1.21966074      -0.93478923      -0.58407643      -0.53819054       0.32466005      -0.13189987
H        5.89356948       7.19081120       6.97717632       0.12192041       0.00728384       0.04090059      -0.19686380       0.45132535       0.43674413
H        7.03175155       7.17299180       5.70034069      -0.03418815      -0.07285517       0.02516016       0.32722481       0.34583737      -0.31436258
H        7.21746969       6.09217051       7.02406038      -0.03529518       0.07542840      -0.01140266       0.18854915      -0.00515338       0.17513012
H        5.05329307       4.83041881       6.43904587       0.05529264      -0.12739148       0.05974931      -0.22135810      -0.11912126       0.74881837
H        6.28450174       4.80918880       5.02810983       0.12489689      -0.16231977      -0.03011844       0.75024614      -0.35815318      -0.65868760
H        4.78253031       6.04205348       4.97593962      -0.18847182       0.08690302      -0.18219565       0.27884401       0.19832763       0.06730019
N        6.53877873       6.60355731       6.41570719       0.72621460       1.20935328       0.24264631      -0.58845168      -0.83772259      -0.32304277
8
Lattice="12.0 0.0 0.0 0.0 12.0 0.0 0.0 0.0 12.0" Properties=species:S:1:pos:R:3:momenta:R:3:forces:R:3 energy=-440.5467628690174 free_energy=-440.5467628690174 stress="-0.00024569191194094705 0.0011920361115633543 0.00068194758178844 0.0011920361115633543 0.0002251169701029089 0.0008464756320929391 0.00068194758178844 0.0008464756320929391 -0.0006006738361140086" pbc="T T T"
B        5.50028294       5.33980053       5.61546887       0.33293238       0.59803254       0.45565239      -0.04601685       1.19843692       1.17702754
H        6.01385160       7.27174612       7.02008268      -0.11653148      -0.10493964      -0.02721748      -0.53027994       0.23106549       0.29588412
H        7.04518844       7.14645193       5.68298382      -0.07076211      -0.05646610      -0.12433226       0.39673866       0.47325472      -0.82454914
H        7.26184169       6.11338228       6.99958979      -0.08089264       0.01256712      -0.02543892       0.35932166      -0.34978022       0.36219479
H        4.97944207       4.78149775       6.49996929       0.08860436       0.00320675      -0.22282335       0.27121314      -0.05328659       0.22266902
H        6.22646678       4.72825388       4.97991732      -0.19114695      -0.00468349       0.17000261       0.74912428      -0.41648762      -0.34662775
H        4.73815831       5.95748268       5.00785020      -0.04554146      -0.03321366       0.03144140      -0.17683264       0.47624646      -0.33693510
N        6.56208729       6.62131162       6.42554493      -0.34837980      -0.33608285      -0.67943690      -1.02326831      -1.55944914      -0.54966348
8
Lattice="12.0 0.0 0.0 0.0 12.0 0.0 0.0 0.0 12.0" Properties=species:S:1:pos:R:3:momenta:R:3:forces:R:3 energy=-440.480347172847 free_energy=-440.480347172847 stress="-0.0009001349500847028 -0.0010091506062021504 -0.0012258495826957276 -0.0010091506062021504 -0.0014970458379244033 -0.0007244917657491149 -0.0012258495826957276 -0.0007244917657491149 4.288446316540542e-05" pbc="T T T"
B        5.56429322       5.45953021       5.72664848      -0.07612250      -0.31121250      -0.16376030      -1.43282460      -1.90946485      -0.45634239
H        5.90916903       7.18933747       6.94175361       0.01996320       0.05573356       0.09670362      -0.25570091       0.30260231       0.23106694
H        6.95854037       7.12876332       5.62792729       0.05109628       0.03079039      -0.15089293       0.14403241       0.19273723      -0.37188390
H        7.21880335       6.15363809       6.96105538       0.00801315      -0.03718027       0.02014094       0.57727930      -0.47212787       0.45343316
H        5.06555611       4.94422278       6.70583844      -0.06333298      -0.00109669      -0.10183433       0.44403770       0.02733909      -1.18294873
H        6.29646607       4.81066253       5.03894462      -0.21403581      -0.03469959       0.07162685      -0.67994860       0.03464222       0.52881808
H        4.78119665       6.07527429       5.10510436      -0.08897501      -0.09796707       0.05024423      -0.06488042      -0.28128664      -0.06030308
N        6.47610135       6.54199962       6.34799178      -0.06689118       0.47379257      -0.24297950       1.26800512       2.10555851       0.85815992
8
Lattice="12.0 0.0 0.0 0.0 12.0 0.0 0.0 0.0 12.0" Properties=species:S:1:pos:R:3:momenta:R:3:forces:R:3 energy=-440.496167377777 free_energy=-440.496167377777 stress="0.0009947115982790902 0.0007315824146467501 -9.641910018271583e-05 0.0007315824146467501 0.0008373895459218768 0.00030815135806932695 -9.641910018271583e-05 0.00030815135806932695 0.0009458738516550193" pbc="T T T"
B        5.42865554       5.29050417       5.67147138      -0.44290076      -0.42710303      -0.27146795       1.89579232       0.53122715       0.70052367
H        6.02885937       7.29965268       6.97496843       0.00005438       0.05656743       0.09513234      -0.13784553      -0.04422951      -0.04723832
H        7.00716966       7.15632859       5.55686472       0.04420785       0.04351971      -0.10522774      -0.20708406      -0.22980292       0.20294728
H        7.31832708       6.16836925       6.93504226       0.12651454       0.03656566       0.10390058      -0.03269698      -0.12607666      -0.04389978
H        5.03736438       4.79650284       6.68778721      -0.13688744       0.00531101       0.22980085       0.13320934       0.17207770      -0.70911293
H        6.26392965       4.70034732       5.03726236       0.09520139       0.05530825      -0.06849254      -0.79777213       0.13219704       0.50157282
H        4.68167292       5.91089659       5.02503157      -0.10580209       0.03434897      -0.03075447      -0.23526089       0.09727237       0.02628358
N        6.56832941       6.63472332       6.36614166      -0.02575517       0.27638208      -0.38839077      -0.61834207      -0.53266517      -0.63107631
8
Lattice="12.0 0.0 0.0 0.0 12.0 0.0 0.0 0.0 12.0" Properties=species:S:1:pos:R:3:momenta:R:3:forces:R:3 energy=-440.63547922564373 free_energy=-440.63547922564373 stress="-0.0006454724197614509 -0.0004194351382046413 4.086208282638004e-05 -0.0004194351382046413 -0.00024916005188244453 7.206304564780986e-05 4.086208282638004e-05 7.206304564780986e-05 -0.0004767575473891322" pbc="T T T"
B        5.49815559       5.45219149       5.74641762       0.43322629       0.93591260       0.44224825       0.30667243      -0.47355721      -0.67440425
H        5.91537099       7.29577838       6.89564118      -0.08353017      -0.05132812       0.04460045       0.41139516      -0.26090393      -0.25244163
H        6.89000093       7.16892330       5.46645743      -0.02738921      -0.03611452      -0.07486697      -0.04606263      -0.18665311       0.43517614
H        7.27816643       6.20108427       6.87692919      -0.00164629      -0.00134466       0.03678239      -0.58236694       0.51709841      -0.49224063
H        5.09977242       4.93363434       6.66734542       0.03188060       0.13479490       0.24950771      -0.60762239      -0.39903798       1.14492248
H        6.10526321       4.70422162       5.10435882       0.15284050       0.10160464      -0.07409255       0.50143414       0.01914798      -0.23522014
H        4.72183357       6.00949639       5.12945960       0.13509560       0.08706880       0.07363583      -0.83914026       0.43787622      -0.47049548
N        6.48745417       6.63156237       6.29088367      -1.12558356      -1.08247505      -1.17217329       0.85569050       0.34602960       0.54470351
8
Lattice="12.0 0.0 0.0 0.0 12.0 0.0 0.0 0.0 12.0" Properties=species:S:1:pos:R:3:momenta:R:3:forces:R:3 energy=-440.6186308265983 free_energy=-440.6186308265983 stress="0.0009163933532350995 -1.6938594167370937e-05 0.0006257512468291304 -1.6938594167370937e-05 0.0011010091501705464 0.00021748984967205943 0.0006257512468291304 0.00021748984967205943 0.00022106184073786246" pbc="T T T"
B        5.49755301       5.38424660       5.75765944      -1.29976125      -1.13484971      -0.33755115      -0.13762286       0.38790487      -0.60296865
H        6.04475160       7.37248888       6.87435838       0.12838895       0.10319567       0.07115139       0.54560790      -0.61596525      -0.51495676
H        6.94573504       7.13588316       5.38294119       0.02524430      -0.00961858      -0.06801698      -0.09058273      -0.16049001       0.55428433
H        7.37607742       6.20439699       6.81582778      -0.02789727       0.07860157      -0.01932449      -0.70288097       0.60083951      -0.49206449
H        5.13380074       4.85377866       6.70589946       0.05091264      -0.03234138      -0.19183647      -0.25019227       0.06910605       0.91615836
H        6.13673867       4.62751112       5.14797728      -0.20768314      -0.09778067      -0.01225036       0.42053762       0.22070636      -0.31496154
H        4.62392258       5.88232720       5.12564162       0.12688359      -0.17792831       0.04665565       0.52338813       0.05287864       0.32464269
N        6.57810728       6.66749461       6.26479602       0.65586769       1.37027262      -0.02472956      -0.30825482      -0.55498017       0.12986606
8
Lattice="12.0 0.0 0.0 0.0 12.0 0.0 0.0 0.0 12.0" Properties=species:S:1:pos:R:3:momenta:R:3:forces:R:3 energy=-440.4682546931428 free_energy=-440.4682546931428 stress="0.0019764288383191885 3.1896178921164784e-05 0.0001261998810758035 3.1896178921164784e-05 0.001572710314964016 -0.00018738519551690733 0.0001261998810758035 -0.00018738519551690733 0.0013082599093318028" pbc="T T T"
B        5.46099993       5.29260603       5.77808167       0.38310326       1.13095113       0.51089135      -0.12073551       1.35883148       0.20416244
H        6.08450828       7.38542190       6.82652890      -0.06198527      -0.22099935      -0.08827566       0.39160306      -0.46354286      -0.30891220
H        6.97656024       7.14449764       5.34410555      -0.10206422      -0.10227604      -0.03336730      -0.23255821      -0.35924979       0.58045824
H        7.44159937       6.27784227       6.78249408      -0.15766876       0.07444249      -0.06184365      -0.20537906       0.07488411      -0.08621083
H        5.13104777       4.86516573       6.85598284       0.08000233      -0.08324102      -0.13111983       0.33503793       0.28249448      -0.79977365
H        6.20979472       4.61457810       5.14401716      -0.06622873      -0.13741573       0.04528600      -0.58171181       0.24038083       0.19667932
H        4.55840063       5.90262702       5.18624067      -0.07985884      -0.03365061      -0.04491715       1.36932983      -0.90216863       0.67329016
N        6.63108978       6.68251541       6.24150718      -0.61553560      -0.51514626      -0.80314758      -0.95558623      -0.23162964      -0.45969347
8
Lattice="12.0 0.0 0.0 0.0 12.0 0.0 0.0 0.0 12.0" Properties=species:S:1:pos:R:3:momenta:R:3:forces:R:3 energy=-440.408278759189 free_energy=-440.408278759189 stress="-0.0016301831580107806 -0.0013835955123987337 -0.0005511676219782058 -0.0013835955123987337 -0.0019350696187356328 -0.0005408761769029876 -0.0005511676219782058 -0.0005408761769029876 -0.0001760696799554584" pbc="T T T"
B        5.53976014       5.37893843       5.78100494      -0.65470172      -0.59514970      -0.00164492      -1.94721705       0.05864343       0.55345412
H        6.05059592       7.31000028       6.64982092       0.11468476      -0.07694769      -0.05550577      -0.25383927       0.20412831       0.22996871
H        6.85468131       7.01442832       5.19455319      -0.06611910      -0.13391688       0.01474026      -0.06230554      -0.05112517       0.04263406
H        7.34057106       6.22854333       6.60444759      -0.07890340       0.04089023      -0.07705316       0.41278236      -0.11872056       0.28217695
H        5.24232628       5.06699605       6.87829246      -0.03714731      -0.09429209       0.08549912      -0.06138804      -0.76624607      -0.45714647
H        6.17700084       4.68999972       5.12170754       0.11383816      -0.12560835      -0.00166230      -0.12800210      -0.88747630      -0.31960414
H        4.65942894       5.97174081       5.27530411      -0.34645766       0.12647531      -0.09309399      -0.21358387      -0.76609626      -0.35682940
N        6.49846614       6.55552838       6.07896761       0.27227252       0.98253008      -0.53869070       2.25355352       2.32689262       0.02534616
8
Lattice="12.0 0.0 0.0 0.0 12.0 0.0 0.0 0.0 12.0" Properties=species:S:1:pos:R:3:momenta:R:3:forces:R:3 energy=-440.3788409456264 free_energy=-440.3788409456264 stress="-0.00017316279146747002 0.001888321714102178 0.00013277884676103166 0.001888321714102178 0.000241395853774436 0.00034206013794645346 0.00013277884676103166 0.00034206013794645346 -0.0010861646732036605" pbc="T T T"
B        5.39373949       5.21586761       5.77907633      -0.44778572      -1.02091527      -0.26644488       1.70051690       1.25454557       1.29787162
H        6.20168285       7.45188733       6.58961898       0.09110456      -0.01925209       0.00060473      -0.68739208       0.55372587       0.57447439
H        6.89301984       7.05646537       5.11303011      -0.00826204      -0.04840873       0.05772421       0.13166341       0.21437082      -1.08798022
H        7.47515884       6.34691279       6.52227073      -0.02584510       0.12126294      -0.05588624       0.27236684      -0.41490472       0.24519313
H        5.17855938       4.89999769       6.88696989      -0.00006711       0.28662444       0.05578018       0.15721328      -0.13172921      -0.04473032
H        6.04681537       4.54811267       5.11506428       0.01201686       0.18119391       0.09615714       0.47126375      -0.64890313      -0.27564681
H        4.52484116       5.69498258       5.24621367      -0.01547127       0.30125329       0.14982396      -1.11064443       0.83750041      -0.70033268
N        6.62230084       6.69173973       6.03585035      -0.33385926       0.33051197      -0.74979481      -0.93498768      -1.66460561      -0.00884910
8
Lattice="12.0 0.0 0.0 0.0 12.0 0.0 0.0 0.0 12.0" Properties=species:S:1:pos:R:3:momenta:R:3:forces:R:3 energy=-440.51803190399227 free_energy=-440.51803190399227 stress="-0.0009180198406496964 0.00010993820192317946 -0.00013283328879369467 0.00010993820192317946 -0.00034603818143459907 0.00017713397904641596 -0.00013283328879369467 0.00017713397904641596 -0.0004383130164964993" pbc="T T T"
B        5.52040015       5.47432634       5.86893591       0.53260178       0.96877430      -0.00131460      -0.49825397      -3.22399591      -0.36278362
H        6.07061807       7.42401800       6.54555344      -0.00163831      -0.00429367       0.06248446      -0.08663829       0.71700309       0.42628411
H        6.77439452       7.08529044       5.04899747       0.00775411      -0.03661256      -0.13416599       0.34515428       0.45648304      -1.12913574
H        7.42937207       6.40348427       6.46085728      -0.02738383       0.09994350      -0.05382783       0.67001980      -0.14598950       0.31200794
H        5.29485669       5.02925534       6.95100253      -0.00816333       0.24308514       0.01264067       0.20303910       0.75889189      -0.32515959
H        5.97540354       4.57598200       5.20798789       0.04544204       0.35976093       0.06893449       0.32862526       0.98273601       0.48808801
H        4.57062793       5.80270922       5.30372106       0.17861974      -0.04176644       0.21210993      -0.41256177       0.81712995       0.04849326
N        6.56417471       6.70948508       5.98018867      -1.49948076      -1.44861378      -0.92199969      -0.54938440      -0.36225856       0.54220564
8
Lattice="12.0 0.0 0.0 0.0 12.0 0.0 0.0 0.0 12.0" Properties=species:S:1:pos:R:3:momenta:R:3:forces:R:3 energy=-440.49857363571704 free_energy=-440.49857363571704 stress="0.00025699291189104027 0.0001748607377915566 0.0001676017979567916 0.0001748607377915566 0.0017041822992309977 0.00020347853553727362 0.0001676017979567916 0.00020347853553727362 0.0005333553127348804" pbc="T T T"
B        5.50689313       5.39814470       5.94343692      -1.06632011      -0.58996100       0.07536783      -0.22168715      -1.56753745      -0.82529212
H        6.21707865       7.54746257       6.50290514       0.02199017       0.13593328       0.10272783       0.02132782       0.11728766       0.07211663
H        6.73393270       6.99933831       4.93518357       0.01194917       0.02951122      -0.27429377       0.18860031       0.22310675       0.00677274
H        7.48194405       6.36839502       6.36211365       0.13201075       0.06787652       0.02694230       0.78151902       0.01520666       0.29962662
H        5.39606907       5.01915357       7.06481643      -0.17824061      -0.25081817       0.15905262      -0.07210142       0.77359704      -0.30226714
H        5.99445990       4.45253743       5.31575812      -0.22991871      -0.26970822      -0.09779827      -0.09734527       1.67020667       0.54539991
H        4.51805595       5.77776524       5.37421482      -0.09808214      -0.31657796      -0.01458228       0.72626098       0.02222011       0.69794184
N        6.61995915       6.75753642       5.94753755       0.59553552       1.34107465      -0.77052194      -1.32657428      -1.25408744      -0.49429849
8
Lattice="12.0 0.0 0.0 0.0 12.0 0.0 0.0 0.0 12.0" Properties=species:S:1:pos:R:3:momenta:R:3:forces:R:3 energy=-440.44177841361017 free_energy=-440.44177841361017 stress="0.0008384205351276395 0.0005828802303442703 3.038099643954723e-05 0.0005828802303442703 0.0007738623415132539 -0.0003108564173928496 3.038099643954723e-05 -0.0003108564173928496 -0.0007713551528124147" pbc="T T T"
B        5.39426572       5.26694055       6.01197058       0.42304821       1.46658373       0.13464223       1.47727802       2.20126328      -1.31098091
H        6.15197245       7.50171650       6.46062928      -0.16914187      -0.05140474       0.11028656       0.24739318      -0.32241823      -0.15429295
H        6.69328382       7.02698438       4.87940327      -0.15673497      -0.14967697      -0.19854175      -0.12804711      -0.39150477       0.84157773
H        7.53721890       6.44780508       6.29486313       0.04058770      -0.16426165       0.08695499      -0.48295538       0.04869962      -0.11587851
H        5.41889637       5.11561716       7.12059673       0.12518367      -0.13925847       0.11547678      -0.33038553      -0.31139804       1.78551047
H        6.01445586       4.49828350       5.42385282      -0.05353942      -0.39721957      -0.09354758      -0.04957836      -0.63824585      -0.57841239
H        4.46278110       5.78352180       5.53253219      -0.03289255      -0.02844968      -0.14275666      -0.22626692      -0.35069446      -0.04388383
N        6.59014487       6.71663620       5.90014582      -1.02569934      -0.38205923      -0.84288845      -0.50743791      -0.23570156      -0.42363960
8
Lattice="12.0 0.0 0.0 0.0 12.0 0.0 0.0 0.0 12.0" Properties=species:S:1:pos:R:3:momenta:R:3:forces:R:3 energy=-440.3306072242627 free_energy=-440.3306072242627 stress="-0.0001479080813151645 -0.0015105618111518854 0.00029291050517652714 -0.0015105618111518854 -0.0017390121484632086 6.196518794706861e-05 0.00029291050517652714 6.196518794706861e-05 -0.0001990940802265804" pbc="T T T"
B        5.51677769       5.33723577       6.04473313      -1.33545313      -0.65028782       0.42318907      -1.55119264       0.65266981       0.53090299
H        6.18169494       7.44065354       6.34158394      -0.00384271       0.06039729       0.00918440       0.06904732      -0.76213901      -0.21646341
H        6.59136092       6.82682572       4.80922484      -0.08087888      -0.08697779      -0.10692252      -0.24245822      -0.34811018       0.60455805
H        7.50363332       6.35108456       6.16703934       0.05819982       0.05802357      -0.03100862      -1.26180788       0.04637992      -0.22870518
H        5.50538516       5.23306922       7.19077516       0.24783757       0.00502419      -0.30274935      -0.10238284      -0.72828165       0.57915528
H        6.07304229       4.55934646       5.44035657       0.09444895       0.23586649       0.19502720      -0.21542396      -1.52913741      -0.55479835
H        4.49636668       5.80339075       5.67234176       0.08281789       0.03227380      -0.01870275       0.04220897      -0.84393648      -0.22466696
N        6.47906278       6.53513072       5.83963800       0.04709118       0.50730693      -1.03808272       3.26200925       3.51255501      -0.48998242
8
Lattice="12.0 0.0 0.0 0.0 12.0 0.0 0.0 0.0 12.0" Properties=species:S:1:pos:R:3:momenta:R:3:forces:R:3 energy=-440.2682349751832 free_energy=-440.2682349751832 stress="0.0021955179486225366 0.00034156705305615233 -0.00032762931951694265 0.00034156705305615233 0.0025622662270736933 5.92908330143932e-05 -0.00032762931951694265 5.92908330143932e-05 0.0019725776336848473" pbc="T T T"
B        5.48624956       5.27981314       6.10661787      -0.69082040      -0.73193278       0.15558941      -1.28391662       1.13642574       0.79686626
H        6.31765920       7.65294354       6.21439248       0.13877042       0.00080975      -0.08799187       0.21731288      -1.08676550      -0.44731191
H        6.64134439       6.90353090       4.65966168       0.07169353       0.08105309      -0.00763043      -0.08712663      -0.11151015       0.61005576
H        7.62517046       6.47188908       6.03911168      -0.09667247       0.23431558      -0.12943114      -1.05283456       0.35371589      -0.29111187
H        5.46286212       5.20517442       7.34033832       0.11205950       0.17753839      -0.09806817       0.71182715      -0.00403510      -1.61197231
H        5.87283755       4.34705646       5.45537343       0.21124339       0.15024432       0.06821936       0.14168872       0.81853251       0.52211580
H        4.37482954       5.68594247       5.77796931      -0.08955709       0.36197827       0.05632667       1.42225736      -0.28241286      -0.05903272
N        6.63298661       6.74988727       5.71529918      -0.58137707      -0.10604394      -0.86118715      -0.06920829      -0.82395053       0.48039100
8
Lattice="12.0 0.0 0.0 0.0 12.0 0.0 0.0 0.0 12.0" Properties=species:S:1:pos:R:3:momenta:R:3:forces:R:3 energy=-440.3990655902466 free_energy=-440.3990655902466 stress="-0.0008374696257288201 0.0001538587977117582 -0.000133126653691164 0.0001538587977117582 -0.0006248435583932757 0.0002535432113934511 -0.000133126653691164 0.0002535432113934511 0.0008564820848588628" pbc="T T T"
B        5.57902959       5.46738681       6.15945669       1.25533001       1.13967189      -0.65772371      -1.06568438      -2.58795340       1.35851328
H        6.15293771       7.50836155       6.22550863       0.14497236      -0.11517195      -0.10548902       0.59280226       0.11613504      -0.37587249
H        6.45577895       6.76865559       4.65330558      -0.06432444      -0.14721942       0.05823108       0.31464958       0.26537696       0.45848607
H        7.51817260       6.41756372       6.01015144      -0.23493864       0.06330858      -0.11018354       0.32146852       0.34544277      -0.09254290
H        5.61471656       5.30582936       7.34669442      -0.18040457       0.11003474       0.13747199       0.55041289       0.38649810      -0.80211131
H        5.82607105       4.49163845       5.56788879      -0.07167891       0.00463362      -0.00364564       0.92965515       0.10007733       0.02644133
H        4.48182740       5.61958726       5.88770469      -0.27870504       0.06300162       0.16292750      -0.75260999       1.26121701      -0.38784930
N        6.55285450       6.68001165       5.70503149      -1.53123644      -0.94369793      -0.42128264      -0.89069403       0.11320618      -0.18506468
8
Lattice="12.0 0.0 0.0 0.0 12.0 0.0 0.0 0.0 12.0" Properties=species:S:1:pos:R:3:momenta:R:3:forces:R:3 energy=-440.5810276828489 free_energy=-440.5810276828489 stress="-0.0011018874346759469 0.0009785886759763952 -0.00041051734923024856 0.0009785886759763952 -8.168107204032439e-06 -0.0003116022156628005 -0.00041051734923024856 -0.0003116022156628005 -0.0005667255005388817" pbc="T T T"
B        5.52438212       5.39431508       6.27490512      -0.50564851      -0.11121533       0.12755203       1.81397598      -0.56647669      -0.80621140
H        6.24568538       7.56230339       6.08887983       0.02122200      -0.18652270       0.03125939      -0.02832602       0.74927863       0.32019893
H        6.37470137       6.70255828       4.60693061      -0.07268915      -0.12742306       0.07536458       0.10282543       0.11003164      -0.23897544
H        7.52444636       6.42834345       5.86063191      -0.08007818       0.04916607      -0.04578781       0.98559707      -0.07956980       0.19584032
H        5.78751955       5.33407459       7.39306939      -0.32587156      -0.14612692       0.26420222      -0.06225489       0.23959920       0.62262914
H        5.87140097       4.43769661       5.69280232      -0.42648787      -0.08752094       0.05305047       0.28498314       0.09791912      -0.00063881
H        4.47555364       5.64457311       5.95892253      -0.13998674      -0.57506351       0.27730657      -1.43209485       0.81403879      -0.10674483
N        6.55683692       6.68942895       5.63400817       0.54164875       1.36415489      -1.74895088      -1.66470587      -1.36482089       0.01390208
8
Lattice="12.0 0.0 0.0 0.0 12.0 0.0 0.0 0.0 12.0" Properties=species:S:1:pos:R:3:momenta:R:3:forces:R:3 energy=-440.24047995386707 free_energy=-440.24047995386707 stress="-0.0003444399867403034 0.00014726349172575762 -0.00048426011612700306 0.00014726349172575762 0.0005360995416292954 -0.0008160086860590864 -0.00048426011612700306 -0.0008160086860590864 -0.0015435552299428645" pbc="T T T"
B        5.47370113       5.34333188       6.37241344       0.41579526       1.30341468      -0.34372286       1.95586547       1.40787062      -2.29285356
H        6.30337086       7.60129563       5.96913366      -0.03734761      -0.05366704       0.09533481      -0.52937539       0.91884742       0.96509022
H        6.34296595       6.76536998       4.58218600      -0.16058988      -0.18217818       0.00444850      -0.60342339      -0.38529805      -1.46241243
H        7.51535848       6.49576896       5.70531569      -0.05945849      -0.07263958       0.02235880       0.67276237      -0.43585233       0.38876370
H        5.91582293       5.47853597       7.41781400      -0.00074233       0.00040730      -0.09576011      -0.41617719      -0.02299582       1.25759475
H        5.95703059       4.39870437       5.81548186      -0.26438205      -0.00918947       0.03142199      -0.93797467       0.32777734       0.16597652
H        4.48464152       5.87184248       6.01999166       0.26448781      -0.26938028      -0.02020823      -0.48084863      -0.95034427       0.55822513
N        6.49721701       6.66413789       5.59130658      -1.16185399      -0.53437625      -0.67571745       0.33917144      -0.86000490       0.41961566
8
Lattice="12.0 0.0 0.0 0.0 12.0 0.0 0.0 0.0 12.0" Properties=species:S:1:pos:R:3:momenta:R:3:forces:R:3 energy=-440.25557948370033 free_energy=-440.25557948370033 stress="0.0011238090251775984 -0.0016463348389607038 0.0003783367282007276 -0.0016463348389607038 -0.0007223351828873313 0.0007083045128746798 0.0003783367282007276 0.0007083045128746798 -0.0006803321526548776" pbc="T T T"
B        5.65264614       5.46104417       6.33789462      -1.05017972      -0.50604439       0.81756543      -0.91018298      -0.25720117       0.68659650
H        6.33753016       7.52488443       5.88453796       0.14533874       0.22675054      -0.12130224      -0.18137345       0.43339271       0.50258972
H        6.25315698       6.58741356       4.54370582      -0.02337657       0.03557886      -0.25466600      -0.46451555      -0.26412827      -1.09521418
H        7.53261994       6.40735817       5.56097098       0.04395722       0.12313542      -0.12873357       0.50729608      -0.36455310       0.32288490
H        6.07470143       5.59317064       7.45629418       0.30693991       0.07577707      -0.16107257      -0.66395136      -0.31322080      -0.51053607
H        6.12965278       4.47511557       5.81099261       0.12443573      -0.04775317      -0.01006992      -1.35902516       0.36650202       0.56637209
H        4.46738006       5.89892725       6.17170463       0.07066257       0.16181360      -0.21199640       2.04887633      -1.48344294       0.29674174
N        6.49778555       6.54915509       5.54767333      -0.62937632       0.11449692      -0.91891010       1.02287609       1.88265157      -0.76943469
8
Lattice="12.0 0.0 0.0 0.0 12.0 0.0 0.0 0.0 12.0" Properties=species:S:1:pos:R:3:momenta:R:3:forces:R:3 energy=-440.4197372922522 free_energy=-440.4197372922522 stress="0.0004301728519634258 0.0005421474287629375 -0.0009983387901863529 0.0005421474287629375 0.0005622251871954117 -0.0008359678472741364 -0.0009983387901863529 -0.0008359678472741364 0.0006226299438778342" pbc="T T T"
B        5.60624515       5.42307246       6.47539916      -0.61509846       0.07791872       0.19229335      -0.70089781       1.50957648       0.01656104
H        6.30941197       7.60221435       5.83350715       0.00597626       0.13942038      -0.01992777       0.21464768      -0.27233738      -0.22505180
H        6.13542473       6.54598714       4.43445351      -0.09085863       0.00264718      -0.27630588       0.31628926       0.14560458       0.52183222
H        7.53121968       6.38288759       5.48548259       0.15886312       0.14488639      -0.15768173       0.18229687       0.13372233      -0.06783367
H        5.93934578       5.58085513       7.56554649       0.28063346       0.08717947       0.05790664       1.01914478       0.23594985       0.38142992
H        5.86184982       4.39778565       6.04251545       0.43086660      -0.14692517      -0.17837028       0.23748585      -0.63882551      -0.59060707
H        4.46878032       5.74868765       6.48384052      -0.42495023       0.41071882      -0.02293600       0.31420170      -0.01394047      -0.87280272
N        6.52550895       6.65751906       5.41547937      -0.74770064      -0.53378570      -0.57504051      -1.58316833      -1.09974989       0.83647208
8
Lattice="12.0 0.0 0.0 0.0 12.0 0.0 0.0 0.0 12.0" Properties=species:S:1:pos:R:3:momenta:R:3:forces:R:3 energy=-440.40525973274225 free_energy=-440.40525973274225 stress="-0.0008397987455727303 5.83094283645562e-05 0.000596321417343787 5.83094283645562e-05 -0.0008008742995561447 0.000461442038835166 0.000596321417343787 0.000461442038835166 4.019172598366372e-05" pbc="T T T"
B        5.66506263       5.53056438       6.44610955       0.50284745       0.55596608      -0.91389207      -0.63957595      -0.15491668       2.02069887
H        6.21128478       7.53499906       5.78910530      -0.02913429       0.02033192       0.03070484       0.37180873      -0.58532486      -0.48726208
H        5.94669143       6.37321445       4.46867426      -0.15678903      -0.19760687      -0.01354402       0.78923774       0.47570340       0.92075329
H        7.42845669       6.27896296       5.45675346       0.03579631      -0.13170877       0.03424406      -0.58669026       0.58520383      -0.34849432
H        6.04781795       5.71165876       7.53132574      -0.34996022      -0.07984928      -0.32748084       0.61105075      -0.01823684      -0.11133203
H        5.71425725       4.46500094       6.09432683       0.01807150       0.33439112       0.30159076       0.87906561      -1.30355398      -0.69400324
H        4.57154331       5.77013527       6.46888616       0.15316884       0.11211161       0.32287920      -1.54847304       0.88095038      -0.33726871
N        6.39305514       6.54219185       5.43818557      -1.15364555      -0.43568525      -0.39244183       0.12357642       0.12017476      -0.96309180
8
Lattice="12.0 0.0 0.0 0.0 12.0 0.0 0.0 0.0 12.0" Properties=species:S:1:pos:R:3:momenta:R:3:forces:R:3 energy=-440.3950226900011 free_energy=-440.3950226900011 stress="0.0022539259344420393 0.000305298239671234 0.0006089385537674156 0.000305298239671234 0.0015519734932614843 0.0007590860776048243 0.0006089385537674156 0.0007590860776048243 0.002060443432910211" pbc="T T T"
B        5.66207175       5.52700484       6.61892571      -0.10885353      -0.20874982      -0.11142888       1.45519185      -0.60589555      -0.86133238
H        6.29588466       7.57901680       5.64737088       0.00959118      -0.00735636       0.04169714       0.20523521      -0.83014912      -0.23682012
H        5.97563867       6.39830060       4.40603626      -0.08397509      -0.14925542       0.04745170       0.41325177       0.02561427       0.89911720
H        7.49437296       6.33782628       5.30052430      -0.03061051      -0.06558887       0.01295664      -1.39659654       0.21903274       0.13021675
H        6.38198909       5.83912077       7.59396374      -0.26663059      -0.03044192       0.24715368      -1.50550934      -0.69874174      -1.29239942
H        5.82692236       4.42098320       6.08925731      -0.28673374      -0.01717937       0.31159772       0.05816247       1.24918813       1.11268734
H        4.50562704       5.80614922       6.54817499      -0.03915692      -0.17996414       0.38545177       0.57832338       0.31500670       0.45018890
N        6.43101489       6.55029804       5.36859253      -0.12959699       0.82855229      -1.85010861       0.19194119       0.32594457      -0.20165827
8
Lattice="12.0 0.0 0.0 0.0 12.0 0.0 0.0 0.0 12.0" Properties=species:S:1:pos:R:3:momenta:R:3:forces:R:3 energy=-440.34693585117293 free_energy=-440.34693585117293 stress="0.00025925567037724705 -9.709751503390406e-05 1.7093016628894673e-05 -9.709751503390406e-05 0.0007561005476418289 -9.552323448022082e-06 1.7093016628894673e-05 -9.552323448022082e-06 0.00015723275001970516" pbc="T T T"
B        5.66268176       5.53565810       6.72079388       0.10724572       0.99199080      -0.65473723       1.85819266      -0.10550807      -2.77833269
H        6.28224563       7.54272559       5.57255602       0.03849381      -0.15974219      -0.01040941       0.01030839      -0.67165897       0.29019489
H        5.87918672       6.33622959       4.47815254      -0.00873952      -0.05015213       0.09036122      -0.11973045      -0.35178509       0.22541264
H        7.40131012       6.28783722       5.24541298      -0.22381645       0.11289975      -0.07988750      -0.65917736      -0.06747523       0.32491978
H        6.44615932       5.87181809       7.52184746       0.29542523       0.25965255       0.07059851      -0.68703905      -0.15610421       0.79710455
H        5.87852080       4.45727441       6.22852437      -0.08522133      -0.01249168      -0.26990761      -0.47044935       0.44959375       0.88277597
H        4.59868988       5.95178160       6.55302690      -0.08019445      -0.08476329      -0.10829713      -0.74302604      -0.09726888       1.03141173
N        6.36170595       6.48715354       5.40791859      -0.91570776      -0.89890322       0.10909593       0.81092120       1.00020670      -0.77348687
8
Lattice="12.0 0.0 0.0 0.0 12.0 0.0 0.0 0.0 12.0" Properties=species:S:1:pos:R:3:momenta:R:3:forces:R:3 energy=-440.6506552752039 free_energy=-440.6506552752039 stress="-0.0003709981838324434 -0.0005378810077575084 9.381098448245973e-05 -0.0005378810077575084 -0.0002183996953577501 -0.00021195455058155302 9.381098448245973e-05 -0.00021195455058155302 -0.0010927570535704384" pbc="T T T"
B        5.76172082       5.61869041       6.66636121      -0.89403931      -0.39942460       1.58161052      -0.55338792       0.34112239      -0.60376655
H        6.28992138       7.49925219       5.52314335       0.16548711      -0.08693541      -0.24480039       0.07952191       0.08597468       0.16115591
H        5.79615109       6.24281809       4.50488339       0.10087416       0.08497165      -0.09383596      -0.06514689      -0.13606349      -0.15371100
H        7.34447587       6.18928205       5.21243342      -0.16654151       0.17689361      -0.14948698       0.59751378      -0.06093332      -0.14248335
H        6.47520062       5.94076813       7.49511661       0.38676020       0.18980113      -0.24037823       0.28098181       0.37921335       1.00858242
H        5.94151741       4.50074781       6.39857299       0.03884509      -0.11822451      -0.20795293      -0.40896287      -0.24816323      -0.15359624
H        4.65552413       6.04257391       6.70738122       0.06180983       0.06190108      -0.40717836       0.30175911      -0.57296690       0.37662061
N        6.35382519       6.46237251       5.36630769      -0.49050613       0.23584693      -1.01762295      -0.23227893       0.21181652      -0.49280180
8
Lattice="12.0 0.0 0.0 0.0 12.0 0.0 0.0 0.0 12.0" Properties=species:S:1:pos:R:3:momenta:R:3:forces:R:3 energy=-440.33626583833365 free_energy=-440.33626583833365 stress="-0.0007843337012904671 0.00019699172716574367 -0.0012881966683657435 0.00019699172716574367 -0.0009897278465631492 -0.0011244457498262865 -0.0012881966683657435 -0.0011244457498262865 0.0011311542856127495" pbc="T T T"
B        5.76985360       5.64052768       6.66600021      -0.19119233       0.30806543       0.06456393      -0.76927730       0.32435624       0.40161124
H        6.27958721       7.48432799       5.40469418       0.04417293      -0.06147957      -0.07143588       0.12067345       1.09667485       0.07629051
H        5.72439261       6.20407237       4.41376799      -0.02657900      -0.04688722       0.07018416      -0.21326527      -0.12263242      -0.45771644
H        7.33076440       6.16567379       5.03134946      -0.03997451       0.04870687      -0.06756880       1.07643626      -0.20838613      -0.22431790
H        6.38381173       5.93173863       7.58623201       0.13278919      -0.03572101      -0.34864455       1.25139112       0.69048117       0.06428474
H        5.89501722       4.51567201       6.48748829       0.14469272       0.10727900      -0.04725491       0.02199163      -0.63328762      -0.70982246
H        4.66923560       5.95933690       6.97271906      -0.00813617       0.15592644      -0.25991618       0.16198037       0.13930210      -1.20978020
N        6.36919694       6.48863836       5.17493242      -0.77842944      -0.34462079      -0.04657313      -1.64993025      -1.28650819       2.05945051
8
Lattice="12.0 0.0 0.0 0.0 12.0 0.0 0.0 0.0 12.0" Properties=species:S:1:pos:R:3:momenta:R:3:forces:R:3 energy=-440.41132243083683 free_energy=-440.41132243083683 stress="-8.566908377791219e-05 -0.000250754087706664 0.00019481432053444195 -0.000250754087706664 -0.00047475930230424945 0.0008039841876022575 0.00019481432053444195 0.0008039841876022575 -0.0007414422183235066" pbc="T T T"
B        5.84875063       5.73422177       6.57142367      -0.04823679       0.54604728      -0.39540085      -1.84057821      -0.73421220       4.31616850
H        6.25800533       7.44518134       5.34968005      -0.02119134       0.04635252       0.12447572       0.12650602       0.94125910      -0.03137752
H        5.65831682       6.13018807       4.48005934      -0.10963222      -0.13130573       0.03654142      -0.45734793      -0.19040231      -0.79570664
H        7.27027081       6.10786358       5.01197916       0.06759955      -0.05434851      -0.00337463       0.49049569       0.06354512      -0.29062254
H        6.50305181       6.12410338       7.51994066      -0.23318054      -0.21498150      -0.05348430       0.03928647      -0.41556801      -1.39623961
H        5.84836443       4.55481866       6.46118783       0.09802249       0.11473913       0.17594307       0.34950749       0.46065510      -0.29156703
H        4.72972919       6.08819939       6.87349865       0.02643474      -0.00222965       0.28687687       0.82603431      -0.15926364      -0.97649220
N        6.30080081       6.41900867       5.23710355      -0.44607475      -0.18324894      -0.82307446       0.46609616       0.03398684      -0.53416297
8
Lattice="12.0 0.0 0.0 0.0 12.0 0.0 0.0 0.0 12.0" Properties=species:S:1:pos:R:3:momenta:R:3:forces:R:3 energy=-440.55310264771856 free_energy=-440.55310264771856 stress="0.00020763663536382777 0.000554682998040078 -8.093206901992669e-05 0.000554682998040078 0.000510919354611152 -0.00038888384766747714 -8.093206901992669e-05 -0.00038888384766747714 0.0009611525545009056" pbc="T T T"
B        5.81723365       5.68198720       6.83909223       0.23932496      -0.00037536      -0.47872034       0.63545149       1.54478923      -0.99467449
H        6.28137807       7.46615359       5.25231712       0.03069423       0.15556938       0.01070337      -0.04173468      -0.03981189       0.33151446
H        5.64723552       6.10711946       4.46775608      -0.15306400      -0.16269671      -0.08130753      -0.41188012      -0.28596558      -0.13782485
H        7.26130780       6.09017236       4.99109018       0.05717871      -0.06300700       0.00842746      -0.05097223      -0.00248363       0.15080679
H        6.65086111       6.21660219       7.53224392      -0.04636776       0.06920461       0.35611999      -0.68625510      -0.91362343      -0.34941534
H        5.81758896       4.53384641       6.60426962      -0.09276702      -0.19371491       0.23072082       0.40381839      -0.02020172       0.21417534
H        4.73869220       6.11610613       6.95610010      -0.26731021       0.13819731       0.30714620      -0.10654529       0.05857788       0.21496660
N        6.28673966       6.41287508       5.23399122      -0.39701857       0.17113916      -0.96847615       0.25811754      -0.34128084       0.57045149
8
Lattice="12.0 0.0 0.0 0.0 12.0 0.0 0.0 0.0 12.0" Properties=species:S:1:pos:R:3:momenta:R:3:forces:R:3 energy=-440.46076595150885 free_energy=-440.46076595150885 stress="-0.0010051158081519314 0.0003672781821773848 0.00017985015956737817 0.0003672781821773848 -0.0006905368134476888 0.00030099849547667685 0.00017985015956737817 0.00030099849547667685 -0.0007861605789674772" pbc="T T T"
B        5.83303137       5.72835563       6.82907057       0.19561926       0.18956400      -0.82739184       1.71035350      -0.32296897      -1.85094165
H        6.19667942       7.38125843       5.31420903       0.05110144       0.04552331      -0.05197981       0.11329218      -0.62785391       0.10674290
H        5.53294117       5.99022409       4.58332671      -0.09921563      -0.11461300      -0.07387661       0.37128429       0.03234053       0.50945297
H        7.19584812       6.02289602       4.99146253       0.00082057       0.01693636      -0.07298436      -0.20588084      -0.02780827       0.28225257
H        6.70720042       6.17764813       7.41667329       0.02204133       0.27171483      -0.14968191       0.21024955       0.01677889       1.12906572
H        5.87757468       4.61874157       6.55748191      -0.14574717       0.18021212      -0.11445698       0.02151538      -1.08017036       0.68024788
H        4.80415188       6.12406471       6.93341225       0.13752999       0.03521813      -0.10901472      -1.95314164       0.78894147       0.88082221
N        6.23150773       6.31197564       5.32567986      -0.77396411      -0.51342089       0.80112731      -0.26767242       1.22074062      -1.73764259
8
Lattice="12.0 0.0 0.0 0.0 12.0 0.0 0.0 0.0 12.0" Properties=species:S:1:pos:R:3:momenta:R:3:forces:R:3 energy=-440.62871381607084 free_energy=-440.62871381607084 stress="0.001478484541114053 -0.0002963792010686039 0.00028839412830981625 -0.0002963792010686039 0.0016265145250905205 3.6741274772556656e-05 0.00028839412830981625 3.6741274772556656e-05 0.0007818465502598336" pbc="T T T"
B        5.88355026       5.80154924       6.82240526      -0.57282113      -0.16285533       1.63309904       0.16059794      -1.06034149      -0.13410680
H        6.20470537       7.41965794       5.22087602       0.08456504      -0.00179333      -0.13563558       0.16048968      -0.69042698      -0.08411108
H        5.49119597       5.98464129       4.53091668       0.02172137       0.00218582      -0.14102906       0.83859381       0.31801638       0.66862170
H        7.20532724       5.99981174       4.94655807       0.02597643       0.08103059      -0.21226847      -0.59449116       0.29357372       0.04259965
H        6.79244129       6.21257934       7.46908332       0.08962259       0.17440635      -0.24676124      -0.54893789       0.13430155      -0.22312025
H        5.94850290       4.58034206       6.76054929      -0.07738371       0.13780640      -0.27044345      -0.29763309       1.38056562      -0.10261851
H        4.79467276       6.24997307       7.03726621       0.19304016      -0.10663702      -0.16272812       0.74381158      -0.27153897      -0.00225268
N        6.23684909       6.35213003       5.21806364      -0.37382627      -0.01350066      -1.05984325      -0.46243086      -0.10414983      -0.16501201
8
Lattice="12.0 0.0 0.0 0.0 12.0 0.0 0.0 0.0 12.0" Properties=species:S:1:pos:R:3:momenta:R:3:forces:R:3 energy=-440.4142046041769 free_energy=-440.4142046041769 stress="0.0010463738421120057 -0.0006896741429668105 -0.00037336343666664965 -0.0006896741429668105 0.0010486346741797503 -0.0007008310662097974 -0.00037336343666664965 -0.0007008310662097974 0.0017220548081952215" pbc="T T T"
B        5.90355009       5.80793306       6.76762136       0.04373337       0.61268009      -0.99162096      -0.86379015      -0.52968126       1.27318207
H        6.18584442       7.38532830       5.07434024       0.03637902      -0.07802475      -0.01942985       0.22661060      -0.50898238      -0.09889028
H        5.42462777       5.91372421       4.51567355       0.03124740      -0.02231921       0.14070151       0.55434317       0.21306642       0.11937844
H        7.16447293       5.90550994       4.85543452      -0.09252301       0.01796089       0.02898640      -0.74294861       0.53931337      -0.09680342
H        6.74205133       6.18675611       7.48432645       0.17497161       0.01585209      -0.04068315       0.41752034       0.74662945      -0.54196712
H        5.96493449       4.61467170       6.89045859       0.04119026      -0.14850843       0.02845134      -0.31615823       0.67320358      -1.07876605
H        4.83552707       6.25543813       7.12901168      -0.07226631       0.05964645      -0.18438395       0.88910952      -0.31986172      -0.90181555
N        6.21269104       6.32500172       5.09860760      -0.78223148      -0.34475635       0.43220521      -0.16468664      -0.81368746       1.32568190
8
Lattice="12.0 0.0 0.0 0.0 12.0 0.0 0.0 0.0 12.0" Properties=species:S:1:pos:R:3:momenta:R:3:forces:R:3 energy=-440.5539129782569 free_energy=-440.5539129782569 stress="-0.0005427413518387278 -0.0004866134980792984 -0.00035235515050749085 -0.0004866134980792984 -0.0007714960870297941 0.00046469866473122356 -0.00035235515050749085 0.00046469866473122356 -0.0014856566676767688" pbc="T T T"
B        5.93407254       5.85263816       6.72950570      -0.14678809       0.38803652      -0.12048517      -0.82819912      -0.31916187       2.15971738
H        6.14403379       7.28685837       5.14810079       0.03269152      -0.07873691       0.01199764       0.21242663      -0.12289478      -0.26456254
H        5.36971559       5.85266387       4.64236377       0.00267239      -0.04444774       0.09671675      -0.13196250      -0.12897306      -0.31268240
H        7.07642143       5.84277811       4.85669085      -0.12951100       0.03769979       0.05699925      -0.22086885       0.22978889       0.00867093
H        6.76701491       6.30750760       7.35763623      -0.07465165      -0.25484836       0.17279427       1.01446587       0.49434253       0.18417521
H        5.96725945       4.71314163       6.80165396       0.12971312      -0.09500218       0.45116689      -0.06580947      -0.88444763      -0.13127299
H        4.92357857       6.28837538       7.12901238      -0.06508685       0.01080455       0.26197115      -0.18109702       0.01275319      -0.56591191
N        6.15932614       6.23314452       5.21547142      -0.39269802       0.15341365      -1.56055840       0.20104446       0.71859272      -1.07813368
8
Lattice="12.0 0.0 0.0 0.0 12.0 0.0 0.0 0.0 12.0" Properties=species:S:1:pos:R:3:momenta:R:3:forces:R:3 energy=-440.3986717881458 free_energy=-440.3986717881458 stress="-0.0008906035376670199 0.0002802110511023204 -9.905034253020576e-05 0.0002802110511023204 -0.0010421003587849497 -0.0004468301494077456 -9.905034253020576e-05 -0.0004468301494077456 0.0012868371473597508" pbc="T T T"
B        5.97503093       5.84979860       7.02096152      -0.03387167       0.45203210      -0.52662580       0.02369768       2.08446958      -2.37775501
H        6.18226669       7.27915819       5.00381472       0.01555100      -0.09706171       0.06084103       0.05432451       0.47306254       0.27619234
H        5.38391497       5.85416924       4.60707422      -0.05104164      -0.07753596       0.07648597      -0.54594224      -0.38447593       0.00993703
H        7.04809583       5.83586367       4.83918543      -0.11718978       0.04698679      -0.00407416       0.81209025      -0.38367913      -0.07882228
H        6.89948761       6.46709163       7.39292578      -0.17631270      -0.21848526       0.17146548       0.11604899      -0.48435650       0.37558469
H        5.95464815       4.72084181       6.91793323       0.10845920       0.14203130       0.15961566       0.26027139      -1.27210701       0.40209470
H        4.95190417       6.37345987       7.19891648      -0.01157370       0.03062618       0.26943152      -0.30273835      -0.02495239       0.32655304
N        6.16211000       6.25056285       5.17245294      -0.41300828      -0.15525669      -0.87108357      -0.41775222      -0.00796116       1.06621548
8
Lattice="12.0 0.0 0.0 0.0 12.0 0.0 0.0 0.0 12.0" Properties=species:S:1:pos:R:3:momenta:R:3:forces:R:3 energy=-440.4250157547333 free_energy=-440.4250157547333 stress="0.00019403768694450457 0.0006874856250432039 0.00046477922450135714 0.0006874856250432039 0.0001796158853576523 0.0003270475629004052 0.00046477922450135714 0.0003270475629004052 -0.0020554900975432804" pbc="T T T"
B        6.02316805       5.95988387       6.85604070       0.20972949       0.02908868      -0.93646976       0.43098337       0.56234258       0.44753478
H        6.12328445       7.23683338       5.02671359       0.03876549      -0.06303282      -0.06817330       0.06891662       1.08625193       0.07599888
H        5.31589823       5.81742027       4.77299239      -0.00424970      -0.06587370       0.00933228      -0.49098220      -0.35328886      -0.13408253
H        6.97619139       5.82438685       4.86436244      -0.03458079       0.00673951      -0.05548617       0.98966746      -0.48274320      -0.28213879
H        7.01458762       6.59025862       7.22700761      -0.11894923       0.12390862      -0.28615249      -1.26204855      -1.23705608       0.25167734
H        5.96382955       4.76316662       6.87394639      -0.03234491       0.24327081      -0.17024782       0.38333319       0.74934268       0.64011139
H        4.98541238       6.48289545       7.07060797       0.08112530       0.15247322      -0.26334986       0.30389203      -0.19085916       0.65455313
N        6.12534375       6.23471360       5.28109696      -0.86863343      -0.29412788       1.05756419      -0.42376193      -0.13398988      -1.65365420
8
Lattice="12.0 0.0 0.0 0.0 12.0 0.0 0.0 0.0 12.0" Properties=species:S:1:pos:R:3:momenta:R:3:forces:R:3 energy=-440.56733983892343 free_energy=-440.56733983892343 stress="0.0004925925274718088 0.0002795696747699137 -5.7312320101009145e-05 0.0002795696747699137 0.0003954042335452127 -2.531811845451547e-05 -5.7312320101009145e-05 -2.531811845451547e-05 0.001392631668081055" pbc="T T T"
B        5.97571316       6.00217192       6.92636403      -0.09223167      -0.15577885       1.47103013       1.28694460      -1.16012432      -0.48430489
H        6.00939183       7.20754364       4.93055958       0.06131343       0.10090505      -0.28765070       0.07018780       0.62999019      -0.17128348
H        5.17799366       5.74326831       4.70494007      -0.04660187      -0.08854995      -0.16367359      -0.40970444      -0.32368517      -0.15826521
H        6.89768943       5.75080197       4.75653056       0.05701280      -0.01581578      -0.23551316       0.12079698      -0.09017717       0.00776465
H        7.02269136       6.52159798       7.26758110       0.30169178       0.35903904      -0.11643517      -1.18455509      -0.38662784      -0.33702666
H        5.97679180       4.79245636       7.06228620      -0.12418037      -0.17281369      -0.14865193       0.04703165       1.20197678      -0.17993253
H        4.97730864       6.49114998       7.29505993      -0.18364239       0.17665364      -0.04449977       0.05243680       0.27010351      -0.25549618
N        6.01965195       6.18811008       5.12129239      -0.75663595      -0.06135925      -1.24052576       0.01686169      -0.14145597       1.57854429
8
Lattice="12.0 0.0 0.0 0.0 12.0 0.0 0.0 0.0 12.0" Properties=species:S:1:pos:R:3:momenta:R:3:forces:R:3 energy=-440.347019003715 free_energy=-440.347019003715 stress="-0.001503643894514454 -0.0005252257081129274 8.581902978904692e-05 -0.0005252257081129274 -0.000871664789333365 -0.0006581355720200236 8.581902978904692e-05 -0.0006581355720200236 0.0017139390003800632" pbc="T T T"
B        5.99289652       5.97751910       6.87522911      -0.27223925       0.70494828      -1.71744627      -0.44754962      -1.21715753      -1.30101017
H        5.92782832       7.12826756       4.79994358       0.02556348       0.12941236       0.07650260       0.18235727      -0.53195397       0.00576938
H        5.07555404       5.60969420       4.76040125      -0.17624719      -0.12562784       0.11192994       0.05300829      -0.09870686      -0.17161760
H        6.83835835       5.59889800       4.74720907       0.03317724      -0.01995489      -0.04297944      -0.43241401       0.30806512      -0.16857030
H        6.94260535       6.39798962       7.25279093       0.09857729       0.02369607      -0.03022419       1.90624079       1.51039224       0.08886521
H        6.02410323       4.87173244       7.17964163      -0.06038339       0.03290849      -0.04515026      -0.32690577      -0.98456739      -0.58419038
H        5.05739465       6.47340588       7.24286827       0.09623229      -0.12047114      -0.04128124      -1.32381819       0.93962304       0.16806639
N        5.95632868       6.09825795       5.04667453      -0.57815708      -0.47351196       0.87363883       0.38908123       0.07430536       1.96268748
8
Lattice="12.0 0.0 0.0 0.0 12.0 0.0 0.0 0.0 12.0" Properties=species:S:1:pos:R:3:momenta:R:3:forces:R:3 energy=-440.5433705301988 free_energy=-440.5433705301988 stress="0.0009278489555181591 -0.0005427375612010565 -0.00022764464753890262 -0.0005427375612010565 0.0012726050855538748 -0.00023322097276766725 -0.00022764464753890262 -0.00023322097276766725 -0.0020924916225500277" pbc="T T T"
B        6.01293815       6.04293871       6.81167256       0.02206748       0.56456329       0.51204583      -0.65663419       0.15169113       2.52962707
H        5.86104579       7.08818782       4.91217779       0.03833725       0.06649176      -0.04450314       0.20901610      -1.00953945       0.11799225
H        4.99153502       5.58535820       4.94178679      -0.18226101      -0.13216378       0.03534172       0.86363079       0.33766665       0.06998904
H        6.73773209       5.56166868       4.82166992       0.04395981      -0.03968979       0.04987966      -0.51674744       0.37706216      -0.03713601
H        7.00846498       6.58496784       7.04825997      -0.18890427      -0.30773133       0.14599388       0.31436483       0.23385282       0.18314764
H        6.04841448       4.91181218       7.17207278       0.12130738       0.28747444       0.40170626      -0.22503828       0.47144842      -0.25810428
H        5.05328945       6.67186195       7.17833008       0.22978363      -0.21856051       0.08073175       0.72811012      -0.64113300      -0.05877807
N        5.90294765       6.06666527       5.25353649      -0.95369473      -0.06245848      -2.03133783      -0.71670192       0.07895127      -2.54673765
8
Lattice="12.0 0.0 0.0 0.0 12.0 0.0 0.0 0.0 12.0" Properties=species:S:1:pos:R:3:momenta:R:3:forces:R:3 energy=-440.12409085287874 free_energy=-440.12409085287874 stress="0.0018110395888680936 -0.0001710773651392114 -3.141402496166613e-05 -0.0001710773651392114 0.001702774672269836 0.000600154124546737 -3.141402496166613e-05 0.000600154124546737 0.0020417795549964673" pbc="T T T"
B        6.06154242       6.14552918       7.06222960      -0.05407695       0.57291521      -0.33388319      -0.89242133       1.16972972      -2.48966491
H        5.79206710       7.04099625       4.66689259       0.01205187      -0.07947869      -0.02487487       0.21302893      -0.51238030       0.54214919
H        4.90536628       5.57873001       4.82310048      -0.01198950      -0.03748674       0.09175424       1.02045491       0.39519443       0.69043441
H        6.62634676       5.51947056       4.64794837      -0.06688827      -0.01747287      -0.04525033      -0.40750457       0.36090364       0.57729574
H        7.09463372       6.77240354       7.03924149       0.01802597      -0.10912656       0.02577443      -0.56795943      -0.78722118       0.42096452
H        6.04006946       4.95900375       7.13923561       0.10842402      -0.10835899       0.03583695       0.12902294       0.54456791       0.79395997
H        5.07219246       6.84163543       7.35205163      -0.12182628       0.09151839       0.03336771       1.26095848      -1.27275238      -0.17263039
N        5.82997292       6.06678215       5.10715679      -0.76870872      -0.15175347      -0.64810493      -0.75557994       0.10195815      -0.36250854
8
Lattice="12.0 0.0 0.0 0.0 12.0 0.0 0.0 0.0 12.0" Properties=species:S:1:pos:R:3:momenta:R:3:forces:R:3 energy=-440.59861724985734 free_energy=-440.59861724985734 stress="0.0001395469146331232 -3.620189101404427e-05 -0.00018622054975136887 -3.620189101404427e-05 -0.00012309068335401767 -8.311609450874413e-05 -0.00018622054975136887 -8.311609450874413e-05 -0.0014806473706921763" pbc="T T T"
B        6.11481229       6.12522171       6.83559252      -0.11393342       0.16653539      -1.52456423      -0.13008426       1.93606728       0.05229670
H        5.79130187       6.94314757       4.77785053       0.02441445      -0.16718578       0.01180961       0.20697486      -0.15876744       0.15229908
H        4.90625191       5.52970663       5.09035229       0.15306609       0.03951335      -0.05432106       0.24265183      -0.06759841      -0.01406506
H        6.60808333       5.41271192       4.78919194      -0.22567013       0.08145418      -0.10782718      -0.54120501       0.39809229       0.13988625
H        7.09374809       6.77246615       6.89234282      -0.00097192       0.15468695      -0.37250193       0.18146305      -0.55291430       0.29352772
H        6.08455524       5.05685243       7.22214947      -0.01865337      -0.22202434      -0.35221896       0.28889832      -0.87658792       0.59396841
H        5.21394223       6.79010668       7.15415895      -0.24765775       0.35984524      -0.22270748      -0.23770222      -0.09975850       0.50488024
N        5.84169911       5.99795412       5.25294827      -0.46995926      -0.24945707       1.74289234      -0.01099658      -0.57853301      -1.72279335
8
Lattice="12.0 0.0 0.0 0.0 12.0 0.0 0.0 0.0 12.0" Properties=species:S:1:pos:R:3:momenta:R:3:forces:R:3 energy=-440.5118537269028 free_energy=-440.5118537269028 stress="-0.001017787524413183 0.0004219564797773679 0.0006308141998724764 0.0004219564797773679 -0.0013013724362160154 4.966559310222026e-05 0.0006308141998724764 4.966559310222026e-05 0.0012098265693960104" pbc="T T T"
B        6.14390817       6.17502279       6.84401369       0.56854375       0.05905989       1.71369095       1.10630775      -0.03422125      -1.24743543
H        5.71082448       6.83784513       4.63369690      -0.02231822      -0.20337635      -0.31935160       0.10274746       0.07169017      -0.13955742
H        4.82488977       5.43464226       5.07956736       0.05846136      -0.08285614      -0.10988425      -0.63637535      -0.47792910      -0.15453208
H        6.52984293       5.30095766       4.76808759      -0.21964181       0.04771451      -0.08883573       0.04531726      -0.13563033      -0.35580423
H        7.17511023       6.72616467       6.82570703      -0.11070577       0.22101318      -0.11415321       0.01068366      -0.02643668      -0.22113549
H        6.18034837       5.16215487       7.36630310      -0.08802734       0.10988967      -0.13281227       0.11717832      -1.14982011      -0.10001592
H        5.31986145       6.78719157       7.28127724       0.04806992       0.19454976      -0.15559512      -1.49075827       1.19438445       0.23453611
N        5.74467737       5.90196547       5.09764506      -1.13654025      -0.18211925      -1.67522881       0.74489916       0.55796286       1.98394446
8
Lattice="12.0 0.0 0.0 0.0 12.0 0.0 0.0 0.0 12.0" Properties=species:S:1:pos:R:3:momenta:R:3:forces:R:3 energy=-440.33423816234915 free_energy=-440.33423816234915 stress="0.0003831714685462027 0.00025381592096116633 0.0006498034266247444 0.00025381592096116633 0.00017427552239604888 0.00026689035939730867 0.0006498034266247444 0.00026689035939730867 0.0018802853055966849" pbc="T T T"
B        6.14984307       6.25302917       6.88986310      -0.59051151      -0.04666388      -1.68465749       0.71595471      -2.08969597       0.17318499
H        5.58742759       6.76093298       4.60889816       0.08787613       0.02622977       0.21143392       0.14984761       0.55708232      -0.46363784
H        4.73028627       5.40617648       5.16202586      -0.02466838      -0.02249487       0.22578239      -0.49374927      -0.43887343       0.04018187
H        6.38390848       5.22894250       4.71938129      -0.04323461       0.04333421       0.04101820       0.81794541      -0.66520940      -0.48914499
H        7.26971373       6.70146363       6.85474847      -0.09400124       0.08497057      -0.03851880      -1.14174296       0.08168677      -0.41111230
H        6.20460330       5.13214242       7.39110184      -0.09530623       0.29911974      -0.03463344      -0.22345411       1.18969619      -0.80691577
H        5.25870333       6.86785758       7.36034575       0.27653901      -0.11190302      -0.05762336       0.23281805       0.20601126      -0.61387702
N        5.66193987       5.85040458       5.09308733      -0.41861331      -0.10876052       0.45526149      -0.05761943       1.15930225       2.57132105
8
Lattice="12.0 0.0 0.0 0.0 12.0 0.0 0.0 0.0 12.0" Properties=species:S:1:pos:R:3:momenta:R:3:forces:R:3 energy=-440.3132096505427 free_energy=-440.3132096505427 stress="7.68211545351671e-06 -0.000793965315821809 -0.0007072988985310303 -0.000793965315821809 -0.00027584380446913406 -0.001164429354782214 -0.0007072988985310303 -0.001164429354782214 -0.0029344648610528" pbc="T T T"
B        6.17489201       6.14704715       6.67283941      -0.13270260       0.82300606      -0.24796238       0.63371746       0.05183076       3.31564296
H        5.58432823       6.59983886       4.68262759       0.03050887       0.07658834      -0.06392146       0.19684819       0.87986739      -0.49039687
H        4.76017757       5.30801016       5.23848008      -0.11577792      -0.10961303       0.10146028      -0.34819481      -0.40029533       0.36563794
H        6.35680362       5.12716744       4.78886974       0.11015583      -0.09804052      -0.00574486       0.62911341      -0.52496275      -0.33992012
H        7.23982243       6.60522299       6.47007845       0.33134873       0.01276436       0.05612810      -0.23772433       0.38737751       0.41713488
H        6.29549612       5.12033666       7.31737241       0.07574684      -0.03945407       0.22521608      -0.37639476       1.14517630      -0.54007702
H        5.28236055       6.87966334       7.01363336       0.00505155       0.01283313       0.25444168       1.04339443      -0.34452945       0.36150428
N        5.70385523       5.76387513       5.28482836      -1.20763737      -0.51400051      -1.20290977      -1.54075959      -1.19446443      -3.08952607
8
Lattice="12.0 0.0 0.0 0.0 12.0 0.0 0.0 0.0 12.0" Properties=species:S:1:pos:R:3:momenta:R:3:forces:R:3 energy=-440.2280208041497 free_energy=-440.2280208041497 stress="-0.0008979263171848 -0.0004186091365435389 0.0011379017440156579 -0.0004186091365435389 -0.000595291404895987 0.00110073178965516 0.0011379017440156579 0.00110073178965516 0.0013296427883806277" pbc="T T T"
B        6.32937017       6.26486519       7.01016245       0.14007542       0.74759343       0.10871908      -2.22354475      -0.41150790      -2.25993473
H        5.45501202       6.43354343       4.53764777      -0.09290669      -0.01257098      -0.26587648       0.36980978       0.34576703       0.23227066
H        4.70820818       5.20324892       5.39834001      -0.12176250      -0.07760524      -0.01812338      -0.14605339      -0.18370277       0.38514118
H        6.30603934       4.96779742       4.85108939      -0.04612375      -0.12005146      -0.17532039      -0.06360532       0.30636734       0.24398926
H        7.29179182       6.70123618       6.66055098       0.08452537      -0.15039937      -0.12756887       1.84089898       0.78079995      -0.43680732
H        6.36336785       5.22136874       7.46235223       0.10925049      -0.14296719       0.10611189      -0.00365525      -0.82603325       0.83522726
H        5.50201093       7.03220258       7.30124052      -0.20753141      -0.03138152      -0.18597572      -0.18527601      -0.02720510       0.31999364
N        5.62891880       5.67779656       5.24680093      -0.76132603      -0.04989753      -0.31791782       0.41142596       0.01551469       0.68012004
8
Lattice="12.0 0.0 0.0 0.0 12.0 0.0 0.0 0.0 12.0" Properties=species:S:1:pos:R:3:momenta:R:3:forces:R:3 energy=-440.6096675293046 free_energy=-440.6096675293046 stress="0.00012913031583239816 -7.424857919448915e-05 -0.00020648237741263922 -7.424857919448915e-05 0.000773995810489143 0.0003523680358834 -0.00020648237741263922 0.0003523680358834 -0.00035903013564682074" pbc="T T T"
B        6.31048316       6.22860549       6.64642738      -0.66991791       0.05145532      -1.67919485      -0.23612588       1.26497742       0.33629508
H        5.54733440       6.54888972       4.65056744       0.03730048       0.05811361      -0.00704362       0.08802135      -1.01224686      -0.04238193
H        4.69471590       5.24737395       5.43579785      -0.11686533      -0.06531719       0.00029832       0.47735318      -0.05533237      -0.28969063
H        6.30829899       4.93527020       4.76918262      -0.08124746      -0.00615127      -0.07692419      -0.57572729       0.45339936       0.07813077
H        7.30528410       6.77644147       6.38992628      -0.37977599      -0.27455520      -0.26296624       0.36606091      -0.41118486      -0.33508138
H        6.38293407       5.33196992       7.34943256      -0.00364853      -0.00005981      -0.41670844       0.20778695      -0.70206558       0.46657508
H        5.58003649       7.06472980       7.04395704      -0.00307314      -0.03006933      -0.31763114      -0.26855450      -0.43478523      -0.21229656
N        5.65259498       5.64698158       5.21524215       0.32183934       0.42922941       1.88461996      -0.05881472       0.89723812      -0.00155045
8
Lattice="12.0 0.0 0.0 0.0 12.0 0.0 0.0 0.0 12.0" Properties=species:S:1:pos:R:3:momenta:R:3:forces:R:3 energy=-440.4631609568055 free_energy=-440.4631609568055 stress="0.0019195472113287804 0.00032745104449509644 -0.0002316743472113114 0.00032745104449509644 0.0011604607485315378 -0.0005403092390100251 -0.0002316743472113114 -0.0005403092390100251 0.0014819124978069742" pbc="T T T"
B        6.31153620       6.27336199       6.66323105       0.81574470       0.88313484       0.92215411       0.84266386       1.86405933       0.72965074
H        5.38221253       6.37086523       4.51560235      -0.03838571      -0.12153384      -0.13259286       0.20826558      -0.81024699       0.51178747
H        4.62501375       5.18529693       5.61128385      -0.05669220      -0.07111576       0.07623202       0.84510560       0.32357195      -0.66767824
H        6.25430984       4.87273290       4.99424778      -0.10120350      -0.06368349      -0.06120765      -0.61676588       0.22152364      -0.49212614
H        7.37498625       6.79232693       6.29076467      -0.04866550       0.13775956       0.15636598      -1.48591894      -1.07837943       0.27982007
H        6.43514641       5.41692772       7.48439765       0.01377847       0.06477522      -0.06488141      -0.00783271       0.02383067      -0.91533398
H        5.59363277       7.12726710       7.11852800       0.09261597       0.23663508       0.08220244       0.24801884      -0.68893716      -0.72265953
N        5.54266288       5.61214658       5.25282598      -1.56493745      -0.90471446      -1.84634887      -0.03353635       0.14457799       1.27653962
8
Lattice="12.0 0.0 0.0 0.0 12.0 0.0 0.0 0.0 12.0" Properties=species:S:1:pos:R:3:momenta:R:3:forces:R:3 energy=-440.37015265828506 free_energy=-440.37015265828506 stress="0.0011486339251295709 0.0007269523341603123 0.0004015133065632904 0.0007269523341603123 0.0006323509320901816 0.0005742342824856879 0.0004015133065632904 0.0005742342824856879 0.0016495968711625817" pbc="T T T"
B        6.42436998       6.45255703       6.74772831      -0.62790418      -0.71866272      -1.42044054       0.17068320      -1.36457164      -1.62751429
H        5.30894910       6.34195403       4.50880443       0.13867801       0.03988587       0.13925810       0.34374005      -0.14286897       0.12646544
H        4.56830107       5.24344813       5.58846620       0.12351584       0.07112349       0.09336855       0.72756804       0.22634073      -0.02609713
H        6.05770702       4.78470466       4.83250063       0.00871050       0.07958553       0.05895342      -0.06406516       0.60678658       0.26591063
H        7.43169893       6.83226912       6.21178957       0.16546011       0.23389923      -0.20083207      -0.76175866      -0.16291235       0.46665528
H        6.51846037       5.54066284       7.49119557       0.03990663       0.13592406       0.26155404       0.14623074       0.08919363      -0.24069139
H        5.62226973       7.21529534       7.07355431      -0.13207279       0.23525412       0.02015792      -0.31044531       0.59288868      -0.05168632
N        5.51119971       5.60284548       5.23668033      -0.59054813       0.08179694       0.19309661      -0.25195289       0.15514334       1.08695778
8
Lattice="12.0 0.0 0.0 0.0 12.0 0.0 0.0 0.0 12.0" Properties=species:S:1:pos:R:3:momenta:R:3:forces:R:3 energy=-440.1931584114039 free_energy=-440.1931584114039 stress="-0.00233054434237206 -0.0007927150263815841 -0.000785777560550005 -0.0007927150263815841 -0.0017940271054837386 -0.0010171729948996882 -0.000785777560550005 -0.0010171729948996882 -0.003027121813647299" pbc="T T T"
B        6.37956229       6.37696647       6.55927102      -0.24698983       0.51095865      -0.56297846       1.28399968      -0.68912266       1.58763559
H        5.39928291       6.30281982       4.68704611      -0.03976656      -0.21302773      -0.08111152       0.21530491       0.14701812      -0.33198575
H        4.67928745       5.25887954       5.71881496       0.12637683      -0.01289240       0.02120735      -0.44636025      -0.19865639       0.68818866
H        6.14237714       4.82653498       5.06728580      -0.12316183       0.08241774       0.04070870       0.19548740       0.14950117       0.03475162
H        7.32071255       6.66662150       6.01253951       0.05727879      -0.05307779      -0.17656954       1.36124018       0.96750308      -0.18462979
H        6.56520667       5.53303640       7.31295389      -0.15814353       0.04590101      -0.18347273       0.31801894      -0.06900786       1.03801414
H        5.66977658       7.17346502       6.87417910       0.10504621      -0.12472658       0.03892574      -0.69894763       1.67938656       0.93634573
N        5.62155745       5.64982913       5.48149199      -0.58656944      -0.07825854       0.05654672      -2.22874323      -1.98662202      -3.76832021
8
Lattice="12.0 0.0 0.0 0.0 12.0 0.0 0.0 0.0 12.0" Properties=species:S:1:pos:R:3:momenta:R:3:forces:R:3 energy=-440.3612111297962 free_energy=-440.3612111297962 stress="0.0005236821885154032 1.8029816323757207e-05 0.001362015753283351 1.8029816323757207e-05 0.0007453619177245996 0.000509330091728453 0.001362015753283351 0.000509330091728453 0.000968780723030849" pbc="T T T"
B        6.46318118       6.44632721       6.64392139       0.52018226       1.21574476       0.35507231      -1.09963434      -0.42452261      -0.18192501
H        5.11926364       6.03543698       4.51036859      -0.03725663      -0.12634517      -0.03420314       0.29949618       0.35749099      -0.31421161
H        4.58169490       5.18064267       5.85744776      -0.10119792      -0.06029133      -0.11024626      -0.70673660      -0.35856966       0.57128035
H        6.00250737       4.65094539       5.08902729      -0.26964455      -0.02236482      -0.20484552       0.40398335      -0.53165926      -0.36548191
H        7.41830510       6.76936422       6.05172891      -0.11035614      -0.15413464      -0.09476032      -0.00761543      -0.03388195      -0.26273228
H        6.68482780       5.60747472       7.48963141      -0.06025134       0.07419011      -0.15950317      -0.50816267       0.67350681      -0.79607602
H        5.70636393       7.34905461       6.91153180      -0.00179061      -0.28438195      -0.19608652       0.57609190      -0.88324503      -0.10829391
N        5.41756808       5.46686623       5.32874793      -0.78885507      -0.48816691      -0.38578309       1.04257761       1.20088072       1.45744038
8
Lattice="12.0 0.0 0.0 0.0 12.0 0.0 0.0 0.0 12.0" Properties=species:S:1:pos:R:3:momenta:R:3:forces:R:3 energy=-440.46923111325486 free_energy=-440.46923111325486 stress="0.00025710080506880244 0.0002320409051046575 0.0005021494086930473 0.0002320409051046575 0.0009976260811984414 0.00047384959192775804 0.0005021494086930473 0.00047384959192775804 0.0002694385417105399" pbc="T T T"
B        6.45959222       6.37731187       6.42088298      -1.31144231      -0.83256907      -1.74725848       0.21835699       1.08766714       1.50667195
H        5.29947419       6.14418766       4.61677168       0.04152302       0.01151133      -0.02097944      -0.19053924       0.19967944      -0.99974754
H        4.58962596       5.17081943       5.81213698      -0.01677892       0.01811828       0.12336339      -0.19978860      -0.30383164       0.15569928
H        6.01568654       4.61131354       4.99904707       0.13385564       0.05618684       0.07541679       0.42131388      -0.79008043      -0.44728171
H        7.41037404       6.74403983       5.82975707      -0.06185174      -0.11088747      -0.15359521      -0.24022730      -0.51666278      -0.33244508
H        6.76427648       5.71454840       7.38322832       0.11287380      -0.06484634       0.02990209      -0.53413133       0.21406131      -1.00819895
H        5.84224570       7.38868646       6.74357165      -0.08820598       0.04111245      -0.16156232       0.14901547      -1.52764642      -0.57256775
N        5.47886600       5.42251178       5.33013637       0.35554556       1.03295577       1.03872110       0.37600012       1.63681339       1.69786980
8
Lattice="12.0 0.0 0.0 0.0 12.0 0.0 0.0 0.0 12.0" Properties=species:S:1:pos:R:3:momenta:R:3:forces:R:3 energy=-440.6557982342736 free_energy=-440.6557982342736 stress="-0.0005607859119414061 0.00010127758137640137 -0.0001435874920078624 0.00010127758137640137 -0.0005523399478118931 0.00032780750319761856 -0.0001435874920078624 0.00032780750319761856 -0.001039455976318973" pbc="T T T"
B        6.44347093       6.42609009       6.45626483       0.57359845       1.00547903      -0.12889820      -0.28895730       0.83668329       0.01622601
H        5.11687388       5.95269211       4.66041144      -0.06935851       0.05492632      -0.13901912      -0.00956232       0.18051530      -0.49027631
H        4.63350951       5.20408243       6.11524363      -0.03403293       0.06625742       0.19008436       0.02095749      -0.09944235      -0.10899051
H        6.03242923       4.62635817       5.29718722       0.01967150      -0.18682046      -0.07277794      -0.14847895      -0.15878040      -0.27830609
H        7.36649049       6.69761554       5.82935699       0.16106026       0.23638772       0.20237285       0.51215660      -0.06863306      -0.48317666
H        6.65358251       5.74774121       7.33958856       0.17154301       0.02695490       0.20124354       0.44917206      -0.69987547       0.93235020
H        5.85826499       7.37364183       6.78830195       0.14330635       0.41336715       0.16750863      -0.40269402       0.09775038      -0.14597416
N        5.45934948       5.47537509       5.52096315      -1.78135792      -1.46840545      -1.21801408      -0.13259357      -0.08821769       0.55814753
8
Lattice="12.0 0.0 0.0 0.0 12.0 0.0 0.0 0.0 12.0" Properties=species:S:1:pos:R:3:momenta:R:3:forces:R:3 energy=-440.2613080986255 free_energy=-440.2613080986255 stress="0.0004992829026546563 0.0008696032609260091 0.0007525327753397727 0.0008696032609260091 0.00015740734425960797 0.0008608534557262186 0.0007525327753397727 0.0008608534557262186 0.0003840298751712961" pbc="T T T"
B        6.63484294       6.64376147       6.48199264      -0.31954490      -0.36125725      -0.83729579      -1.31920038      -1.49741640      -2.57859647
H        5.07485393       5.99081413       4.60681139       0.04193272       0.12497728      -0.08792739       0.52570216      -0.10858280       0.39222882
H        4.57724454       5.24352288       6.03755098      -0.10240149      -0.01553165       0.01837182       0.19823510       0.07129761       0.27154526
H        5.88097008       4.54702699       5.15714925       0.04888682      -0.00959021      -0.04267283      -0.03494833       0.75838310       0.25717322
H        7.42275546       6.77598264       5.62649540      -0.21467345       0.03921520       0.08376210       0.34090679       0.19902611       0.30746164
H        6.85796905       6.00088837       7.39318861       0.00445306       0.27120829      -0.15379281       0.42285000      -0.63324964       0.90396748
H        5.84561545       7.45297301       6.58935644       0.07205948       0.00389765      -0.09698979      -0.44577431       1.17735232       0.37947405
N        5.43091690       5.46632414       5.46164751      -0.31908173       0.09028644       0.34564241       0.31222897       0.03318970       0.06674600
8
Lattice="12.0 0.0 0.0 0.0 12.0 0.0 0.0 0.0 12.0" Properties=species:S:1:pos:R:3:momenta:R:3:forces:R:3 energy=-440.3701500910362 free_energy=-440.3701500910362 stress="-0.00014632487639464623 -0.0016665253914052314 -0.0014327333940488882 -0.0016665253914052314 -0.0001881150655128502 -0.0014912053707344924 -0.0014327333940488882 -0.0014912053707344924 0.0006341832609890573" pbc="T T T"
B        6.45508432       6.43995170       6.32346011      -0.27063837      -0.18354479      -0.48209516       2.96645815       1.09723676       1.12940936
H        5.10817731       5.90349904       4.71250724      -0.15538040      -0.27497524      -0.06983068       0.45729953      -0.57140400       0.69659124
H        4.63530788       5.20729991       6.19872398       0.00214844       0.01581489       0.09785105       0.49096602       0.11998495      -0.12193740
H        6.00957198       4.56906285       5.39184476      -0.06429049       0.04392873       0.04283380      -0.33535747       0.38726798      -0.06058231
H        7.36469212       6.55641742       5.49696810      -0.19261331      -0.12480349      -0.19875685      -1.02938653       0.19026046       1.27262900
H        6.79029922       5.78897135       7.28749276      -0.21977396      -0.03320330      -0.23623350      -0.02324595       0.98283867      -0.59322791
H        5.85267126       7.43093715       6.56489305      -0.13246925      -0.17662072      -0.16671151       0.39316113      -0.31725128      -0.04568641
N        5.49826644       5.47485269       5.62549786       0.26635013       0.87266750       0.26326199      -2.91989487      -1.88893354      -2.27719556
8
Lattice="12.0 0.0 0.0 0.0 12.0 0.0 0.0 0.0 12.0" Properties=species:S:1:pos:R:3:momenta:R:3:forces:R:3 energy=-440.4617578470759 free_energy=-440.4617578470759 stress="0.0016452256645249606 0.0006443713467257253 0.00041218351820630967 0.0006443713467257253 0.0013277451013499364 0.00021926920676632546 0.00041218351820630967 0.00021926920676632546 0.0010651738565288817" pbc="T T T"
B        6.54182991       6.58679120       6.30833474       0.39874876       1.10017737       0.00404180       0.30670656      -0.73444313       0.45268275
H        4.93322595       5.82472615       4.68762992       0.06067794      -0.04619636       0.06166032       0.34230378      -0.45077806       0.25617184
H        4.56037838       5.29650753       6.29951929      -0.10085915      -0.05930459      -0.10745886       0.66570889      -0.15062520      -0.61509235
H        5.82077710       4.44740065       5.39980841      -0.23987950      -0.08722506      -0.15014306      -0.21712874       0.28072004      -0.10845293
H        7.43962162       6.75480808       5.54882082       0.22178573       0.00732038      -0.37272501      -0.68659415      -0.31916388      -0.12440893
H        6.93199720       6.05227973       7.31237008       0.01448096      -0.12800488       0.09607944      -0.55452105       0.10644634      -0.73660049
H        5.90844221       7.55259935       6.52936405      -0.14405594       0.14326407      -0.05933757      -0.21245421      -0.26327668      -0.23543717
N        5.32939436       5.36752166       5.55930485      -0.95170134      -0.79546561      -0.19650631       0.35597893       1.53112058       1.11113728
8
Lattice="12.0 0.0 0.0 0.0 12.0 0.0 0.0 0.0 12.0" Properties=species:S:1:pos:R:3:momenta:R:3:forces:R:3 energy=-440.546696454693 free_energy=-440.546696454693 stress="8.469017157541039e-05 0.0006897759253269248 0.0008557346268789388 0.0006897759253269248 -7.169542838374327e-06 0.0006043276964630656 0.0008557346268789388 0.0006043276964630656 -0.001097470542217138" pbc="T T T"
B        6.61976724       6.55182915       6.26336233      -1.60404000      -1.16464216      -1.20389787      -1.19770748      -0.45349292       0.52948094
H        5.09494649       5.82313986       4.75816364       0.03815954      -0.07064463       0.04702379      -0.02072736      -0.10317266      -0.46190071
H        4.63147878       5.26022850       6.29991040       0.18315306       0.07873990      -0.00595397       0.18309790      -0.12742109       0.10098748
H        5.97059911       4.48398392       5.47466344       0.13192579       0.20102877       0.10631060      -0.33236790       0.11349225      -0.09987352
H        7.36852122       6.63514052       5.44116235       0.08449063       0.02808764       0.02829174       1.12375727       0.02431649      -1.52217205
H        7.10259321       6.18693765       7.24183636       0.08362142       0.12614609      -0.09831222      -0.12549933      -0.74774403       0.49018909
H        6.02423168       7.51601608       6.41933023       0.12783402      -0.06739362      -0.03347642      -0.63835124       0.58490817      -0.01015629
N        5.43833462       5.37921526       5.63583094       0.23532869       0.99937862       0.45642939       1.00779813       0.70911379       0.97344506
8
Lattice="12.0 0.0 0.0 0.0 12.0 0.0 0.0 0.0 12.0" Properties=species:S:1:pos:R:3:momenta:R:3:forces:R:3 energy=-440.63782209466666 free_energy=-440.63782209466666 stress="-0.0009266568616747409 -0.000763325102630398 -7.852390579326581e-05 -0.000763325102630398 -7.970951703566047e-05 -0.00015250444624680928 -7.852390579326581e-05 -0.00015250444624680928 -0.0007162077143540183" pbc="T T T"
B        6.52498237       6.52529549       6.17885330       0.50588590       0.80458563      -0.34319659      -0.36670364       0.40947157       0.60052683
H        4.91776086       5.65455454       4.82805106      -0.04171087       0.02394368      -0.02212328       0.05867969       0.10108585      -0.56374552
H        4.71394807       5.35028585       6.45025075       0.08104817       0.10386052       0.03104230      -0.49990812      -0.19261407       0.66122172
H        5.89067009       4.47414721       5.60673857      -0.10030255       0.01417772      -0.01103455       0.05911234      -0.15223742      -0.15445322
H        7.28605193       6.54821439       5.30697626      -0.01637257       0.17720884       0.29355962       0.44253640       0.21776240      -0.10516235
H        6.88092674       6.00766076       7.17194894       0.25960019       0.42581933      -0.02512189       0.41969978       0.46665830      -0.01107138
H        5.89768093       7.52585279       6.34822892       0.24968867      -0.02142157       0.00053734       0.46565685      -0.48395431      -0.11662258
N        5.43075871       5.41116320       5.70462806      -1.64085154      -1.40047294      -0.61110148      -0.57907331      -0.36617231      -0.31069349
8
Lattice="12.0 0.0 0.0 0.0 12.0 0.0 0.0 0.0 12.0" Properties=species:S:1:pos:R:3:momenta:R:3:forces:R:3 energy=-440.26899999286763 free_energy=-440.26899999286763 stress="0.0010509931592060588 0.00044208546870721014 0.00023450103199773882 0.00044208546870721014 0.0007517397682758882 1.3959468644325103e-06 0.00023450103199773882 1.3959468644325103e-06 0.00045820859778321295" pbc="T T T"
B        6.72257471       6.68123825       6.15300768      -0.26824157       0.03254590      -0.80533251      -2.09192308      -1.23713847      -1.13823386
H        4.95774726       5.68872802       4.82062571       0.03907181       0.02886333      -0.00435496       0.14321287       0.17776603      -0.44103554
H        4.63533187       5.25981302       6.38665484      -0.10344442      -0.05374144       0.01186823      -0.19663706       0.15032510       0.86132703
H        5.81291241       4.40984907       5.53785768      -0.00101560       0.04327221      -0.02582256       0.65792595      -0.67425833      -0.10815232
H        7.36466813       6.57287349       5.12831184      -0.13228100      -0.10894159       0.02328710      -0.16444222       0.28666030       1.17226029
H        7.09022192       6.19289975       7.17937429      -0.10656069      -0.09841453      -0.07709177       0.18476009       0.61966664      -0.49468294
H        5.91349827       7.59015093       6.16452486      -0.06641151       0.10296140      -0.03515760       1.16944916      -0.53603558       0.27729502
N        5.40737598       5.34611929       5.69831816      -0.05124997       0.17881600       0.23776176       0.29765428       1.21301432      -0.12877769
8
Lattice="12.0 0.0 0.0 0.0 12.0 0.0 0.0 0.0 12.0" Properties=species:S:1:pos:R:3:momenta:R:3:forces:R:3 energy=-440.53994027134576 free_energy=-440.53994027134576 stress="-0.0009635838821162185 -0.0010257591108438157 -0.00041797596792585905 -0.0010257591108438157 -0.001766718314783859 -0.0002549052365022186 -0.00041797596792585905 -0.0002549052365022186 -0.0001463346178050316" pbc="T T T"
B        6.51563891       6.48420882       6.08758021      -0.16972287      -0.24958099      -0.52293641       1.72348597       1.89512653      -0.86020184
H        4.86010256       5.53847293       4.91774804      -0.15278202      -0.17556262       0.02876445       0.11915592       0.17378594      -0.44889100
H        4.75198326       5.34074517       6.57810016      -0.02262304       0.05536148       0.08594747       0.05278712      -0.07611356       0.03875947
H        5.94973654       4.49876050       5.72108386      -0.04316408      -0.11938821       0.01619733      -0.00428919      -0.63319061      -0.19923652
H        7.24801674       6.44501431       5.15078233      -0.09082927      -0.15831819      -0.29793039      -0.14933941       0.01983172       0.53933315
H        7.01948898       6.16539039       7.08225196      -0.12953026      -0.28361743       0.13854695       0.12812519      -0.01620999       0.26655322
H        5.95112507       7.50123950       6.12334360      -0.48147895       0.09180456      -0.15590123      -0.02061166       0.19071765       0.23204056
N        5.44162313       5.40650969       5.78066445       0.39934349       0.96478148       0.03182998      -1.84931395      -1.55394769       0.43164297
