B  H  N                                 
   1.0000000000000000     
    12.0000000000000000    0.0000000000000000    0.0000000000000000
     0.0000000000000000   12.0000000000000000    0.0000000000000000
     0.0000000000000000    0.0000000000000000   12.0000000000000000
   B    H    N 
     1     6     1
Direct
  0.4958824183333306  0.5079777508333336  0.4291598991666632
  0.4941186008333318  0.5926439174999985  0.5964064774999969
  0.5590732799999998  0.4650795116666657  0.5923397741666676
  0.4252021483333337  0.4709619750000016  0.5987029666666643
  0.4177245383333315  0.5714709883333313  0.4012970333333357
  0.5006654833333357  0.4073560825000015  0.4120317324999974
  0.5822754616666685  0.5546320475000002  0.4162375458333329
  0.4915060683333365  0.5081160725000018  0.5692937041666681

  0.00000000E+00  0.00000000E+00  0.00000000E+00
  0.00000000E+00  0.00000000E+00  0.00000000E+00
  0.00000000E+00  0.00000000E+00  0.00000000E+00
  0.00000000E+00  0.00000000E+00  0.00000000E+00
  0.00000000E+00  0.00000000E+00  0.00000000E+00
  0.00000000E+00  0.00000000E+00  0.00000000E+00
  0.00000000E+00  0.00000000E+00  0.00000000E+00
  0.00000000E+00  0.00000000E+00  0.00000000E+00
