   8   8   0   0
  0.2160000E+03  0.1200000E-08  0.1200000E-08  0.1200000E-08  0.5000000E-15
   1.0000000000000000E-004
  CAR 
 13-Butadiene                            
      1.78954186    -24.79707013  301     -5.99811990      1.00000000
    -24.797  0.0000E+00  0.0000E+00
    -24.708  0.0000E+00  0.0000E+00
    -24.620  0.0000E+00  0.0000E+00
    -24.531  0.0000E+00  0.0000E+00
    -24.443  0.0000E+00  0.0000E+00
    -24.354  0.0000E+00  0.0000E+00
    -24.265  0.0000E+00  0.0000E+00
    -24.177  0.0000E+00  0.0000E+00
    -24.088  0.0000E+00  0.0000E+00
    -23.999  0.0000E+00  0.0000E+00
    -23.911  0.0000E+00  0.0000E+00
    -23.822  0.4386E-09  0.3887E-10
    -23.734  0.4627E-03  0.4101E-04
    -23.645  0.1249E+01  0.1107E+00
    -23.556  0.1723E+02  0.1638E+01
    -23.468  0.4078E+01  0.1999E+01
    -23.379  0.7115E-02  0.2000E+01
    -23.290  0.3530E-07  0.2000E+01
    -23.202  0.0000E+00  0.2000E+01
    -23.113  0.0000E+00  0.2000E+01
    -23.025  0.0000E+00  0.2000E+01
    -22.936  0.0000E+00  0.2000E+01
    -22.847  0.0000E+00  0.2000E+01
    -22.759  0.0000E+00  0.2000E+01
    -22.670  0.0000E+00  0.2000E+01
    -22.582  0.0000E+00  0.2000E+01
    -22.493  0.0000E+00  0.2000E+01
    -22.404  0.0000E+00  0.2000E+01
    -22.316  0.0000E+00  0.2000E+01
    -22.227  0.0000E+00  0.2000E+01
    -22.138  0.0000E+00  0.2000E+01
    -22.050  0.0000E+00  0.2000E+01
    -21.961  0.0000E+00  0.2000E+01
    -21.873  0.0000E+00  0.2000E+01
    -21.784  0.0000E+00  0.2000E+01
    -21.695  0.0000E+00  0.2000E+01
    -21.607  0.0000E+00  0.2000E+01
    -21.518  0.0000E+00  0.2000E+01
    -21.429  0.0000E+00  0.2000E+01
    -21.341  0.0000E+00  0.2000E+01
    -21.252  0.0000E+00  0.2000E+01
    -21.164  0.0000E+00  0.2000E+01
    -21.075  0.0000E+00  0.2000E+01
    -20.986  0.0000E+00  0.2000E+01
    -20.898  0.0000E+00  0.2000E+01
    -20.809  0.0000E+00  0.2000E+01
    -20.720  0.0000E+00  0.2000E+01
    -20.632  0.0000E+00  0.2000E+01
    -20.543  0.0000E+00  0.2000E+01
    -20.455  0.0000E+00  0.2000E+01
    -20.366  0.0000E+00  0.2000E+01
    -20.277  0.0000E+00  0.2000E+01
    -20.189  0.0000E+00  0.2000E+01
    -20.100  0.0000E+00  0.2000E+01
    -20.011  0.0000E+00  0.2000E+01
    -19.923  0.0000E+00  0.2000E+01
    -19.834  0.0000E+00  0.2000E+01
    -19.746  0.0000E+00  0.2000E+01
    -19.657  0.0000E+00  0.2000E+01
    -19.568  0.0000E+00  0.2000E+01
    -19.480  0.0000E+00  0.2000E+01
    -19.391  0.0000E+00  0.2000E+01
    -19.303  0.0000E+00  0.2000E+01
    -19.214  0.0000E+00  0.2000E+01
    -19.125  0.0000E+00  0.2000E+01
    -19.037  0.0000E+00  0.2000E+01
    -18.948  0.0000E+00  0.2000E+01
    -18.859  0.0000E+00  0.2000E+01
    -18.771  0.0000E+00  0.2000E+01
    -18.682  0.0000E+00  0.2000E+01
    -18.594  0.0000E+00  0.2000E+01
    -18.505  0.0000E+00  0.2000E+01
    -18.416  0.0000E+00  0.2000E+01
    -18.328  0.0000E+00  0.2000E+01
    -18.239  0.0000E+00  0.2000E+01
    -18.150  0.0000E+00  0.2000E+01
    -18.062  0.0000E+00  0.2000E+01
    -17.973  0.0000E+00  0.2000E+01
    -17.885  0.0000E+00  0.2000E+01
    -17.796  0.0000E+00  0.2000E+01
    -17.707  0.0000E+00  0.2000E+01
    -17.619  0.0000E+00  0.2000E+01
    -17.530  0.0000E+00  0.2000E+01
    -17.441  0.0000E+00  0.2000E+01
    -17.353  0.0000E+00  0.2000E+01
    -17.264  0.0000E+00  0.2000E+01
    -17.176  0.0000E+00  0.2000E+01
    -17.087  0.0000E+00  0.2000E+01
    -16.998  0.0000E+00  0.2000E+01
    -16.910  0.0000E+00  0.2000E+01
    -16.821  0.0000E+00  0.2000E+01
    -16.732  0.0000E+00  0.2000E+01
    -16.644  0.0000E+00  0.2000E+01
    -16.555  0.0000E+00  0.2000E+01
    -16.467  0.0000E+00  0.2000E+01
    -16.378  0.0000E+00  0.2000E+01
    -16.289  0.0000E+00  0.2000E+01
    -16.201  0.0000E+00  0.2000E+01
    -16.112  0.0000E+00  0.2000E+01
    -16.023  0.0000E+00  0.2000E+01
    -15.935  0.0000E+00  0.2000E+01
    -15.846  0.0000E+00  0.2000E+01
    -15.758  0.0000E+00  0.2000E+01
    -15.669  0.0000E+00  0.2000E+01
    -15.580  0.0000E+00  0.2000E+01
    -15.492  0.0000E+00  0.2000E+01
    -15.403  0.0000E+00  0.2000E+01
    -15.315  0.0000E+00  0.2000E+01
    -15.226  0.0000E+00  0.2000E+01
    -15.137  0.0000E+00  0.2000E+01
    -15.049  0.0000E+00  0.2000E+01
    -14.960  0.0000E+00  0.2000E+01
    -14.871  0.0000E+00  0.2000E+01
    -14.783  0.0000E+00  0.2000E+01
    -14.694  0.0000E+00  0.2000E+01
    -14.606  0.0000E+00  0.2000E+01
    -14.517  0.0000E+00  0.2000E+01
    -14.428  0.0000E+00  0.2000E+01
    -14.340  0.0000E+00  0.2000E+01
    -14.251  0.0000E+00  0.2000E+01
    -14.162  0.0000E+00  0.2000E+01
    -14.074  0.0000E+00  0.2000E+01
    -13.985  0.0000E+00  0.2000E+01
    -13.897  0.2756E-13  0.2000E+01
    -13.808  0.7111E-06  0.2000E+01
    -13.719  0.4165E-01  0.2004E+01
    -13.631  0.7761E+01  0.2692E+01
    -13.542  0.1437E+02  0.3965E+01
    -13.453  0.1765E+01  0.4122E+01
    -13.365  0.1738E+02  0.5662E+01
    -13.276  0.3806E+01  0.5999E+01
    -13.188  0.5982E-02  0.6000E+01
    -13.099  0.2650E-07  0.6000E+01
    -13.010  0.0000E+00  0.6000E+01
    -12.922  0.0000E+00  0.6000E+01
    -12.833  0.0000E+00  0.6000E+01
    -12.744  0.0000E+00  0.6000E+01
    -12.656  0.0000E+00  0.6000E+01
    -12.567  0.0000E+00  0.6000E+01
    -12.479  0.0000E+00  0.6000E+01
    -12.390  0.3009E-09  0.6000E+01
    -12.301  0.3634E-03  0.6000E+01
    -12.213  0.1115E+01  0.6099E+01
    -12.124  0.1703E+02  0.7608E+01
    -12.035  0.4415E+01  0.7999E+01
    -11.947  0.8714E-02  0.8000E+01
    -11.858  0.4943E-07  0.8000E+01
    -11.770  0.0000E+00  0.8000E+01
    -11.681  0.0000E+00  0.8000E+01
    -11.592  0.0000E+00  0.8000E+01
    -11.504  0.0000E+00  0.8000E+01
    -11.415  0.0000E+00  0.8000E+01
    -11.327  0.0000E+00  0.8000E+01
    -11.238  0.0000E+00  0.8000E+01
    -11.149  0.0000E+00  0.8000E+01
    -11.061  0.0000E+00  0.8000E+01
    -10.972  0.0000E+00  0.8000E+01
    -10.883  0.0000E+00  0.8000E+01
    -10.795  0.0000E+00  0.8000E+01
    -10.706  0.0000E+00  0.8000E+01
    -10.618  0.0000E+00  0.8000E+01
    -10.529  0.0000E+00  0.8000E+01
    -10.440  0.0000E+00  0.8000E+01
    -10.352  0.0000E+00  0.8000E+01
    -10.263  0.0000E+00  0.8000E+01
    -10.174  0.0000E+00  0.8000E+01
    -10.086  0.0000E+00  0.8000E+01
     -9.997  0.0000E+00  0.8000E+01
     -9.909  0.0000E+00  0.8000E+01
     -9.820  0.0000E+00  0.8000E+01
     -9.731  0.0000E+00  0.8000E+01
     -9.643  0.0000E+00  0.8000E+01
     -9.554  0.0000E+00  0.8000E+01
     -9.465  0.0000E+00  0.8000E+01
     -9.377  0.0000E+00  0.8000E+01
     -9.288  0.0000E+00  0.8000E+01
     -9.200  0.0000E+00  0.8000E+01
     -9.111  0.0000E+00  0.8000E+01
     -9.022  0.0000E+00  0.8000E+01
     -8.934  0.0000E+00  0.8000E+01
     -8.845  0.0000E+00  0.8000E+01
     -8.756  0.0000E+00  0.8000E+01
     -8.668  0.0000E+00  0.8000E+01
     -8.579  0.0000E+00  0.8000E+01
     -8.491  0.0000E+00  0.8000E+01
     -8.402  0.1791E-12  0.8000E+01
     -8.313  0.2590E-05  0.8000E+01
     -8.225  0.8634E-01  0.8008E+01
     -8.136  0.9759E+01  0.8873E+01
     -8.048  0.1251E+02  0.9981E+01
     -7.959  0.2140E+00  0.1000E+02
     -7.870  0.1374E-04  0.1000E+02
     -7.782  0.2085E-11  0.1000E+02
     -7.693  0.0000E+00  0.1000E+02
     -7.604  0.0000E+00  0.1000E+02
     -7.516  0.0000E+00  0.1000E+02
     -7.427  0.0000E+00  0.1000E+02
     -7.339  0.0000E+00  0.1000E+02
     -7.250  0.0000E+00  0.1000E+02
     -7.161  0.0000E+00  0.1000E+02
     -7.073  0.0000E+00  0.1000E+02
     -6.984  0.4760E-13  0.1000E+02
     -6.895  0.1032E-05  0.1000E+02
     -6.807  0.5149E-01  0.1000E+02
     -6.718  0.8316E+01  0.1074E+02
     -6.630  0.1387E+02  0.1197E+02
     -6.541  0.3327E+00  0.1200E+02
     -6.452  0.3183E-04  0.1200E+02
     -6.364  0.1642E-02  0.1200E+02
     -6.275  0.2214E+01  0.1220E+02
     -6.186  0.1782E+02  0.1378E+02
     -6.098  0.2531E+01  0.1400E+02
     -6.009  0.2237E-02  0.1400E+02
     -5.921  0.5335E-08  0.1400E+02
     -5.832  0.0000E+00  0.1400E+02
     -5.743  0.0000E+00  0.1400E+02
     -5.655  0.0000E+00  0.1400E+02
     -5.566  0.0000E+00  0.1400E+02
     -5.477  0.0000E+00  0.1400E+02
     -5.389  0.0000E+00  0.1400E+02
     -5.300  0.0000E+00  0.1400E+02
     -5.212  0.0000E+00  0.1400E+02
     -5.123  0.0000E+00  0.1400E+02
     -5.034  0.0000E+00  0.1400E+02
     -4.946  0.0000E+00  0.1400E+02
     -4.857  0.0000E+00  0.1400E+02
     -4.768  0.0000E+00  0.1400E+02
     -4.680  0.0000E+00  0.1400E+02
     -4.591  0.0000E+00  0.1400E+02
     -4.503  0.0000E+00  0.1400E+02
     -4.414  0.0000E+00  0.1400E+02
     -4.325  0.0000E+00  0.1400E+02
     -4.237  0.0000E+00  0.1400E+02
     -4.148  0.0000E+00  0.1400E+02
     -4.060  0.0000E+00  0.1400E+02
     -3.971  0.0000E+00  0.1400E+02
     -3.882  0.0000E+00  0.1400E+02
     -3.794  0.0000E+00  0.1400E+02
     -3.705  0.0000E+00  0.1400E+02
     -3.616  0.0000E+00  0.1400E+02
     -3.528  0.0000E+00  0.1400E+02
     -3.439  0.0000E+00  0.1400E+02
     -3.351  0.0000E+00  0.1400E+02
     -3.262  0.0000E+00  0.1400E+02
     -3.173  0.0000E+00  0.1400E+02
     -3.085  0.0000E+00  0.1400E+02
     -2.996  0.0000E+00  0.1400E+02
     -2.907  0.0000E+00  0.1400E+02
     -2.819  0.0000E+00  0.1400E+02
     -2.730  0.0000E+00  0.1400E+02
     -2.642  0.0000E+00  0.1400E+02
     -2.553  0.0000E+00  0.1400E+02
     -2.464  0.0000E+00  0.1400E+02
     -2.376  0.0000E+00  0.1400E+02
     -2.287  0.0000E+00  0.1400E+02
     -2.198  0.0000E+00  0.1400E+02
     -2.110  0.0000E+00  0.1400E+02
     -2.021  0.0000E+00  0.1400E+02
     -1.933  0.0000E+00  0.1400E+02
     -1.844  0.0000E+00  0.1400E+02
     -1.755  0.0000E+00  0.1400E+02
     -1.667  0.0000E+00  0.1400E+02
     -1.578  0.0000E+00  0.1400E+02
     -1.489  0.8769E-14  0.1400E+02
     -1.401  0.3281E-06  0.1400E+02
     -1.312  0.2667E-01  0.1400E+02
     -1.224  0.6671E+01  0.1459E+02
     -1.135  0.1532E+02  0.1595E+02
     -1.046  0.5472E+00  0.1600E+02
     -0.958  0.8442E-04  0.1600E+02
     -0.869  0.3189E-10  0.1600E+02
     -0.780  0.0000E+00  0.1600E+02
     -0.692  0.0000E+00  0.1600E+02
     -0.603  0.0000E+00  0.1600E+02
     -0.515  0.0000E+00  0.1600E+02
     -0.426  0.0000E+00  0.1600E+02
     -0.337  0.0000E+00  0.1600E+02
     -0.249  0.0000E+00  0.1600E+02
     -0.160  0.0000E+00  0.1600E+02
     -0.072  0.4636E-07  0.1600E+02
      0.017  0.8385E-02  0.1600E+02
      0.106  0.4358E+01  0.1639E+02
      0.194  0.2143E+02  0.1829E+02
      0.283  0.1978E+02  0.2004E+02
      0.372  0.1871E+02  0.2170E+02
      0.460  0.3416E+01  0.2200E+02
      0.549  0.4083E+01  0.2236E+02
      0.637  0.1723E+02  0.2389E+02
      0.726  0.1249E+01  0.2400E+02
      0.815  0.4627E-03  0.2400E+02
      0.903  0.4386E-09  0.2400E+02
      0.992  0.0000E+00  0.2400E+02
      1.081  0.0000E+00  0.2400E+02
      1.169  0.0000E+00  0.2400E+02
      1.258  0.0000E+00  0.2400E+02
      1.346  0.0000E+00  0.2400E+02
      1.435  0.0000E+00  0.2400E+02
      1.524  0.0000E+00  0.2400E+02
      1.612  0.0000E+00  0.2400E+02
      1.701  0.0000E+00  0.2400E+02
      1.790  0.0000E+00  0.2400E+02
