    8    8    1    1
  0.2160000E+03  0.1200000E-08  0.1200000E-08  0.1200000E-08  0.5000000E-15
   1.0000000000000000E-004
  CAR 
 13-Butadiene                            
     14      1     12

  0.1262379E-14  0.1262379E-14  0.1262379E-14  0.1000000E+01
      1        -23.588588   1.000000
      2        -13.616664   1.000000
      3        -13.398713   1.000000
      4        -12.154380   1.000000
      5         -8.130453   1.000000
      6         -6.706515   1.000000
      7         -6.229386   1.000000
      8         -1.204738   0.000000
      9          0.136361   0.000000
     10          0.224930   0.000000
     11          0.335130   0.000000
     12          0.581059   0.000000
