       N       E                     dE             d eps       ncg     rms          rms(c)
DAV:   1     0.737773589985E+02    0.73777E+02   -0.29524E+03    32   0.406E+02
DAV:   2    -0.293709465335E+02   -0.10315E+03   -0.10241E+03    44   0.120E+02
DAV:   3    -0.411309706860E+02   -0.11760E+02   -0.11743E+02    32   0.610E+01
DAV:   4    -0.414144472588E+02   -0.28348E+00   -0.28337E+00    48   0.110E+01
DAV:   5    -0.414145770219E+02   -0.12976E-03   -0.12976E-03    40   0.208E-01    0.974E+00
DAV:   6    -0.376924726662E+02    0.37221E+01   -0.63878E+00    36   0.152E+01    0.484E+00
DAV:   7    -0.366260549772E+02    0.10664E+01   -0.21637E+00    36   0.803E+00    0.212E+00
DAV:   8    -0.363831104937E+02    0.24294E+00   -0.48461E-01    28   0.500E+00    0.558E-01
DAV:   9    -0.363637248549E+02    0.19386E-01   -0.76086E-02    36   0.180E+00    0.355E-01
DAV:  10    -0.363581633356E+02    0.55615E-02   -0.71428E-03    28   0.617E-01    0.149E-01
DAV:  11    -0.363656690107E+02   -0.75057E-02   -0.15633E-02    28   0.781E-01    0.136E-01
DAV:  12    -0.363750524700E+02   -0.93835E-02   -0.62707E-03    24   0.499E-01    0.932E-02
DAV:  13    -0.363859967409E+02   -0.10944E-01   -0.37585E-03    24   0.344E-01    0.334E-02
DAV:  14    -0.363899555927E+02   -0.39589E-02   -0.85358E-04    32   0.160E-01    0.268E-02
DAV:  15    -0.363930164355E+02   -0.30608E-02   -0.57320E-04    32   0.119E-01    0.119E-02
DAV:  16    -0.363938462603E+02   -0.82982E-03   -0.76163E-05    24   0.475E-02    0.597E-03
DAV:  17    -0.363942427189E+02   -0.39646E-03   -0.25336E-05    28   0.254E-02    0.661E-03
DAV:  18    -0.363943691399E+02   -0.12642E-03   -0.72008E-06    40   0.174E-02    0.213E-03
DAV:  19    -0.363944305487E+02   -0.61409E-04   -0.37396E-06    28   0.105E-02    0.163E-03
DAV:  20    -0.363944461173E+02   -0.15569E-04   -0.46557E-07    28   0.415E-03    0.617E-04
DAV:  21    -0.363944529472E+02   -0.68300E-05   -0.30665E-07    24   0.346E-03
   1 F= -.36394453E+02 E0= -.36394453E+02  d E =-.144291E-10
