 vasp.6.4.2 20Jul23 (build Jan 21 2025 10:37:15) complex                         
 executed on             LinuxGNU date 2026.04.20  12:48:23
 running    4 mpi-ranks, with    1 threads/rank, on    1 nodes
 distrk:  each k-point on    4 cores,    1 groups
 distr:  one band on NCORE=   2 cores,    2 groups


--------------------------------------------------------------------------------------------------------


 INCAR:
   ENCUT = 300.000000
   SIGMA = 0.050000
   EDIFF = 1.00e-05
   GGA = PE
   PREC = Normal
   SYSTEM = 13-Butadiene
   ICHARG = 2
   ISMEAR = 0
   ISPIN = 1
   ISTART = 0
   NSIM = 4
   NWRITE = 2
   NCORE = 2
   KGAMMA = .TRUE.
   LCHARG = .FALSE.
   LPLANE = .TRUE.
   LSCALU = .FALSE.
   LWAVE = .FALSE.

 POTCAR:   PAW_PBE B 06Sep2000                    
 POTCAR:   PAW_PBE H 15Jun2001                    
 POTCAR:   PAW_PBE N 08Apr2002                    
 POTCAR:   PAW_PBE B 06Sep2000                    
   VRHFIN =B: s2p1                                                                                  
   LEXCH  = PE                                                                                      
   EATOM  =    71.1810 eV,    5.2317 Ry                                                             
                                                                                                    
   TITEL  = PAW_PBE B 06Sep2000                                                                     
   LULTRA =        F    use ultrasoft PP ?                                                          
   IUNSCR =        0    unscreen: 0-lin 1-nonlin 2-no                                               
   RPACOR =     .000    partial core radius                                                         
   POMASS =   10.811; ZVAL   =    3.000    mass and valenz                                          
   RCORE  =    1.700    outmost cutoff radius                                                       
   RWIGS  =    1.710; RWIGS  =     .905    wigner-seitz radius (au A)                               
   ENMAX  =  318.606; ENMIN  =  238.954 eV                                                          
   ICORE  =        2    local potential                                                             
   LCOR   =        T    correct aug charges                                                         
   LPAW   =        T    paw PP                                                                      
   EAUG   =  535.514                                                                                
   DEXC   =     .000                                                                                
   RMAX   =    2.583    core radius for proj-oper                                                   
   RAUG   =    1.300    factor for augmentation sphere                                              
   RDEP   =    1.757    radius for radial grids                                                     
   QCUT   =   -4.839; QGAM   =    9.678    optimization parameters                                  
                                                                                                    
   Description                                                                                      
     l     E      TYP  RCUT    TYP  RCUT                                                            
     0   .000     23  1.500                                                                         
     0   .000     23  1.500                                                                         
     1   .000     23  1.700                                                                         
     1   .000     23  1.700                                                                         
     2   .000      7  1.700                                                                         
  local pseudopotential read in
  atomic valenz-charges read in
  non local Contribution for L=           0  read in
    real space projection operators read in
  non local Contribution for L=           0  read in
    real space projection operators read in
  non local Contribution for L=           1  read in
    real space projection operators read in
  non local Contribution for L=           1  read in
    real space projection operators read in
    PAW grid and wavefunctions read in

   number of l-projection  operators is LMAX  =           4
   number of lm-projection operators is LMMAX =           8

 POTCAR:   PAW_PBE H 15Jun2001                    
   VRHFIN =H: ultrasoft test                                                                        
   LEXCH  = PE                                                                                      
   EATOM  =    12.4884 eV,     .9179 Ry                                                             
                                                                                                    
   TITEL  = PAW_PBE H 15Jun2001                                                                     
   LULTRA =        F    use ultrasoft PP ?                                                          
   IUNSCR =        0    unscreen: 0-lin 1-nonlin 2-no                                               
   RPACOR =     .000    partial core radius                                                         
   POMASS =    1.000; ZVAL   =    1.000    mass and valenz                                          
   RCORE  =    1.100    outmost cutoff radius                                                       
   RWIGS  =     .700; RWIGS  =     .370    wigner-seitz radius (au A)                               
   ENMAX  =  250.000; ENMIN  =  200.000 eV                                                          
   RCLOC  =     .701    cutoff for local pot                                                        
   LCOR   =        T    correct aug charges                                                         
   LPAW   =        T    paw PP                                                                      
   EAUG   =  400.000                                                                                
   RMAX   =    2.174    core radius for proj-oper                                                   
   RAUG   =    1.200    factor for augmentation sphere                                              
   RDEP   =    1.112    radius for radial grids                                                     
   QCUT   =   -5.749; QGAM   =   11.498    optimization parameters                                  
                                                                                                    
   Description                                                                                      
     l     E      TYP  RCUT    TYP  RCUT                                                            
     0   .000     23  1.100                                                                         
     0   .500     23  1.100                                                                         
     1  -.300     23  1.100                                                                         
  local pseudopotential read in
  atomic valenz-charges read in
  non local Contribution for L=           0  read in
    real space projection operators read in
  non local Contribution for L=           0  read in
    real space projection operators read in
  non local Contribution for L=           1  read in
    real space projection operators read in
    PAW grid and wavefunctions read in

   number of l-projection  operators is LMAX  =           3
   number of lm-projection operators is LMMAX =           5

 POTCAR:   PAW_PBE N 08Apr2002                    
   VRHFIN =N: s2p3                                                                                  
   LEXCH  = PE                                                                                      
   EATOM  =   264.5486 eV,   19.4438 Ry                                                             
                                                                                                    
   TITEL  = PAW_PBE N 08Apr2002                                                                     
   LULTRA =        F    use ultrasoft PP ?                                                          
   IUNSCR =        0    unscreen: 0-lin 1-nonlin 2-no                                               
   RPACOR =     .000    partial core radius                                                         
   POMASS =   14.001; ZVAL   =    5.000    mass and valenz                                          
   RCORE  =    1.500    outmost cutoff radius                                                       
   RWIGS  =    1.400; RWIGS  =     .741    wigner-seitz radius (au A)                               
   ENMAX  =  400.000; ENMIN  =  300.000 eV                                                          
   ICORE  =        2    local potential                                                             
   LCOR   =        T    correct aug charges                                                         
   LPAW   =        T    paw PP                                                                      
   EAUG   =  627.112                                                                                
   DEXC   =     .000                                                                                
   RMAX   =    2.247    core radius for proj-oper                                                   
   RAUG   =    1.300    factor for augmentation sphere                                              
   RDEP   =    1.514    radius for radial grids                                                     
   QCUT   =   -5.562; QGAM   =   11.124    optimization parameters                                  
                                                                                                    
   Description                                                                                      
     l     E      TYP  RCUT    TYP  RCUT                                                            
     0   .000     23  1.200                                                                         
     0   .000     23  1.200                                                                         
     1   .000     23  1.500                                                                         
     1   .700     23  1.500                                                                         
     2   .000      7  1.500                                                                         
  local pseudopotential read in
  atomic valenz-charges read in
  non local Contribution for L=           0  read in
    real space projection operators read in
  non local Contribution for L=           0  read in
    real space projection operators read in
  non local Contribution for L=           1  read in
    real space projection operators read in
  non local Contribution for L=           1  read in
    real space projection operators read in
    PAW grid and wavefunctions read in

   number of l-projection  operators is LMAX  =           4
   number of lm-projection operators is LMMAX =           8

 PAW_PBE B 06Sep2000                    :
 energy of atom  1       EATOM=  -71.1810
 kinetic energy error for atom=    0.0112 (will be added to EATOM!!)
 PAW_PBE H 15Jun2001                    :
 energy of atom  2       EATOM=  -12.4884
 kinetic energy error for atom=    0.0426 (will be added to EATOM!!)
 PAW_PBE N 08Apr2002                    :
 energy of atom  3       EATOM= -264.5486
 kinetic energy error for atom=    0.6882 (will be added to EATOM!!)


 POSCAR: B  H  N
  positions in cartesian coordinates
  No initial velocities read in
 exchange correlation table for  LEXCH =        8
   RHO(1)=    0.500       N(1)  =     2000
   RHO(2)=  100.500       N(2)  =     4000

 VTST: version 4.1, (05/19/21)

 CHAIN: initializing optimizer
 
 OPT: Using VASP Dynamics algorithm
 CHAIN: Read ICHAIN            0

 POSCAR: B  H  N
  positions in cartesian coordinates
  No initial velocities read in



--------------------------------------------------------------------------------------------------------


 ion  position               nearest neighbor table
   1  0.496  0.508  0.429-   7 1.19   6 1.23   5 1.25   8 1.68
   2  0.494  0.593  0.596-   8 1.07
   3  0.559  0.465  0.592-   8 1.00
   4  0.425  0.471  0.599-   8 0.98
   5  0.418  0.571  0.401-   1 1.25
   6  0.501  0.407  0.412-   1 1.23
   7  0.582  0.555  0.416-   1 1.19
   8  0.492  0.508  0.569-   4 0.98   3 1.00   2 1.07   1 1.68

  LATTYP: Found a simple cubic cell.
 ALAT       =    12.0000000000
  
  Lattice vectors:
  
 A1 = (  12.0000000000,   0.0000000000,   0.0000000000)
 A2 = (   0.0000000000,  12.0000000000,   0.0000000000)
 A3 = (   0.0000000000,   0.0000000000,  12.0000000000)


Analysis of symmetry for initial positions (statically):
=====================================================================
 Subroutine PRICEL returns:
 Original cell was already a primitive cell.
 

 Routine SETGRP: Setting up the symmetry group for a 
 simple cubic supercell.


 Subroutine GETGRP returns: Found  1 space group operations
 (whereof  1 operations were pure point group operations)
 out of a pool of 48 trial point group operations.


The static configuration has the point symmetry C_1 .


Analysis of symmetry for dynamics (positions and initial velocities):
=====================================================================
 Subroutine PRICEL returns:
 Original cell was already a primitive cell.
 

 Routine SETGRP: Setting up the symmetry group for a 
 simple cubic supercell.


 Subroutine GETGRP returns: Found  1 space group operations
 (whereof  1 operations were pure point group operations)
 out of a pool of 48 trial point group operations.


The dynamic configuration has the point symmetry C_1 .


 Subroutine INISYM returns: Found  1 space group operations
 (whereof  1 operations are pure point group operations),
 and found     1 'primitive' translations


----------------------------------------------------------------------------------------

                                     Primitive cell                                     

  volume of cell :    1728.0000

  direct lattice vectors                    reciprocal lattice vectors
    12.000000000  0.000000000  0.000000000     0.083333333  0.000000000  0.000000000
     0.000000000 12.000000000  0.000000000     0.000000000  0.083333333  0.000000000
     0.000000000  0.000000000 12.000000000     0.000000000  0.000000000  0.083333333

  length of vectors
    12.000000000 12.000000000 12.000000000     0.083333333  0.083333333  0.083333333

  position of ions in fractional coordinates (direct lattice)
     0.495882418  0.507977751  0.429159899
     0.494118601  0.592643917  0.596406477
     0.559073280  0.465079512  0.592339774
     0.425202148  0.470961975  0.598702967
     0.417724538  0.571470988  0.401297033
     0.500665483  0.407356083  0.412031732
     0.582275462  0.554632048  0.416237546
     0.491506068  0.508116073  0.569293704

  ion indices of the primitive-cell ions
   primitive index   ion index
                 1           1
                 2           2
                 3           3
                 4           4
                 5           5
                 6           6
                 7           7
                 8           8

----------------------------------------------------------------------------------------



 KPOINTS: KPOINTS created by Atomic Simulation Env

Automatic generation of k-mesh.
 Grid dimensions read from file:
 generate k-points for:    1    1    1

 Generating k-lattice:

  Cartesian coordinates                     Fractional coordinates (reciprocal lattice)
     0.083333333  0.000000000  0.000000000     1.000000000  0.000000000  0.000000000
     0.000000000  0.083333333  0.000000000     0.000000000  1.000000000  0.000000000
     0.000000000  0.000000000  0.083333333     0.000000000  0.000000000  1.000000000

  Length of vectors
     0.083333333  0.083333333  0.083333333

  Shift w.r.t. Gamma in fractional coordinates (k-lattice)
     0.000000000  0.000000000  0.000000000

 
 Subroutine IBZKPT returns following result:
 ===========================================
 
 Found      1 irreducible k-points:
 
 Following reciprocal coordinates:
            Coordinates               Weight
  0.000000  0.000000  0.000000      1.000000
 
 Following cartesian coordinates:
            Coordinates               Weight
  0.000000  0.000000  0.000000      1.000000
 


--------------------------------------------------------------------------------------------------------




 Dimension of arrays:
   k-points           NKPTS =      1   k-points in BZ     NKDIM =      1   number of bands    NBANDS=     12
   number of dos      NEDOS =    301   number of ions     NIONS =      8
   non local maximal  LDIM  =      4   non local SUM 2l+1 LMDIM =      8
   total plane-waves  NPLWV = 157464
   max r-space proj   IRMAX =      1   max aug-charges    IRDMAX=   1620
   dimension x,y,z NGX =    54 NGY =   54 NGZ =   54
   dimension x,y,z NGXF=   108 NGYF=  108 NGZF=  108
   support grid    NGXF=   108 NGYF=  108 NGZF=  108
   ions per type =               1   6   1
   NGX,Y,Z   is equivalent  to a cutoff of   7.48,  7.48,  7.48 a.u.
   NGXF,Y,Z  is equivalent  to a cutoff of  14.96, 14.96, 14.96 a.u.

 SYSTEM =  13-Butadiene                            
 POSCAR =  B  H  N                                 

 Startparameter for this run:
   NWRITE =      2    write-flag & timer
   PREC   = normal    normal or accurate (medium, high low for compatibility)
   ISTART =      0    job   : 0-new  1-cont  2-samecut
   ICHARG =      2    charge: 1-file 2-atom 10-const
   ISPIN  =      1    spin polarized calculation?
   LNONCOLLINEAR =      F non collinear calculations
   LSORBIT =      F    spin-orbit coupling
   INIWAV =      1    electr: 0-lowe 1-rand  2-diag
   LASPH  =      F    aspherical Exc in radial PAW
 Electronic Relaxation 1
   ENCUT  =  300.0 eV  22.05 Ry    4.70 a.u.  16.95 16.95 16.95*2*pi/ulx,y,z
   ENINI  =  300.0     initial cutoff
   ENAUG  =  627.1 eV  augmentation charge cutoff
   NELM   =     60;   NELMIN=  2; NELMDL= -5     # of ELM steps 
   EDIFF  = 0.1E-04   stopping-criterion for ELM
   LREAL  =      F    real-space projection
   NLSPLINE    = F    spline interpolate recip. space projectors
   LCOMPAT=      F    compatible to vasp.4.4
   GGA_COMPAT  = T    GGA compatible to vasp.4.4-vasp.4.6
   LMAXPAW     = -100 max onsite density
   LMAXMIX     =    2 max onsite mixed and CHGCAR
   VOSKOWN=      0    Vosko Wilk Nusair interpolation
   ROPT   =    0.00000   0.00000   0.00000
 Ionic relaxation
   EDIFFG = 0.1E-03   stopping-criterion for IOM
   NSW    =      0    number of steps for IOM
   NBLOCK =      1;   KBLOCK =      1    inner block; outer block 
   IBRION =     -1    ionic relax: 0-MD 1-quasi-New 2-CG
   NFREE  =      0    steps in history (QN), initial steepest desc. (CG)
   ISIF   =      2    stress and relaxation
   IWAVPR =     10    prediction:  0-non 1-charg 2-wave 3-comb
   ISYM   =      2    0-nonsym 1-usesym 2-fastsym
   LCORR  =      T    Harris-Foulkes like correction to forces

   POTIM  = 0.5000    time-step for ionic-motion
   TEIN   =    0.0    initial temperature
   TEBEG  =    0.0;   TEEND  =   0.0 temperature during run
   SMASS  =  -3.00    Nose mass-parameter (am)
   estimated Nose-frequenzy (Omega)   =  0.10E-29 period in steps = 0.13E+47 mass=  -0.329E-26a.u.
   SCALEE = 1.0000    scale energy and forces
   NPACO  =    256;   APACO  = 10.0  distance and # of slots for P.C.
   PSTRESS=    0.0 pullay stress

  Mass of Ions in am
   POMASS =  10.81  1.00 14.00
  Ionic Valenz
   ZVAL   =   3.00  1.00  5.00
  Atomic Wigner-Seitz radii
   RWIGS  =  -1.00 -1.00 -1.00
  virtual crystal weights 
   VCA    =   1.00  1.00  1.00
   NELECT =      14.0000    total number of electrons
   NUPDOWN=      -1.0000    fix difference up-down

 DOS related values:
   EMIN   =  10.00;   EMAX   =-10.00  energy-range for DOS
   EFERMI =   0.00;   METHOD = LEGACY      
   ISMEAR =     0;   SIGMA  =   0.05  broadening in eV -4-tet -1-fermi 0-gaus

 Electronic relaxation 2 (details)
   IALGO  =     38    algorithm
   LDIAG  =      T    sub-space diagonalisation (order eigenvalues)
   LSUBROT=      F    optimize rotation matrix (better conditioning)
   TURBO    =      0    0=normal 1=particle mesh
   IRESTART =      0    0=no restart 2=restart with 2 vectors
   NREBOOT  =      0    no. of reboots
   NMIN     =      0    reboot dimension
   EREF     =   0.00    reference energy to select bands
   IMIX   =      4    mixing-type and parameters
     AMIX     =   0.40;   BMIX     =  1.00
     AMIX_MAG =   1.60;   BMIX_MAG =  1.00
     AMIN     =   0.10
     WC   =   100.;   INIMIX=   1;  MIXPRE=   1;  MAXMIX= -45

 Intra band minimization:
   WEIMIN = 0.0000     energy-eigenvalue tresh-hold
   EBREAK =  0.21E-06  absolut break condition
   DEPER  =   0.30     relativ break condition  

   TIME   =   0.40     timestep for ELM

  volume/ion in A,a.u.               =     216.00      1457.64
  Fermi-wavevector in a.u.,A,eV,Ry     =   0.328803  0.621348  1.470948  0.108112
  Thomas-Fermi vector in A             =   1.222706

 Write flags
   LWAVE        =      F    write WAVECAR
   LDOWNSAMPLE  =      F    k-point downsampling of WAVECAR
   LCHARG       =      F    write CHGCAR
   LVTOT        =      F    write LOCPOT, total local potential
   LVHAR        =      F    write LOCPOT, Hartree potential only
   LELF         =      F    write electronic localiz. function (ELF)
   LORBIT       =      0    0 simple, 1 ext, 2 COOP (PROOUT), +10 PAW based schemes


 Dipole corrections
   LMONO  =      F    monopole corrections only (constant potential shift)
   LDIPOL =      F    correct potential (dipole corrections)
   IDIPOL =      0    1-x, 2-y, 3-z, 4-all directions 
   EPSILON=  1.0000000 bulk dielectric constant

 Exchange correlation treatment:
   GGA     =    PE    GGA type
   LEXCH   =     8    internal setting for exchange type
   LIBXC   =     F    Libxc                    
   VOSKOWN =     0    Vosko Wilk Nusair interpolation
   LHFCALC =     F    Hartree Fock is set to
   LHFONE  =     F    Hartree Fock one center treatment
   AEXX    =    0.0000 exact exchange contribution

 Linear response parameters
   LEPSILON=     F    determine dielectric tensor
   LRPA    =     F    only Hartree local field effects (RPA)
   LNABLA  =     F    use nabla operator in PAW spheres
   LVEL    =     F    velocity operator in full k-point grid
   CSHIFT  =0.1000    complex shift for real part using Kramers Kronig
   OMEGAMAX=  -1.0    maximum frequency
   DEG_THRESHOLD= 0.2000000E-02 threshold for treating states as degnerate
   RTIME   =   -0.100 relaxation time in fs
  (WPLASMAI=    0.000 imaginary part of plasma frequency in eV, 0.658/RTIME)
   DFIELD  = 0.0000000 0.0000000 0.0000000 field for delta impulse in time

  Optional k-point grid parameters
   LKPOINTS_OPT  =     F    use optional k-point grid
   KPOINTS_OPT_MODE=     1    mode for optional k-point grid

 Orbital magnetization related:
   ORBITALMAG=     F  switch on orbital magnetization
   LCHIMAG   =     F  perturbation theory with respect to B field
   DQ        =  0.001000  dq finite difference perturbation B field
   LLRAUG    =     F  two centre corrections for induced B field
   LBONE     =     F  B-component reconstruction in AE one-centre
   LVGVCALC  =     T  calculate vGv susceptibility
   LVGVAPPL  =     F  apply vGv susceptibility instead of pGv for G=0

 Random number generation:
   RANDOM_GENERATOR = DEFAULT
   PCG_SEED         = not used


--------------------------------------------------------------------------------------------------------


 Static calculation
 charge density and potential will be updated during run
 non-spin polarized calculation
 Variant of blocked Davidson
 Davidson routine will perform the subspace rotation
 perform sub-space diagonalisation
    after iterative eigenvector-optimisation
 modified Broyden-mixing scheme, WC =      100.0
 initial mixing is a Kerker type mixing with AMIX =  0.4000 and BMIX =      1.0000
 Hartree-type preconditioning will be used
 using additional bands            5
 reciprocal scheme for non local part
 calculate Harris-corrections to forces   (improved forces if not selfconsistent)
 use gradient corrections 
 use of overlap-Matrix (Vanderbilt PP)
 Gauss-broadening in eV      SIGMA  =   0.05


--------------------------------------------------------------------------------------------------------


  energy-cutoff  :      300.00
  volume of cell :     1728.00
      direct lattice vectors                 reciprocal lattice vectors
    12.000000000  0.000000000  0.000000000     0.083333333  0.000000000  0.000000000
     0.000000000 12.000000000  0.000000000     0.000000000  0.083333333  0.000000000
     0.000000000  0.000000000 12.000000000     0.000000000  0.000000000  0.083333333

  length of vectors
    12.000000000 12.000000000 12.000000000     0.083333333  0.083333333  0.083333333



 k-points in units of 2pi/SCALE and weight: KPOINTS created by Atomic Simulation Env
   0.00000000  0.00000000  0.00000000       1.000

 k-points in reciprocal lattice and weights: KPOINTS created by Atomic Simulation Env
   0.00000000  0.00000000  0.00000000       1.000

 position of ions in fractional coordinates (direct lattice) 
   0.49588242  0.50797775  0.42915990
   0.49411860  0.59264392  0.59640648
   0.55907328  0.46507951  0.59233977
   0.42520215  0.47096198  0.59870297
   0.41772454  0.57147099  0.40129703
   0.50066548  0.40735608  0.41203173
   0.58227546  0.55463205  0.41623755
   0.49150607  0.50811607  0.56929370

 position of ions in cartesian coordinates  (Angst):
   5.95058902  6.09573301  5.14991879
   5.92942321  7.11172701  7.15687773
   6.70887936  5.58095414  7.10807729
   5.10242578  5.65154370  7.18443560
   5.01269446  6.85765186  4.81556440
   6.00798580  4.88827299  4.94438079
   6.98730554  6.65558457  4.99485055
   5.89807282  6.09739287  6.83152445



--------------------------------------------------------------------------------------------------------


 k-point   1 :   0.0000 0.0000 0.0000  plane waves:   20341

 maximum and minimum number of plane-waves per node :     10187    10154

 maximum number of plane-waves:     20341
 maximum index in each direction: 
   IXMAX=   16   IYMAX=   16   IZMAX=   16
   IXMIN=  -16   IYMIN=  -16   IZMIN=  -16


 parallel 3D FFT for wavefunctions:
    minimum data exchange during FFTs selected (reduces bandwidth)
 parallel 3D FFT for charge:
    minimum data exchange during FFTs selected (reduces bandwidth)


 total amount of memory used by VASP MPI-rank0    71022. kBytes
=======================================================================

   base      :      30000. kBytes
   nonl-proj :       3260. kBytes
   fftplans  :      13163. kBytes
   grid      :      23607. kBytes
   one-center:         12. kBytes
   wavefun   :        980. kBytes

     INWAV:  cpu time      0.0000: real time      0.0000
 Broyden mixing: mesh for mixing (old mesh)
   NGX = 33   NGY = 33   NGZ = 33
  (NGX  =108   NGY  =108   NGZ  =108)
  gives a total of  35937 points

 initial charge density was supplied:
 charge density of overlapping atoms calculated
 number of electron      14.0000000 magnetization 
 keeping initial charge density in first step


--------------------------------------------------------------------------------------------------------


 Maximum index for augmentation-charges          344 (set IRDMAX)


--------------------------------------------------------------------------------------------------------


 First call to EWALD:  gamma=   0.148
 Maximum number of real-space cells 3x 3x 3
 Maximum number of reciprocal cells 3x 3x 3

    FEWALD:  cpu time      0.0006: real time      0.0006


--------------------------------------- Ionic step        1  -------------------------------------------




--------------------------------------- Iteration      1(   1)  ---------------------------------------


    POTLOK:  cpu time      0.0804: real time      0.0804
    SETDIJ:  cpu time      0.0012: real time      0.0012
     EDDAV:  cpu time      0.0518: real time      0.0518
       DOS:  cpu time      0.0001: real time      0.0001
    --------------------------------------------
      LOOP:  cpu time      0.1334: real time      0.1335

 eigenvalue-minimisations  :    32
 total energy-change (2. order) : 0.7377736E+02  (-0.2952438E+03)
 number of electron      14.0000000 magnetization 
 augmentation part       14.0000000 magnetization 

 Free energy of the ion-electron system (eV)
  ---------------------------------------------------
  alpha Z        PSCENC =         0.46971828
  Ewald energy   TEWEN  =       368.27449241
  -Hartree energ DENC   =      -630.74034481
  -exchange      EXHF   =         0.00000000
  -V(xc)+E(xc)   XCENC  =        42.22945398
  PAW double counting   =       130.00478569     -132.14397453
  entropy T*S    EENTRO =        -0.00000000
  eigenvalues    EBANDS =      -114.02160138
  atomic energy  EATOM  =       409.70482936
  Solvation  Ediel_sol  =         0.00000000
  ---------------------------------------------------
  free energy    TOTEN  =        73.77735900 eV

  energy without entropy =       73.77735900  energy(sigma->0) =       73.77735900


--------------------------------------------------------------------------------------------------------




--------------------------------------- Iteration      1(   2)  ---------------------------------------


     EDDAV:  cpu time      0.0607: real time      0.0607
       DOS:  cpu time      0.0001: real time      0.0001
    --------------------------------------------
      LOOP:  cpu time      0.0608: real time      0.0608

 eigenvalue-minimisations  :    44
 total energy-change (2. order) :-0.1031483E+03  (-0.1024126E+03)
 number of electron      14.0000000 magnetization 
 augmentation part       14.0000000 magnetization 

 Free energy of the ion-electron system (eV)
  ---------------------------------------------------
  alpha Z        PSCENC =         0.46971828
  Ewald energy   TEWEN  =       368.27449241
  -Hartree energ DENC   =      -630.74034481
  -exchange      EXHF   =         0.00000000
  -V(xc)+E(xc)   XCENC  =        42.22945398
  PAW double counting   =       130.00478569     -132.14397453
  entropy T*S    EENTRO =        -0.00000000
  eigenvalues    EBANDS =      -217.16990691
  atomic energy  EATOM  =       409.70482936
  Solvation  Ediel_sol  =         0.00000000
  ---------------------------------------------------
  free energy    TOTEN  =       -29.37094653 eV

  energy without entropy =      -29.37094653  energy(sigma->0) =      -29.37094653


--------------------------------------------------------------------------------------------------------




--------------------------------------- Iteration      1(   3)  ---------------------------------------


     EDDAV:  cpu time      0.0495: real time      0.0495
       DOS:  cpu time      0.0001: real time      0.0001
    --------------------------------------------
      LOOP:  cpu time      0.0496: real time      0.0496

 eigenvalue-minimisations  :    32
 total energy-change (2. order) :-0.1176002E+02  (-0.1174348E+02)
 number of electron      14.0000000 magnetization 
 augmentation part       14.0000000 magnetization 

 Free energy of the ion-electron system (eV)
  ---------------------------------------------------
  alpha Z        PSCENC =         0.46971828
  Ewald energy   TEWEN  =       368.27449241
  -Hartree energ DENC   =      -630.74034481
  -exchange      EXHF   =         0.00000000
  -V(xc)+E(xc)   XCENC  =        42.22945398
  PAW double counting   =       130.00478569     -132.14397453
  entropy T*S    EENTRO =        -0.00000000
  eigenvalues    EBANDS =      -228.92993106
  atomic energy  EATOM  =       409.70482936
  Solvation  Ediel_sol  =         0.00000000
  ---------------------------------------------------
  free energy    TOTEN  =       -41.13097069 eV

  energy without entropy =      -41.13097069  energy(sigma->0) =      -41.13097069


--------------------------------------------------------------------------------------------------------




--------------------------------------- Iteration      1(   4)  ---------------------------------------


     EDDAV:  cpu time      0.0679: real time      0.0679
       DOS:  cpu time      0.0001: real time      0.0001
    --------------------------------------------
      LOOP:  cpu time      0.0680: real time      0.0680

 eigenvalue-minimisations  :    48
 total energy-change (2. order) :-0.2834766E+00  (-0.2833692E+00)
 number of electron      14.0000000 magnetization 
 augmentation part       14.0000000 magnetization 

 Free energy of the ion-electron system (eV)
  ---------------------------------------------------
  alpha Z        PSCENC =         0.46971828
  Ewald energy   TEWEN  =       368.27449241
  -Hartree energ DENC   =      -630.74034481
  -exchange      EXHF   =         0.00000000
  -V(xc)+E(xc)   XCENC  =        42.22945398
  PAW double counting   =       130.00478569     -132.14397453
  entropy T*S    EENTRO =        -0.00000000
  eigenvalues    EBANDS =      -229.21340763
  atomic energy  EATOM  =       409.70482936
  Solvation  Ediel_sol  =         0.00000000
  ---------------------------------------------------
  free energy    TOTEN  =       -41.41444726 eV

  energy without entropy =      -41.41444726  energy(sigma->0) =      -41.41444726


--------------------------------------------------------------------------------------------------------




--------------------------------------- Iteration      1(   5)  ---------------------------------------


     EDDAV:  cpu time      0.0582: real time      0.0582
       DOS:  cpu time      0.0001: real time      0.0001
    CHARGE:  cpu time      0.0069: real time      0.0069
    MIXING:  cpu time      0.0032: real time      0.0032
    --------------------------------------------
      LOOP:  cpu time      0.0683: real time      0.0683

 eigenvalue-minimisations  :    40
 total energy-change (2. order) :-0.1297631E-03  (-0.1297612E-03)
 number of electron      13.9999977 magnetization 
 augmentation part        0.4335484 magnetization 

 Broyden mixing:
  rms(total) = 0.97361E+00    rms(broyden)= 0.97232E+00
  rms(prec ) = 0.12917E+01
  weight for this iteration     100.00

 Free energy of the ion-electron system (eV)
  ---------------------------------------------------
  alpha Z        PSCENC =         0.46971828
  Ewald energy   TEWEN  =       368.27449241
  -Hartree energ DENC   =      -630.74034481
  -exchange      EXHF   =         0.00000000
  -V(xc)+E(xc)   XCENC  =        42.22945398
  PAW double counting   =       130.00478569     -132.14397453
  entropy T*S    EENTRO =        -0.00000000
  eigenvalues    EBANDS =      -229.21353740
  atomic energy  EATOM  =       409.70482936
  Solvation  Ediel_sol  =         0.00000000
  ---------------------------------------------------
  free energy    TOTEN  =       -41.41457702 eV

  energy without entropy =      -41.41457702  energy(sigma->0) =      -41.41457702


--------------------------------------------------------------------------------------------------------




--------------------------------------- Iteration      1(   6)  ---------------------------------------


    POTLOK:  cpu time      0.0770: real time      0.0770
    SETDIJ:  cpu time      0.0014: real time      0.0014
     EDDAV:  cpu time      0.0547: real time      0.0547
       DOS:  cpu time      0.0001: real time      0.0001
    CHARGE:  cpu time      0.0061: real time      0.0061
    MIXING:  cpu time      0.0031: real time      0.0031
    --------------------------------------------
      LOOP:  cpu time      0.1423: real time      0.1423

 eigenvalue-minimisations  :    36
 total energy-change (2. order) : 0.3722104E+01  (-0.6387771E+00)
 number of electron      13.9999973 magnetization 
 augmentation part        0.3789261 magnetization 

 Broyden mixing:
  rms(total) = 0.48373E+00    rms(broyden)= 0.48337E+00
  rms(prec ) = 0.63986E+00
  weight for this iteration     100.00

 eigenvalues of (default mixing * dielectric matrix)
  average eigenvalue GAMMA=   1.4423
  1.4423

 Free energy of the ion-electron system (eV)
  ---------------------------------------------------
  alpha Z        PSCENC =         0.46971828
  Ewald energy   TEWEN  =       368.27449241
  -Hartree energ DENC   =      -658.61651822
  -exchange      EXHF   =         0.00000000
  -V(xc)+E(xc)   XCENC  =        43.91414989
  PAW double counting   =       179.63744022     -182.16624192
  entropy T*S    EENTRO =        -0.00000000
  eigenvalues    EBANDS =      -198.91034268
  atomic energy  EATOM  =       409.70482936
  Solvation  Ediel_sol  =         0.00000000
  ---------------------------------------------------
  free energy    TOTEN  =       -37.69247267 eV

  energy without entropy =      -37.69247267  energy(sigma->0) =      -37.69247267


--------------------------------------------------------------------------------------------------------




--------------------------------------- Iteration      1(   7)  ---------------------------------------


    POTLOK:  cpu time      0.0758: real time      0.0758
    SETDIJ:  cpu time      0.0011: real time      0.0011
     EDDAV:  cpu time      0.0544: real time      0.0544
       DOS:  cpu time      0.0001: real time      0.0001
    CHARGE:  cpu time      0.0062: real time      0.0062
    MIXING:  cpu time      0.0031: real time      0.0031
    --------------------------------------------
      LOOP:  cpu time      0.1406: real time      0.1407

 eigenvalue-minimisations  :    36
 total energy-change (2. order) : 0.1066418E+01  (-0.2163729E+00)
 number of electron      13.9999972 magnetization 
 augmentation part        0.3561465 magnetization 

 Broyden mixing:
  rms(total) = 0.21176E+00    rms(broyden)= 0.21155E+00
  rms(prec ) = 0.28108E+00
  weight for this iteration     100.00

 eigenvalues of (default mixing * dielectric matrix)
  average eigenvalue GAMMA=   1.7699
  1.4300  2.1098

 Free energy of the ion-electron system (eV)
  ---------------------------------------------------
  alpha Z        PSCENC =         0.46971828
  Ewald energy   TEWEN  =       368.27449241
  -Hartree energ DENC   =      -677.03917471
  -exchange      EXHF   =         0.00000000
  -V(xc)+E(xc)   XCENC  =        45.25512520
  PAW double counting   =       214.18625584     -216.91269962
  entropy T*S    EENTRO =        -0.00000000
  eigenvalues    EBANDS =      -180.56460174
  atomic energy  EATOM  =       409.70482936
  Solvation  Ediel_sol  =         0.00000000
  ---------------------------------------------------
  free energy    TOTEN  =       -36.62605498 eV

  energy without entropy =      -36.62605498  energy(sigma->0) =      -36.62605498


--------------------------------------------------------------------------------------------------------




--------------------------------------- Iteration      1(   8)  ---------------------------------------


    POTLOK:  cpu time      0.0752: real time      0.0752
    SETDIJ:  cpu time      0.0012: real time      0.0012
     EDDAV:  cpu time      0.0456: real time      0.0456
       DOS:  cpu time      0.0001: real time      0.0001
    CHARGE:  cpu time      0.0062: real time      0.0062
    MIXING:  cpu time      0.0033: real time      0.0033
    --------------------------------------------
      LOOP:  cpu time      0.1315: real time      0.1315

 eigenvalue-minimisations  :    28
 total energy-change (2. order) : 0.2429445E+00  (-0.4846069E-01)
 number of electron      13.9999973 magnetization 
 augmentation part        0.3589084 magnetization 

 Broyden mixing:
  rms(total) = 0.55752E-01    rms(broyden)= 0.55575E-01
  rms(prec ) = 0.10089E+00
  weight for this iteration     100.00

 eigenvalues of (default mixing * dielectric matrix)
  average eigenvalue GAMMA=   1.6664
  1.4487  1.4487  2.1016

 Free energy of the ion-electron system (eV)
  ---------------------------------------------------
  alpha Z        PSCENC =         0.46971828
  Ewald energy   TEWEN  =       368.27449241
  -Hartree energ DENC   =      -683.70165850
  -exchange      EXHF   =         0.00000000
  -V(xc)+E(xc)   XCENC  =        45.90152909
  PAW double counting   =       224.08833000     -226.82355773
  entropy T*S    EENTRO =        -0.00000000
  eigenvalues    EBANDS =      -174.29679340
  atomic energy  EATOM  =       409.70482936
  Solvation  Ediel_sol  =         0.00000000
  ---------------------------------------------------
  free energy    TOTEN  =       -36.38311049 eV

  energy without entropy =      -36.38311049  energy(sigma->0) =      -36.38311049


--------------------------------------------------------------------------------------------------------




--------------------------------------- Iteration      1(   9)  ---------------------------------------


    POTLOK:  cpu time      0.0743: real time      0.0744
    SETDIJ:  cpu time      0.0011: real time      0.0011
     EDDAV:  cpu time      0.0545: real time      0.0545
       DOS:  cpu time      0.0001: real time      0.0001
    CHARGE:  cpu time      0.0062: real time      0.0062
    MIXING:  cpu time      0.0033: real time      0.0033
    --------------------------------------------
      LOOP:  cpu time      0.1396: real time      0.1396

 eigenvalue-minimisations  :    36
 total energy-change (2. order) : 0.1938564E-01  (-0.7608644E-02)
 number of electron      13.9999973 magnetization 
 augmentation part        0.3557252 magnetization 

 Broyden mixing:
  rms(total) = 0.35536E-01    rms(broyden)= 0.35423E-01
  rms(prec ) = 0.67577E-01
  weight for this iteration     100.00

 eigenvalues of (default mixing * dielectric matrix)
  average eigenvalue GAMMA=   1.7080
  2.3149  2.3149  1.1011  1.1011

 Free energy of the ion-electron system (eV)
  ---------------------------------------------------
  alpha Z        PSCENC =         0.46971828
  Ewald energy   TEWEN  =       368.27449241
  -Hartree energ DENC   =      -687.20875028
  -exchange      EXHF   =         0.00000000
  -V(xc)+E(xc)   XCENC  =        46.07795768
  PAW double counting   =       226.74483113     -229.48890805
  entropy T*S    EENTRO =        -0.00000000
  eigenvalues    EBANDS =      -170.93789537
  atomic energy  EATOM  =       409.70482936
  Solvation  Ediel_sol  =         0.00000000
  ---------------------------------------------------
  free energy    TOTEN  =       -36.36372485 eV

  energy without entropy =      -36.36372485  energy(sigma->0) =      -36.36372485


--------------------------------------------------------------------------------------------------------




--------------------------------------- Iteration      1(  10)  ---------------------------------------


    POTLOK:  cpu time      0.0736: real time      0.0736
    SETDIJ:  cpu time      0.0011: real time      0.0011
     EDDAV:  cpu time      0.0454: real time      0.0454
       DOS:  cpu time      0.0001: real time      0.0001
    CHARGE:  cpu time      0.0060: real time      0.0060
    MIXING:  cpu time      0.0036: real time      0.0036
    --------------------------------------------
      LOOP:  cpu time      0.1298: real time      0.1299

 eigenvalue-minimisations  :    28
 total energy-change (2. order) : 0.5561519E-02  (-0.7142820E-03)
 number of electron      13.9999973 magnetization 
 augmentation part        0.3560462 magnetization 

 Broyden mixing:
  rms(total) = 0.14863E-01    rms(broyden)= 0.14856E-01
  rms(prec ) = 0.40610E-01
  weight for this iteration     100.00

 eigenvalues of (default mixing * dielectric matrix)
  average eigenvalue GAMMA=   1.7649
  2.7295  2.3531  1.0007  1.3706  1.3706

 Free energy of the ion-electron system (eV)
  ---------------------------------------------------
  alpha Z        PSCENC =         0.46971828
  Ewald energy   TEWEN  =       368.27449241
  -Hartree energ DENC   =      -688.38170525
  -exchange      EXHF   =         0.00000000
  -V(xc)+E(xc)   XCENC  =        46.12257518
  PAW double counting   =       225.29294645     -228.02326493
  entropy T*S    EENTRO =        -0.00000000
  eigenvalues    EBANDS =      -169.81775484
  atomic energy  EATOM  =       409.70482936
  Solvation  Ediel_sol  =         0.00000000
  ---------------------------------------------------
  free energy    TOTEN  =       -36.35816334 eV

  energy without entropy =      -36.35816334  energy(sigma->0) =      -36.35816334


--------------------------------------------------------------------------------------------------------




--------------------------------------- Iteration      1(  11)  ---------------------------------------


    POTLOK:  cpu time      0.0724: real time      0.0724
    SETDIJ:  cpu time      0.0010: real time      0.0010
     EDDAV:  cpu time      0.0455: real time      0.0455
       DOS:  cpu time      0.0001: real time      0.0001
    CHARGE:  cpu time      0.0062: real time      0.0062
    MIXING:  cpu time      0.0029: real time      0.0029
    --------------------------------------------
      LOOP:  cpu time      0.1281: real time      0.1282

 eigenvalue-minimisations  :    28
 total energy-change (2. order) :-0.7505675E-02  (-0.1563327E-02)
 number of electron      13.9999973 magnetization 
 augmentation part        0.3567402 magnetization 

 Broyden mixing:
  rms(total) = 0.13576E-01    rms(broyden)= 0.13552E-01
  rms(prec ) = 0.26063E-01
  weight for this iteration     100.00

 eigenvalues of (default mixing * dielectric matrix)
  average eigenvalue GAMMA=   1.7753
  3.4473  2.4237  1.5032  1.0558  1.1108  1.1108

 Free energy of the ion-electron system (eV)
  ---------------------------------------------------
  alpha Z        PSCENC =         0.46971828
  Ewald energy   TEWEN  =       368.27449241
  -Hartree energ DENC   =      -689.66112413
  -exchange      EXHF   =         0.00000000
  -V(xc)+E(xc)   XCENC  =        46.15717165
  PAW double counting   =       224.67062903     -227.39923554
  entropy T*S    EENTRO =        -0.00000000
  eigenvalues    EBANDS =      -168.58215007
  atomic energy  EATOM  =       409.70482936
  Solvation  Ediel_sol  =         0.00000000
  ---------------------------------------------------
  free energy    TOTEN  =       -36.36566901 eV

  energy without entropy =      -36.36566901  energy(sigma->0) =      -36.36566901


--------------------------------------------------------------------------------------------------------




--------------------------------------- Iteration      1(  12)  ---------------------------------------


    POTLOK:  cpu time      0.0719: real time      0.0719
    SETDIJ:  cpu time      0.0012: real time      0.0012
     EDDAV:  cpu time      0.0416: real time      0.0416
       DOS:  cpu time      0.0001: real time      0.0001
    CHARGE:  cpu time      0.0062: real time      0.0062
    MIXING:  cpu time      0.0030: real time      0.0030
    --------------------------------------------
      LOOP:  cpu time      0.1240: real time      0.1240

 eigenvalue-minimisations  :    24
 total energy-change (2. order) :-0.9383459E-02  (-0.6270688E-03)
 number of electron      13.9999973 magnetization 
 augmentation part        0.3557349 magnetization 

 Broyden mixing:
  rms(total) = 0.93193E-02    rms(broyden)= 0.92988E-02
  rms(prec ) = 0.17165E-01
  weight for this iteration     100.00

 eigenvalues of (default mixing * dielectric matrix)
  average eigenvalue GAMMA=   2.0578
  4.7455  2.8230  2.1280  1.5240  0.9862  1.0991  1.0991

 Free energy of the ion-electron system (eV)
  ---------------------------------------------------
  alpha Z        PSCENC =         0.46971828
  Ewald energy   TEWEN  =       368.27449241
  -Hartree energ DENC   =      -690.44751204
  -exchange      EXHF   =         0.00000000
  -V(xc)+E(xc)   XCENC  =        46.15855798
  PAW double counting   =       224.56904549     -227.29910599
  entropy T*S    EENTRO =        -0.00000000
  eigenvalues    EBANDS =      -167.80507796
  atomic energy  EATOM  =       409.70482936
  Solvation  Ediel_sol  =         0.00000000
  ---------------------------------------------------
  free energy    TOTEN  =       -36.37505247 eV

  energy without entropy =      -36.37505247  energy(sigma->0) =      -36.37505247


--------------------------------------------------------------------------------------------------------




--------------------------------------- Iteration      1(  13)  ---------------------------------------


    POTLOK:  cpu time      0.0699: real time      0.0699
    SETDIJ:  cpu time      0.0011: real time      0.0011
     EDDAV:  cpu time      0.0414: real time      0.0415
       DOS:  cpu time      0.0001: real time      0.0001
    CHARGE:  cpu time      0.0060: real time      0.0060
    MIXING:  cpu time      0.0033: real time      0.0033
    --------------------------------------------
      LOOP:  cpu time      0.1218: real time      0.1218

 eigenvalue-minimisations  :    24
 total energy-change (2. order) :-0.1094427E-01  (-0.3758546E-03)
 number of electron      13.9999973 magnetization 
 augmentation part        0.3559560 magnetization 

 Broyden mixing:
  rms(total) = 0.33400E-02    rms(broyden)= 0.33366E-02
  rms(prec ) = 0.72223E-02
  weight for this iteration     100.00

 eigenvalues of (default mixing * dielectric matrix)
  average eigenvalue GAMMA=   2.0795
  5.6104  2.7329  2.3854  1.3805  1.3805  0.9590  1.0939  1.0939

 Free energy of the ion-electron system (eV)
  ---------------------------------------------------
  alpha Z        PSCENC =         0.46971828
  Ewald energy   TEWEN  =       368.27449241
  -Hartree energ DENC   =      -690.61684954
  -exchange      EXHF   =         0.00000000
  -V(xc)+E(xc)   XCENC  =        46.14201235
  PAW double counting   =       224.33621164     -227.06492883
  entropy T*S    EENTRO =        -0.00000000
  eigenvalues    EBANDS =      -167.63148241
  atomic energy  EATOM  =       409.70482936
  Solvation  Ediel_sol  =         0.00000000
  ---------------------------------------------------
  free energy    TOTEN  =       -36.38599674 eV

  energy without entropy =      -36.38599674  energy(sigma->0) =      -36.38599674


--------------------------------------------------------------------------------------------------------




--------------------------------------- Iteration      1(  14)  ---------------------------------------


    POTLOK:  cpu time      0.0691: real time      0.0691
    SETDIJ:  cpu time      0.0011: real time      0.0011
     EDDAV:  cpu time      0.0496: real time      0.0497
       DOS:  cpu time      0.0001: real time      0.0001
    CHARGE:  cpu time      0.0062: real time      0.0062
    MIXING:  cpu time      0.0033: real time      0.0033
    --------------------------------------------
      LOOP:  cpu time      0.1294: real time      0.1294

 eigenvalue-minimisations  :    32
 total energy-change (2. order) :-0.3958852E-02  (-0.8535849E-04)
 number of electron      13.9999973 magnetization 
 augmentation part        0.3561009 magnetization 

 Broyden mixing:
  rms(total) = 0.26838E-02    rms(broyden)= 0.26778E-02
  rms(prec ) = 0.52431E-02
  weight for this iteration     100.00

 eigenvalues of (default mixing * dielectric matrix)
  average eigenvalue GAMMA=   2.3202
  6.6630  3.8223  2.3907  2.3907  1.3953  1.1292  0.9892  1.0508  1.0508

 Free energy of the ion-electron system (eV)
  ---------------------------------------------------
  alpha Z        PSCENC =         0.46971828
  Ewald energy   TEWEN  =       368.27449241
  -Hartree energ DENC   =      -690.69559420
  -exchange      EXHF   =         0.00000000
  -V(xc)+E(xc)   XCENC  =        46.14183142
  PAW double counting   =       224.53524107     -227.26460541
  entropy T*S    EENTRO =        -0.00000000
  eigenvalues    EBANDS =      -167.55586853
  atomic energy  EATOM  =       409.70482936
  Solvation  Ediel_sol  =         0.00000000
  ---------------------------------------------------
  free energy    TOTEN  =       -36.38995559 eV

  energy without entropy =      -36.38995559  energy(sigma->0) =      -36.38995559


--------------------------------------------------------------------------------------------------------




--------------------------------------- Iteration      1(  15)  ---------------------------------------


    POTLOK:  cpu time      0.0686: real time      0.0686
    SETDIJ:  cpu time      0.0014: real time      0.0014
     EDDAV:  cpu time      0.0497: real time      0.0497
       DOS:  cpu time      0.0001: real time      0.0001
    CHARGE:  cpu time      0.0061: real time      0.0061
    MIXING:  cpu time      0.0036: real time      0.0036
    --------------------------------------------
      LOOP:  cpu time      0.1294: real time      0.1295

 eigenvalue-minimisations  :    32
 total energy-change (2. order) :-0.3060843E-02  (-0.5732009E-04)
 number of electron      13.9999973 magnetization 
 augmentation part        0.3560830 magnetization 

 Broyden mixing:
  rms(total) = 0.11926E-02    rms(broyden)= 0.11921E-02
  rms(prec ) = 0.24159E-02
  weight for this iteration     100.00

 eigenvalues of (default mixing * dielectric matrix)
  average eigenvalue GAMMA=   2.3330
  7.3585  4.0050  2.5654  2.2369  1.6696  1.3312  1.0847  1.0847  0.9971  0.9971

 Free energy of the ion-electron system (eV)
  ---------------------------------------------------
  alpha Z        PSCENC =         0.46971828
  Ewald energy   TEWEN  =       368.27449241
  -Hartree energ DENC   =      -690.60511496
  -exchange      EXHF   =         0.00000000
  -V(xc)+E(xc)   XCENC  =        46.13132623
  PAW double counting   =       224.50716308     -227.23580707
  entropy T*S    EENTRO =        -0.00000000
  eigenvalues    EBANDS =      -167.63962376
  atomic energy  EATOM  =       409.70482936
  Solvation  Ediel_sol  =         0.00000000
  ---------------------------------------------------
  free energy    TOTEN  =       -36.39301644 eV

  energy without entropy =      -36.39301644  energy(sigma->0) =      -36.39301644


--------------------------------------------------------------------------------------------------------




--------------------------------------- Iteration      1(  16)  ---------------------------------------


    POTLOK:  cpu time      0.0697: real time      0.0697
    SETDIJ:  cpu time      0.0011: real time      0.0011
     EDDAV:  cpu time      0.0406: real time      0.0406
       DOS:  cpu time      0.0001: real time      0.0001
    CHARGE:  cpu time      0.0069: real time      0.0069
    MIXING:  cpu time      0.0037: real time      0.0037
    --------------------------------------------
      LOOP:  cpu time      0.1221: real time      0.1221

 eigenvalue-minimisations  :    24
 total energy-change (2. order) :-0.8298248E-03  (-0.7616310E-05)
 number of electron      13.9999973 magnetization 
 augmentation part        0.3559794 magnetization 

 Broyden mixing:
  rms(total) = 0.59694E-03    rms(broyden)= 0.59639E-03
  rms(prec ) = 0.13062E-02
  weight for this iteration     100.00

 eigenvalues of (default mixing * dielectric matrix)
  average eigenvalue GAMMA=   2.4942
  8.2532  4.6804  3.0374  2.6616  2.0817  1.4809  1.0644  1.0644  1.0981  0.9945
  1.0193

 Free energy of the ion-electron system (eV)
  ---------------------------------------------------
  alpha Z        PSCENC =         0.46971828
  Ewald energy   TEWEN  =       368.27449241
  -Hartree energ DENC   =      -690.61677182
  -exchange      EXHF   =         0.00000000
  -V(xc)+E(xc)   XCENC  =        46.13187220
  PAW double counting   =       224.54422142     -227.27349352
  entropy T*S    EENTRO =        -0.00000000
  eigenvalues    EBANDS =      -167.62871459
  atomic energy  EATOM  =       409.70482936
  Solvation  Ediel_sol  =         0.00000000
  ---------------------------------------------------
  free energy    TOTEN  =       -36.39384626 eV

  energy without entropy =      -36.39384626  energy(sigma->0) =      -36.39384626


--------------------------------------------------------------------------------------------------------




--------------------------------------- Iteration      1(  17)  ---------------------------------------


    POTLOK:  cpu time      0.0695: real time      0.0696
    SETDIJ:  cpu time      0.0011: real time      0.0011
     EDDAV:  cpu time      0.0451: real time      0.0451
       DOS:  cpu time      0.0002: real time      0.0002
    CHARGE:  cpu time      0.0069: real time      0.0069
    MIXING:  cpu time      0.0038: real time      0.0038
    --------------------------------------------
      LOOP:  cpu time      0.1266: real time      0.1267

 eigenvalue-minimisations  :    28
 total energy-change (2. order) :-0.3964586E-03  (-0.2533589E-05)
 number of electron      13.9999973 magnetization 
 augmentation part        0.3559826 magnetization 

 Broyden mixing:
  rms(total) = 0.66143E-03    rms(broyden)= 0.66126E-03
  rms(prec ) = 0.88736E-03
  weight for this iteration     100.00

 eigenvalues of (default mixing * dielectric matrix)
  average eigenvalue GAMMA=   2.4992
  8.4886  5.1737  3.3063  2.3440  2.3440  1.7738  1.4099  1.0797  1.0797  0.9607
  1.0150  1.0150

 Free energy of the ion-electron system (eV)
  ---------------------------------------------------
  alpha Z        PSCENC =         0.46971828
  Ewald energy   TEWEN  =       368.27449241
  -Hartree energ DENC   =      -690.58724144
  -exchange      EXHF   =         0.00000000
  -V(xc)+E(xc)   XCENC  =        46.12979798
  PAW double counting   =       224.48310084     -227.21209596
  entropy T*S    EENTRO =        -0.00000000
  eigenvalues    EBANDS =      -167.65684419
  atomic energy  EATOM  =       409.70482936
  Solvation  Ediel_sol  =         0.00000000
  ---------------------------------------------------
  free energy    TOTEN  =       -36.39424272 eV

  energy without entropy =      -36.39424272  energy(sigma->0) =      -36.39424272


--------------------------------------------------------------------------------------------------------




--------------------------------------- Iteration      1(  18)  ---------------------------------------


    POTLOK:  cpu time      0.0704: real time      0.0704
    SETDIJ:  cpu time      0.0011: real time      0.0011
     EDDAV:  cpu time      0.0584: real time      0.0584
       DOS:  cpu time      0.0001: real time      0.0001
    CHARGE:  cpu time      0.0069: real time      0.0069
    MIXING:  cpu time      0.0039: real time      0.0039
    --------------------------------------------
      LOOP:  cpu time      0.1407: real time      0.1407

 eigenvalue-minimisations  :    40
 total energy-change (2. order) :-0.1264209E-03  (-0.7200759E-06)
 number of electron      13.9999973 magnetization 
 augmentation part        0.3560008 magnetization 

 Broyden mixing:
  rms(total) = 0.21306E-03    rms(broyden)= 0.21271E-03
  rms(prec ) = 0.34305E-03
  weight for this iteration     100.00

 eigenvalues of (default mixing * dielectric matrix)
  average eigenvalue GAMMA=   2.6150
  9.1612  5.9283  3.9074  2.7433  2.3886  2.1003  1.5046  1.0749  1.0749  1.1616
  0.9953  0.9953  0.9592

 Free energy of the ion-electron system (eV)
  ---------------------------------------------------
  alpha Z        PSCENC =         0.46971828
  Ewald energy   TEWEN  =       368.27449241
  -Hartree energ DENC   =      -690.59676926
  -exchange      EXHF   =         0.00000000
  -V(xc)+E(xc)   XCENC  =        46.13081396
  PAW double counting   =       224.51359106     -227.24258226
  entropy T*S    EENTRO =        -0.00000000
  eigenvalues    EBANDS =      -167.64846269
  atomic energy  EATOM  =       409.70482936
  Solvation  Ediel_sol  =         0.00000000
  ---------------------------------------------------
  free energy    TOTEN  =       -36.39436914 eV

  energy without entropy =      -36.39436914  energy(sigma->0) =      -36.39436914


--------------------------------------------------------------------------------------------------------




--------------------------------------- Iteration      1(  19)  ---------------------------------------


    POTLOK:  cpu time      0.0751: real time      0.0751
    SETDIJ:  cpu time      0.0014: real time      0.0014
     EDDAV:  cpu time      0.0447: real time      0.0447
       DOS:  cpu time      0.0001: real time      0.0001
    CHARGE:  cpu time      0.0069: real time      0.0069
    MIXING:  cpu time      0.0043: real time      0.0043
    --------------------------------------------
      LOOP:  cpu time      0.1325: real time      0.1325

 eigenvalue-minimisations  :    28
 total energy-change (2. order) :-0.6140880E-04  (-0.3739615E-06)
 number of electron      13.9999973 magnetization 
 augmentation part        0.3560191 magnetization 

 Broyden mixing:
  rms(total) = 0.16316E-03    rms(broyden)= 0.16273E-03
  rms(prec ) = 0.21938E-03
  weight for this iteration     100.00

 eigenvalues of (default mixing * dielectric matrix)
  average eigenvalue GAMMA=   2.5498
  9.1503  6.1199  3.8782  2.7334  2.5006  2.1347  1.6672  1.4208  1.0830  1.0830
  0.9942  0.9942  1.0190  0.9196

 Free energy of the ion-electron system (eV)
  ---------------------------------------------------
  alpha Z        PSCENC =         0.46971828
  Ewald energy   TEWEN  =       368.27449241
  -Hartree energ DENC   =      -690.59206969
  -exchange      EXHF   =         0.00000000
  -V(xc)+E(xc)   XCENC  =        46.13011854
  PAW double counting   =       224.50339501     -227.23239017
  entropy T*S    EENTRO =        -0.00000000
  eigenvalues    EBANDS =      -167.65252428
  atomic energy  EATOM  =       409.70482936
  Solvation  Ediel_sol  =         0.00000000
  ---------------------------------------------------
  free energy    TOTEN  =       -36.39443055 eV

  energy without entropy =      -36.39443055  energy(sigma->0) =      -36.39443055


--------------------------------------------------------------------------------------------------------




--------------------------------------- Iteration      1(  20)  ---------------------------------------


    POTLOK:  cpu time      0.0785: real time      0.0786
    SETDIJ:  cpu time      0.0013: real time      0.0013
     EDDAV:  cpu time      0.0458: real time      0.0458
       DOS:  cpu time      0.0001: real time      0.0001
    CHARGE:  cpu time      0.0069: real time      0.0069
    MIXING:  cpu time      0.0046: real time      0.0046
    --------------------------------------------
      LOOP:  cpu time      0.1372: real time      0.1373

 eigenvalue-minimisations  :    28
 total energy-change (2. order) :-0.1556861E-04  (-0.4655665E-07)
 number of electron      13.9999973 magnetization 
 augmentation part        0.3560152 magnetization 

 Broyden mixing:
  rms(total) = 0.61744E-04    rms(broyden)= 0.61694E-04
  rms(prec ) = 0.89310E-04
  weight for this iteration     100.00

 eigenvalues of (default mixing * dielectric matrix)
  average eigenvalue GAMMA=   2.5983
  9.5121  6.4721  4.2554  3.1373  2.3978  2.3428  2.1636  1.4799  1.0768  1.0768
  1.1638  0.9823  0.9823  0.9321  1.0001

 Free energy of the ion-electron system (eV)
  ---------------------------------------------------
  alpha Z        PSCENC =         0.46971828
  Ewald energy   TEWEN  =       368.27449241
  -Hartree energ DENC   =      -690.59426468
  -exchange      EXHF   =         0.00000000
  -V(xc)+E(xc)   XCENC  =        46.13023358
  PAW double counting   =       224.50551220     -227.23451685
  entropy T*S    EENTRO =        -0.00000000
  eigenvalues    EBANDS =      -167.65045042
  atomic energy  EATOM  =       409.70482936
  Solvation  Ediel_sol  =         0.00000000
  ---------------------------------------------------
  free energy    TOTEN  =       -36.39444612 eV

  energy without entropy =      -36.39444612  energy(sigma->0) =      -36.39444612


--------------------------------------------------------------------------------------------------------




--------------------------------------- Iteration      1(  21)  ---------------------------------------


    POTLOK:  cpu time      0.0762: real time      0.0762
    SETDIJ:  cpu time      0.0011: real time      0.0011
     EDDAV:  cpu time      0.0413: real time      0.0414
       DOS:  cpu time      0.0002: real time      0.0002
    --------------------------------------------
      LOOP:  cpu time      0.1189: real time      0.1189

 eigenvalue-minimisations  :    24
 total energy-change (2. order) :-0.6829985E-05  (-0.3066472E-07)
 number of electron      13.9999973 magnetization 
 augmentation part        0.3560152 magnetization 

 Free energy of the ion-electron system (eV)
  ---------------------------------------------------
  alpha Z        PSCENC =         0.46971828
  Ewald energy   TEWEN  =       368.27449241
  -Hartree energ DENC   =      -690.59535399
  -exchange      EXHF   =         0.00000000
  -V(xc)+E(xc)   XCENC  =        46.13027668
  PAW double counting   =       224.50652336     -227.23553969
  entropy T*S    EENTRO =        -0.00000000
  eigenvalues    EBANDS =      -167.64939935
  atomic energy  EATOM  =       409.70482936
  Solvation  Ediel_sol  =         0.00000000
  ---------------------------------------------------
  free energy    TOTEN  =       -36.39445295 eV

  energy without entropy =      -36.39445295  energy(sigma->0) =      -36.39445295


--------------------------------------------------------------------------------------------------------




 average (electrostatic) potential at core
  the test charge radii are     0.7672  0.5201  0.7089
  (the norm of the test charge is              1.0000)
       1 -34.4179       2 -44.5106       3 -45.1514       4 -45.4349       5 -38.5880
       6 -38.7916       7 -38.7893       8 -75.6260



 E-fermi :  -5.9981     XC(G=0):  -0.6732     alpha+bet : -0.2110

 Fermi energy:        -5.9981199030

 k-point     1 :       0.0000    0.0000    0.0000
  band No.  band energies     occupation 
      1     -23.5886      2.00000
      2     -13.6167      2.00000
      3     -13.3987      2.00000
      4     -12.1544      2.00000
      5      -8.1305      2.00000
      6      -6.7065      2.00000
      7      -6.2294      2.00000
      8      -1.2047      0.00000
      9       0.1364      0.00000
     10       0.2249      0.00000
     11       0.3351      0.00000
     12       0.5811      0.00000


--------------------------------------------------------------------------------------------------------


 soft charge-density along one line, spin component           1
         0         1         2         3         4         5         6         7         8         9
 total charge-density along one line

 pseudopotential strength for first ion, spin component:           1
  6.769   0.027  -0.000   0.005   0.001   0.000  -0.001  -0.000
  0.027  -0.003   0.000  -0.000   0.000   0.000  -0.000   0.000
 -0.000   0.000  -2.295  -0.000   0.000   0.009   0.000  -0.000
  0.005  -0.000  -0.000  -2.306   0.001   0.000   0.010  -0.000
  0.001   0.000   0.000   0.001  -2.295  -0.000  -0.000   0.009
  0.000   0.000   0.009   0.000  -0.000   0.119  -0.000   0.000
 -0.001  -0.000   0.000   0.010  -0.000  -0.000   0.119   0.000
 -0.000   0.000  -0.000  -0.000   0.009   0.000   0.000   0.119
 total augmentation occupancy for first ion, spin component:           1
  1.304  -0.551   0.006  -0.126   0.048  -0.012   0.010  -0.052
 -0.551   0.265  -0.009  -0.064  -0.021   0.008   0.106   0.022
  0.006  -0.009   1.110  -0.012   0.022  -0.664   0.010  -0.006
 -0.126  -0.064  -0.012   0.574   0.026   0.011  -0.469  -0.006
  0.048  -0.021   0.022   0.026   1.105  -0.006  -0.004  -0.636
 -0.012   0.008  -0.664   0.011  -0.006   0.404  -0.008  -0.000
  0.010   0.106   0.010  -0.469  -0.004  -0.008   0.409  -0.003
 -0.052   0.022  -0.006  -0.006  -0.636  -0.000  -0.003   0.374


------------------------ aborting loop because EDIFF is reached ----------------------------------------


    CHARGE:  cpu time      0.0066: real time      0.0066
    FORLOC:  cpu time      0.0094: real time      0.0094
    FORNL :  cpu time      0.0112: real time      0.0112
    STRESS:  cpu time      0.0420: real time      0.0420
    FORHAR:  cpu time      0.0262: real time      0.0262
    MIXING:  cpu time      0.0047: real time      0.0047
    OFIELD:  cpu time      0.0000: real time      0.0000

  FORCE on cell =-STRESS in cart. coord.  units (eV):
  Direction    XX          YY          ZZ          XY          YZ          ZX
  --------------------------------------------------------------------------------------
  Alpha Z     0.46972     0.46972     0.46972
  Ewald      78.46483    90.96645   198.84308    -4.73576    -5.94190   -12.05285
  Hartree   187.79114   195.25498   307.54654    -2.46238    -1.79958    -6.07796
  E(xc)     -48.81661   -48.72377   -48.92398    -0.03493    -0.01971    -0.01992
  Local    -372.66879  -393.41069  -629.41502     7.16923     6.44401    16.49277
  n-local   -33.10577   -32.52747   -32.37729    -0.12155     0.17472    -0.01143
  augment     1.70135     1.70391     2.14800    -0.00074     0.01222     0.03053
  Kinetic   184.53061   180.28182   198.11271     1.61837     0.58331     1.03394
  Fock        0.00000     0.00000     0.00000     0.00000     0.00000     0.00000
  -------------------------------------------------------------------------------------
  Total      -1.63353    -5.98505    -3.59624     1.43225    -0.54692    -0.60493
  in kB      -1.51459    -5.54925    -3.33439     1.32796    -0.50710    -0.56088
  external pressure =       -3.47 kB  Pullay stress =        0.00 kB


 VOLUME and BASIS-vectors are now :
 -----------------------------------------------------------------------------
  energy-cutoff  :      300.00
  volume of cell :     1728.00
      direct lattice vectors                 reciprocal lattice vectors
    12.000000000  0.000000000  0.000000000     0.083333333  0.000000000  0.000000000
     0.000000000 12.000000000  0.000000000     0.000000000  0.083333333  0.000000000
     0.000000000  0.000000000 12.000000000     0.000000000  0.000000000  0.083333333

  length of vectors
    12.000000000 12.000000000 12.000000000     0.083333333  0.083333333  0.083333333


 FORCES acting on ions
    electron-ion (+dipol)            ewald-force                    non-local-force                 convergence-correction
 -----------------------------------------------------------------------------------------------
   0.523E+01 0.304E+01 0.785E+02   -.505E+01 -.284E+01 -.823E+02   -.796E+00 0.104E+00 0.473E+01   0.414E-04 -.611E-04 0.283E-03
   -.159E+01 -.695E+02 -.302E+02   0.184E+01 0.742E+02 0.317E+02   -.167E+00 -.608E+01 -.166E+01   0.796E-05 -.254E-03 -.145E-04
   -.628E+02 0.403E+02 -.305E+02   0.702E+02 -.447E+02 0.330E+02   -.642E+01 0.413E+01 -.189E+01   -.238E-03 0.128E-03 -.261E-04
   0.650E+02 0.359E+02 -.359E+02   -.738E+02 -.408E+02 0.396E+02   0.694E+01 0.391E+01 -.285E+01   0.253E-03 0.997E-04 -.485E-04
   0.297E+02 -.237E+02 0.226E+02   -.318E+02 0.250E+02 -.236E+02   0.235E+01 -.206E+01 0.959E+00   -.490E-04 0.411E-04 -.204E-04
   -.181E+01 0.404E+02 0.204E+02   0.172E+01 -.436E+02 -.215E+02   -.243E+00 0.339E+01 0.649E+00   0.201E-04 -.722E-04 0.139E-04
   -.371E+02 -.198E+02 0.197E+02   0.411E+02 0.218E+02 -.208E+02   -.322E+01 -.178E+01 0.607E+00   0.873E-04 0.239E-04 0.436E-05
   0.447E+01 -.766E+01 -.596E+02   -.419E+01 0.109E+02 0.439E+02   0.513E+00 -.559E+00 0.144E+02   0.163E-03 -.331E-03 0.639E-03
 -----------------------------------------------------------------------------------------------
   0.105E+01 -.107E+01 -.149E+02   -.444E-14 -.888E-14 -.711E-14   -.104E+01 0.106E+01 0.149E+02   0.286E-03 -.425E-03 0.831E-03


 POSITION                                       TOTAL-FORCE (eV/Angst)
 -----------------------------------------------------------------------------------
      5.95059      6.09573      5.14992        -0.608225      0.300412      0.873447
      5.92942      7.11173      7.15688         0.082216     -1.365823     -0.092768
      6.70888      5.58095      7.10808         0.977867     -0.307564      0.635330
      5.10243      5.65154      7.18444        -1.908061     -0.903010      0.874682
      5.01269      6.85765      4.81556         0.253759     -0.813077     -0.066012
      6.00799      4.88827      4.94438        -0.335735      0.208065     -0.476281
      6.98731      6.65558      4.99485         0.742894      0.240086     -0.432873
      5.89807      6.09739      6.83152         0.795284      2.640913     -1.315525
 -----------------------------------------------------------------------------------
    total drift:                                0.006148     -0.014206      0.021624


--------------------------------------------------------------------------------------------------------



  FREE ENERGIE OF THE ION-ELECTRON SYSTEM (eV)
  ---------------------------------------------------
  free  energy   TOTEN  =       -36.39445295 eV

  energy  without entropy=      -36.39445295  energy(sigma->0) =      -36.39445295



--------------------------------------------------------------------------------------------------------


    POTLOK:  cpu time      0.0781: real time      0.0781


--------------------------------------------------------------------------------------------------------


 stress matrix after NEB project (eV)
     -1.63353      1.43225     -0.60493
      1.43225     -5.98505     -0.54692
     -0.60493     -0.54692     -3.59624
  FORCES: max atom, RMS     3.055733    1.621215
  FORCE total and by dimension    4.585488    2.640913
  Stress total and by dimension    7.540222    5.985046
     LOOP+:  cpu time      2.6545: real time      2.6551
    4ORBIT:  cpu time      0.0000: real time      0.0000

 total amount of memory used by VASP MPI-rank0    71022. kBytes
=======================================================================

   base      :      30000. kBytes
   nonl-proj :       3260. kBytes
   fftplans  :      13163. kBytes
   grid      :      23607. kBytes
   one-center:         12. kBytes
   wavefun   :        980. kBytes

  
  
 General timing and accounting informations for this job:
 ========================================================
  
                  Total CPU time used (sec):        2.896
                            User time (sec):        2.524
                          System time (sec):        0.372
                         Elapsed time (sec):        2.927
  
                   Maximum memory used (kb):      102500.
                   Average memory used (kb):          N/A
  
                          Minor page faults:       143157
                          Major page faults:            0
                 Voluntary context switches:          193
