B  H  N 
 1.0000000000000000
    12.0000000000000000    0.0000000000000000    0.0000000000000000
     0.0000000000000000   12.0000000000000000    0.0000000000000000
     0.0000000000000000    0.0000000000000000   12.0000000000000000
 B   H   N  
   1   6   1
Cartesian
  5.9505890199999998  6.0957330100000000  5.1499187900000001
  5.9294232100000004  7.1117270100000001  7.1568777299999997
  6.7088793600000001  5.5809541400000002  7.1080772899999998
  5.1024257799999999  5.6515437000000004  7.1844355999999996
  5.0126944599999996  6.8576518599999998  4.8155644000000004
  6.0079858000000002  4.8882729899999999  4.9443807900000003
  6.9873055400000004  6.6555845700000003  4.9948505499999998
  5.8980728200000003  6.0973928700000002  6.8315244499999999
