<?xml version="1.0" encoding="ISO-8859-1"?>
<modeling>
 <generator>
  <i name="program" type="string">vasp </i>
  <i name="version" type="string">6.4.2  </i>
  <i name="subversion" type="string">20Jul23 (build Jan 21 2025 10:37:15) complex                          parallel </i>
  <i name="platform" type="string">LinuxGNU </i>
  <i name="date" type="string">2026 04 20 </i>
  <i name="time" type="string">12:48:23 </i>
 </generator>
 <incar>
  <i type="string" name="SYSTEM">13-Butadiene</i>
  <i type="int" name="ISTART">     0</i>
  <i type="string" name="PREC">Normal</i>
  <i type="int" name="NSIM">     4</i>
  <i type="int" name="ISPIN">     1</i>
  <i type="int" name="ICHARG">     2</i>
  <i name="EDIFF">      0.00001000</i>
  <i name="ENCUT">    300.00000000</i>
  <i type="logical" name="LPLANE"> T  </i>
  <i type="int" name="ISMEAR">     0</i>
  <i name="SIGMA">      0.05000000</i>
  <i type="logical" name="KGAMMA"> T  </i>
  <i type="int" name="NWRITE">     2</i>
  <i type="logical" name="LWAVE"> F  </i>
  <i type="logical" name="LCHARG"> F  </i>
  <i type="logical" name="LSCALU"> F  </i>
  <i type="string" name="GGA">PE</i>
 </incar>
 <primitive_cell>
  <structure name="primitive_cell" >
   <crystal>
    <varray name="basis" >
     <v>      12.00000000       0.00000000       0.00000000 </v>
     <v>       0.00000000      12.00000000       0.00000000 </v>
     <v>       0.00000000       0.00000000      12.00000000 </v>
    </varray>
    <i name="volume">   1728.00000000 </i>
    <varray name="rec_basis" >
     <v>       0.08333333       0.00000000       0.00000000 </v>
     <v>       0.00000000       0.08333333       0.00000000 </v>
     <v>       0.00000000       0.00000000       0.08333333 </v>
    </varray>
   </crystal>
   <varray name="positions" >
    <v>       0.49588242       0.50797775       0.42915990 </v>
    <v>       0.49411860       0.59264392       0.59640648 </v>
    <v>       0.55907328       0.46507951       0.59233977 </v>
    <v>       0.42520215       0.47096198       0.59870297 </v>
    <v>       0.41772454       0.57147099       0.40129703 </v>
    <v>       0.50066548       0.40735608       0.41203173 </v>
    <v>       0.58227546       0.55463205       0.41623755 </v>
    <v>       0.49150607       0.50811607       0.56929370 </v>
   </varray>
  </structure>
  <varray name="primitive_index" >
   <v type="int" >        1 </v>
   <v type="int" >        2 </v>
   <v type="int" >        3 </v>
   <v type="int" >        4 </v>
   <v type="int" >        5 </v>
   <v type="int" >        6 </v>
   <v type="int" >        7 </v>
   <v type="int" >        8 </v>
  </varray>
 </primitive_cell>
 <kpoints>
  <generation param="Monkhorst-Pack">
   <v type="int" name="divisions">       1        1        1 </v>
   <v name="usershift">      0.00000000       0.00000000       0.00000000 </v>
   <v name="genvec1">      1.00000000       0.00000000       0.00000000 </v>
   <v name="genvec2">      0.00000000       1.00000000       0.00000000 </v>
   <v name="genvec3">      0.00000000       0.00000000       1.00000000 </v>
   <v name="shift">      0.00000000       0.00000000       0.00000000 </v>
  </generation>
  <varray name="kpointlist" >
   <v>       0.00000000       0.00000000       0.00000000 </v>
  </varray>
  <varray name="weights" >
   <v>       1.00000000 </v>
  </varray>
 </kpoints>
 <parameters>
  <separator name="general" >
   <i type="string" name="SYSTEM">13-Butadiene</i>
   <i type="logical" name="LCOMPAT"> F  </i>
  </separator>
  <separator name="electronic" >
   <i type="string" name="PREC">normal</i>
   <i name="ENMAX">    300.00000000</i>
   <i name="ENAUG">    627.11200000</i>
   <i name="EDIFF">      0.00001000</i>
   <i type="int" name="IALGO">    38</i>
   <i type="int" name="IWAVPR">    10</i>
   <i type="int" name="NBANDS">    12</i>
   <i type="int" name="NBANDSLOW">    -1</i>
   <i type="int" name="NBANDSHIGH">    -1</i>
   <i name="NELECT">     14.00000000</i>
   <i type="int" name="TURBO">     0</i>
   <i type="int" name="IRESTART">     0</i>
   <i type="int" name="NREBOOT">     0</i>
   <i type="int" name="NMIN">     0</i>
   <i name="EREF">      0.00000000</i>
   <separator name="electronic smearing" >
    <i type="int" name="ISMEAR">     0</i>
    <i name="SIGMA">      0.05000000</i>
    <i name="KSPACING">      0.50000000</i>
    <i type="logical" name="KGAMMA"> T  </i>
    <i type="logical" name="KBLOWUP"> T  </i>
   </separator>
   <separator name="electronic projectors" >
    <i type="logical" name="LREAL"> F  </i>
    <v name="ROPT">      0.00000000      0.00000000      0.00000000</v>
    <i type="int" name="LMAXPAW">  -100</i>
    <i type="int" name="LMAXMIX">     2</i>
    <i type="logical" name="NLSPLINE"> F  </i>
   </separator>
   <separator name="electronic startup" >
    <i type="int" name="ISTART">     0</i>
    <i type="int" name="ICHARG">     2</i>
    <i type="int" name="INIWAV">     1</i>
   </separator>
   <separator name="electronic spin" >
    <i type="int" name="ISPIN">     1</i>
    <i type="logical" name="LNONCOLLINEAR"> F  </i>
    <v name="MAGMOM">      1.00000000      1.00000000      1.00000000      1.00000000      1.00000000      1.00000000      1.00000000      1.00000000</v>
    <i name="NUPDOWN">     -1.00000000</i>
    <i type="logical" name="LSORBIT"> F  </i>
    <v name="SAXIS">      0.00000000      0.00000000      1.00000000</v>
    <i type="logical" name="LSPIRAL"> F  </i>
    <v name="QSPIRAL">      0.00000000      0.00000000      0.00000000</v>
    <i type="logical" name="LZEROZ"> F  </i>
   </separator>
   <separator name="electronic exchange-correlation" >
    <i type="logical" name="LASPH"> F  </i>
    <i type="logical" name="LMETAGGA"> F  </i>
   </separator>
   <separator name="electronic convergence" >
    <i type="int" name="NELM">    60</i>
    <i type="int" name="NELMDL">    -5</i>
    <i type="int" name="NELMIN">     2</i>
    <i name="ENINI">    300.00000000</i>
    <separator name="electronic convergence detail" >
     <i type="logical" name="LDIAG"> T  </i>
     <i type="logical" name="LSUBROT"> F  </i>
     <i name="WEIMIN">      0.00000000</i>
     <i name="EBREAK">      0.00000021</i>
     <i name="DEPER">      0.30000000</i>
     <i type="int" name="NRMM">     4</i>
     <i name="TIME">      0.40000000</i>
    </separator>
   </separator>
   <separator name="electronic mixer" >
    <i name="AMIX">      0.40000000</i>
    <i name="BMIX">      1.00000000</i>
    <i name="AMIN">      0.10000000</i>
    <i name="AMIX_MAG">      1.60000000</i>
    <i name="BMIX_MAG">      1.00000000</i>
    <separator name="electronic mixer details" >
     <i type="int" name="IMIX">     4</i>
     <i type="logical" name="MIXFIRST"> F  </i>
     <i type="int" name="MAXMIX">   -45</i>
     <i name="WC">    100.00000000</i>
     <i type="int" name="INIMIX">     1</i>
     <i type="int" name="MIXPRE">     1</i>
     <i type="int" name="MREMOVE">     5</i>
    </separator>
   </separator>
   <separator name="electronic dipolcorrection" >
    <i type="logical" name="LDIPOL"> F  </i>
    <i type="logical" name="LMONO"> F  </i>
    <i type="int" name="IDIPOL">     0</i>
    <i name="EPSILON">      1.00000000</i>
    <v name="DIPOL">   -100.00000000   -100.00000000   -100.00000000</v>
    <i name="EFIELD">      0.00000000</i>
   </separator>
  </separator>
  <separator name="grids" >
   <i type="int" name="NGX">    54</i>
   <i type="int" name="NGY">    54</i>
   <i type="int" name="NGZ">    54</i>
   <i type="int" name="NGXF">   108</i>
   <i type="int" name="NGYF">   108</i>
   <i type="int" name="NGZF">   108</i>
   <i type="logical" name="ADDGRID"> F  </i>
  </separator>
  <separator name="ionic" >
   <i type="int" name="NSW">     0</i>
   <i type="int" name="IBRION">    -1</i>
   <i type="int" name="MDALGO">     0</i>
   <i type="int" name="ISIF">     2</i>
   <i name="PSTRESS">      0.00000000</i>
   <i name="EDIFFG">      0.00010000</i>
   <i type="int" name="NFREE">     0</i>
   <i name="POTIM">      0.50000000</i>
   <i name="SMASS">     -3.00000000</i>
   <i name="SCALEE">      1.00000000</i>
  </separator>
  <separator name="ionic md" >
   <i name="TEBEG">      0.00010000</i>
   <i name="TEEND">      0.00010000</i>
   <i type="int" name="NBLOCK">     1</i>
   <i type="int" name="KBLOCK">     1</i>
   <i type="int" name="NPACO">   256</i>
   <i name="APACO">     10.00000000</i>
  </separator>
  <separator name="symmetry" >
   <i type="int" name="ISYM">     2</i>
   <i name="SYMPREC">      0.00001000</i>
  </separator>
  <separator name="dos" >
   <i type="int" name="LORBIT">     0</i>
   <v name="RWIGS">     -1.00000000     -1.00000000     -1.00000000</v>
   <i type="int" name="NEDOS">   301</i>
   <i name="EMIN">     10.00000000</i>
   <i name="EMAX">    -10.00000000</i>
   <i name="EFERMI">      0.00000000</i>
  </separator>
  <separator name="writing" >
   <i type="int" name="NWRITE">     2</i>
   <i type="logical" name="LWAVE"> F  </i>
   <i type="logical" name="LDOWNSAMPLE"> F  </i>
   <i type="logical" name="LCHARG"> F  </i>
   <i type="logical" name="LPARD"> F  </i>
   <i type="logical" name="LVTOT"> F  </i>
   <i type="logical" name="LVHAR"> F  </i>
   <i type="logical" name="LELF"> F  </i>
   <i type="logical" name="LOPTICS"> F  </i>
   <v name="STM">      0.00000000      0.00000000      0.00000000      0.00000000      0.00000000      0.00000000      0.00000000</v>
  </separator>
  <separator name="performance" >
   <i type="int" name="NPAR">     2</i>
   <i type="int" name="NSIM">     4</i>
   <i type="int" name="NBLK">    -1</i>
   <i type="logical" name="LPLANE"> T  </i>
   <i type="logical" name="LSCALAPACK"> T  </i>
   <i type="logical" name="LSCAAWARE"> F  </i>
   <i type="logical" name="LSCALU"> F  </i>
   <i type="logical" name="LASYNC"> F  </i>
   <i type="logical" name="LORBITALREAL"> F  </i>
  </separator>
  <separator name="miscellaneous" >
   <i type="int" name="IDIOT">     3</i>
   <i type="int" name="PHON_NSTRUCT">    -1</i>
   <i type="logical" name="LMUSIC"> F  </i>
   <v name="POMASS">     10.81100000      1.00000000     14.00100000</v>
   <v name="DARWINR">      0.00000000      0.00000000      0.00000000</v>
   <v name="DARWINV">      1.00000000      1.00000000      1.00000000</v>
   <i type="logical" name="LCORR"> T  </i>
  </separator>
  <i type="logical" name="GGA_COMPAT"> T  </i>
  <i type="logical" name="LBERRY"> F  </i>
  <i type="int" name="ICORELEVEL">     0</i>
  <i type="logical" name="LDAU"> F  </i>
  <i type="int" name="I_CONSTRAINED_M">     0</i>
  <separator name="electronic exchange-correlation" >
   <i type="string" name="GGA">PE</i>
   <i type="int" name="VOSKOWN">     0</i>
   <i type="logical" name="LHFCALC"> F  </i>
   <i type="string" name="PRECFOCK"></i>
   <i type="logical" name="LSYMGRAD"> F  </i>
   <i type="logical" name="LHFONE"> F  </i>
   <i type="logical" name="LRHFCALC"> F  </i>
   <i type="logical" name="LTHOMAS"> F  </i>
   <i type="logical" name="LMODELHF"> F  </i>
   <i type="logical" name="LFOCKACE"> F  </i>
   <i name="ENCUT4O">     -1.00000000</i>
   <i type="int" name="EXXOEP">     0</i>
   <i type="int" name="FOURORBIT">     0</i>
   <i name="AEXX">      0.00000000</i>
   <i name="HFALPHA">      0.00000000</i>
   <i name="MCALPHA">      0.00000000</i>
   <i name="ALDAX">      1.00000000</i>
   <i name="AGGAX">      1.00000000</i>
   <i name="ALDAC">      1.00000000</i>
   <i name="AGGAC">      1.00000000</i>
   <i type="int" name="NKREDX">     1</i>
   <i type="int" name="NKREDY">     1</i>
   <i type="int" name="NKREDZ">     1</i>
   <i type="logical" name="SHIFTRED"> F  </i>
   <i type="logical" name="ODDONLY"> F  </i>
   <i type="logical" name="EVENONLY"> F  </i>
   <i type="int" name="LMAXFOCK">     0</i>
   <i type="int" name="NMAXFOCKAE">     0</i>
   <i type="logical" name="LFOCKAEDFT"> F  </i>
   <i name="HFSCREEN">      0.00000000</i>
   <i name="HFSCREENC">      0.00000000</i>
   <i type="int" name="NBANDSGWLOW">     0</i>
  </separator>
  <separator name="vdW DFT" >
   <i type="logical" name="LUSE_VDW"> F  </i>
   <i type="int" name="IVDW_NL">     1</i>
   <i type="logical" name="LSPIN_VDW"> F  </i>
   <i name="Zab_VDW">     -0.84910000</i>
   <i name="PARAM1">      0.12340000</i>
   <i name="PARAM2">      1.00000000</i>
   <i name="PARAM3">      0.00000000</i>
  </separator>
  <separator name="model GW" >
   <i type="int" name="MODEL_GW">     0</i>
   <i name="MODEL_EPS0">    129.60000000</i>
   <i name="MODEL_ALPHA">      1.00000000</i>
  </separator>
  <separator name="linear response parameters" >
   <i type="logical" name="LEPSILON"> F  </i>
   <i type="logical" name="LRPA"> F  </i>
   <i type="logical" name="LNABLA"> F  </i>
   <i type="logical" name="LVEL"> F  </i>
   <i name="CSHIFT">      0.10000000</i>
   <i name="OMEGAMAX">     -1.00000000</i>
   <i name="DEG_THRESHOLD">      0.00200000</i>
   <i name="RTIME">     -0.10000000</i>
   <i name="WPLASMAI">      0.00000000</i>
   <v name="DFIELD">      0.00000000      0.00000000      0.00000000</v>
   <v name="WPLASMA">      0.00000000      0.00000000      0.00000000      0.00000000      0.00000000      0.00000000      0.00000000      0.00000000      0.00000000</v>
  </separator>
  <separator name="orbital magnetization" >
   <i type="logical" name="NUCIND"> F  </i>
   <v name="MAGPOS">      0.00000000      0.00000000      0.00000000</v>
   <i type="logical" name="LNICSALL"> T  </i>
   <i type="logical" name="ORBITALMAG"> F  </i>
   <i type="logical" name="LMAGBLOCH"> F  </i>
   <i type="logical" name="LCHIMAG"> F  </i>
   <i type="logical" name="LGAUGE"> T  </i>
   <i type="int" name="MAGATOM">     0</i>
   <v name="MAGDIPOL">      0.00000000      0.00000000      0.00000000</v>
   <v name="AVECCONST">      0.00000000      0.00000000      0.00000000</v>
  </separator>
  <separator name="response functions" >
   <i type="logical" name="LALL_IN_ONE"> F  </i>
   <i type="int" name="IALL_IN_ONE">    -1</i>
   <i type="int" name="NBANDS_WAVE">    -1</i>
   <i type="logical" name="LFINITE_TEMPERATURE"> F  </i>
   <i type="logical" name="LADDER"> F  </i>
   <i type="logical" name="LRPAFORCE"> F  </i>
   <i type="logical" name="LFXC"> F  </i>
   <i type="logical" name="LHARTREE"> T  </i>
   <i type="int" name="IBSE">     0</i>
   <v type="int" name="KPOINT">    -1     0     0     0</v>
   <i type="logical" name="LTCTC"> F  </i>
   <i type="logical" name="LTCTE"> F  </i>
   <i type="logical" name="LTETE"> F  </i>
   <i type="logical" name="LTRIPLET"> F  </i>
   <i type="logical" name="LFXCEPS"> F  </i>
   <i type="logical" name="LFXHEG"> F  </i>
   <i type="int" name="NATURALO">     2</i>
   <i type="logical" name="LHOLEGF"> F  </i>
   <i type="logical" name="L2ORDER"> F  </i>
   <i type="logical" name="LDMP1"> F  </i>
   <i type="logical" name="LMP2LT"> F  </i>
   <i type="logical" name="LSMP2LT"> F  </i>
   <i type="logical" name="LGWLF"> F  </i>
   <i name="ENCUTGW">     -1.60000002</i>
   <i name="ENCUTGWSOFT">     -1.60000002</i>
   <i name="ENCUTLF">     -1.00000000</i>
   <i type="logical" name="LESF_SPLINES"> F  </i>
   <i type="int" name="LMAXMP2">    -1</i>
   <i name="SCISSOR">      0.00000000</i>
   <i type="int" name="NOMEGA">     0</i>
   <i type="int" name="NOMEGAR">     0</i>
   <i type="int" name="NBANDSGW">    -1</i>
   <i type="int" name="NBANDSO">    -1</i>
   <i type="int" name="NBANDSV">    -1</i>
   <i type="int" name="NELMGW">     1</i>
   <i type="int" name="NELMHF">     1</i>
   <i type="int" name="DIM">     3</i>
   <i type="int" name="IESPILON">     4</i>
   <i type="int" name="ANTIRES">     0</i>
   <i name="OMEGAMAX">    -30.00000000</i>
   <i name="OMEGAMIN">    -30.00000000</i>
   <i name="OMEGATL">   -200.00000000</i>
   <i type="int" name="OMEGAGRID">     0</i>
   <i name="CSHIFT">     -0.10000000</i>
   <i type="logical" name="LSELFENERGY"> F  </i>
   <i type="logical" name="LSPECTRAL"> F  </i>
   <i type="logical" name="LSPECTRALGW"> F  </i>
   <i type="logical" name="LSINGLES"> F  </i>
   <i type="logical" name="LFERMIGW"> F  </i>
   <i type="logical" name="ODDONLYGW"> F  </i>
   <i type="logical" name="EVENONLYGW"> F  </i>
   <i type="int" name="NKREDLFX">     1</i>
   <i type="int" name="NKREDLFY">     1</i>
   <i type="int" name="NKREDLFZ">     1</i>
   <i type="int" name="MAXMEM">  2800</i>
   <i type="int" name="TELESCOPE">     0</i>
   <i type="int" name="NTAUPAR">    -1</i>
   <i type="int" name="NOMEGAPAR">    -1</i>
   <i name="DAMP_NEWTON">      0.80000001</i>
   <i name="LAMBDA">      1.00000000</i>
  </separator>
  <separator name="External order field" >
   <i name="OFIELD_KAPPA">      0.00000000</i>
   <v name="OFIELD_K">      0.00000000      0.00000000      0.00000000</v>
   <i name="OFIELD_Q6_NEAR">      0.00000000</i>
   <i name="OFIELD_Q6_FAR">      0.00000000</i>
   <i name="OFIELD_A">      0.00000000</i>
  </separator>
  <separator name="optional k-points parameters" >
   <i type="int" name="KPOINTS_OPT_MODE">     1</i>
   <i type="logical" name="LKPOINTS_OPT"> F  </i>
  </separator>
 </parameters>
 <atominfo>
  <atoms>       8 </atoms>
  <types>       3 </types>
  <array name="atoms" >
   <dimension dim="1">ion</dimension>
   <field type="string">element</field>
   <field type="int">atomtype</field>
   <set>
    <rc><c>B </c><c>   1</c></rc>
    <rc><c>H </c><c>   2</c></rc>
    <rc><c>H </c><c>   2</c></rc>
    <rc><c>H </c><c>   2</c></rc>
    <rc><c>H </c><c>   2</c></rc>
    <rc><c>H </c><c>   2</c></rc>
    <rc><c>H </c><c>   2</c></rc>
    <rc><c>N </c><c>   3</c></rc>
   </set>
  </array>
  <array name="atomtypes" >
   <dimension dim="1">type</dimension>
   <field type="int">atomspertype</field>
   <field type="string">element</field>
   <field>mass</field>
   <field>valence</field>
   <field type="string">pseudopotential</field>
   <set>
    <rc><c>   1</c><c>B </c><c>     10.81100000</c><c>      3.00000000</c><c> PAW_PBE B 06Sep2000                    </c></rc>
    <rc><c>   6</c><c>H </c><c>      1.00000000</c><c>      1.00000000</c><c> PAW_PBE H 15Jun2001                    </c></rc>
    <rc><c>   1</c><c>N </c><c>     14.00100000</c><c>      5.00000000</c><c> PAW_PBE N 08Apr2002                    </c></rc>
   </set>
  </array>
 </atominfo>
 <structure name="initialpos" >
  <crystal>
   <varray name="basis" >
    <v>      12.00000000       0.00000000       0.00000000 </v>
    <v>       0.00000000      12.00000000       0.00000000 </v>
    <v>       0.00000000       0.00000000      12.00000000 </v>
   </varray>
   <i name="volume">   1728.00000000 </i>
   <varray name="rec_basis" >
    <v>       0.08333333       0.00000000       0.00000000 </v>
    <v>       0.00000000       0.08333333       0.00000000 </v>
    <v>       0.00000000       0.00000000       0.08333333 </v>
   </varray>
  </crystal>
  <varray name="positions" >
   <v>       0.49588242       0.50797775       0.42915990 </v>
   <v>       0.49411860       0.59264392       0.59640648 </v>
   <v>       0.55907328       0.46507951       0.59233977 </v>
   <v>       0.42520215       0.47096198       0.59870297 </v>
   <v>       0.41772454       0.57147099       0.40129703 </v>
   <v>       0.50066548       0.40735608       0.41203173 </v>
   <v>       0.58227546       0.55463205       0.41623755 </v>
   <v>       0.49150607       0.50811607       0.56929370 </v>
  </varray>
 </structure>
 <calculation>
  <scstep>
   <time name="dav">    0.05    0.05</time>
   <time name="total">    0.13    0.13</time>
   <energy>
    <i name="alphaZ">      0.46971828 </i>
    <i name="ewald">    368.27449241 </i>
    <i name="hartreedc">   -630.74034481 </i>
    <i name="XCdc">     42.22945398 </i>
    <i name="pawpsdc">    130.00478569 </i>
    <i name="pawaedc">   -132.14397453 </i>
    <i name="eentropy">     -0.00000000 </i>
    <i name="bandstr">   -114.02160138 </i>
    <i name="atom">    409.70482936 </i>
    <i name="e_fr_energy">     73.77735900 </i>
    <i name="e_wo_entrp">     73.77735900 </i>
    <i name="e_0_energy">     73.77735900 </i>
   </energy>
  </scstep>
  <scstep>
   <time name="dav">    0.06    0.06</time>
   <time name="total">    0.06    0.06</time>
   <energy>
    <i name="e_fr_energy">    -29.37094653 </i>
    <i name="e_wo_entrp">    -29.37094653 </i>
    <i name="e_0_energy">    -29.37094653 </i>
   </energy>
  </scstep>
  <scstep>
   <time name="dav">    0.05    0.05</time>
   <time name="total">    0.05    0.05</time>
   <energy>
    <i name="e_fr_energy">    -41.13097069 </i>
    <i name="e_wo_entrp">    -41.13097069 </i>
    <i name="e_0_energy">    -41.13097069 </i>
   </energy>
  </scstep>
  <scstep>
   <time name="dav">    0.07    0.07</time>
   <time name="total">    0.07    0.07</time>
   <energy>
    <i name="e_fr_energy">    -41.41444726 </i>
    <i name="e_wo_entrp">    -41.41444726 </i>
    <i name="e_0_energy">    -41.41444726 </i>
   </energy>
  </scstep>
  <scstep>
   <time name="dav">    0.06    0.06</time>
   <time name="total">    0.07    0.07</time>
   <energy>
    <i name="e_fr_energy">    -41.41457702 </i>
    <i name="e_wo_entrp">    -41.41457702 </i>
    <i name="e_0_energy">    -41.41457702 </i>
   </energy>
  </scstep>
  <scstep>
   <time name="dav">    0.05    0.05</time>
   <time name="total">    0.14    0.14</time>
   <energy>
    <i name="e_fr_energy">    -37.69247267 </i>
    <i name="e_wo_entrp">    -37.69247267 </i>
    <i name="e_0_energy">    -37.69247267 </i>
   </energy>
  </scstep>
  <scstep>
   <time name="dav">    0.05    0.05</time>
   <time name="total">    0.14    0.14</time>
   <energy>
    <i name="e_fr_energy">    -36.62605498 </i>
    <i name="e_wo_entrp">    -36.62605498 </i>
    <i name="e_0_energy">    -36.62605498 </i>
   </energy>
  </scstep>
  <scstep>
   <time name="dav">    0.05    0.05</time>
   <time name="total">    0.13    0.13</time>
   <energy>
    <i name="e_fr_energy">    -36.38311049 </i>
    <i name="e_wo_entrp">    -36.38311049 </i>
    <i name="e_0_energy">    -36.38311049 </i>
   </energy>
  </scstep>
  <scstep>
   <time name="dav">    0.05    0.05</time>
   <time name="total">    0.14    0.14</time>
   <energy>
    <i name="e_fr_energy">    -36.36372485 </i>
    <i name="e_wo_entrp">    -36.36372485 </i>
    <i name="e_0_energy">    -36.36372485 </i>
   </energy>
  </scstep>
  <scstep>
   <time name="dav">    0.05    0.05</time>
   <time name="total">    0.13    0.13</time>
   <energy>
    <i name="e_fr_energy">    -36.35816334 </i>
    <i name="e_wo_entrp">    -36.35816334 </i>
    <i name="e_0_energy">    -36.35816334 </i>
   </energy>
  </scstep>
  <scstep>
   <time name="dav">    0.05    0.05</time>
   <time name="total">    0.13    0.13</time>
   <energy>
    <i name="e_fr_energy">    -36.36566901 </i>
    <i name="e_wo_entrp">    -36.36566901 </i>
    <i name="e_0_energy">    -36.36566901 </i>
   </energy>
  </scstep>
  <scstep>
   <time name="dav">    0.04    0.04</time>
   <time name="total">    0.12    0.12</time>
   <energy>
    <i name="e_fr_energy">    -36.37505247 </i>
    <i name="e_wo_entrp">    -36.37505247 </i>
    <i name="e_0_energy">    -36.37505247 </i>
   </energy>
  </scstep>
  <scstep>
   <time name="dav">    0.04    0.04</time>
   <time name="total">    0.12    0.12</time>
   <energy>
    <i name="e_fr_energy">    -36.38599674 </i>
    <i name="e_wo_entrp">    -36.38599674 </i>
    <i name="e_0_energy">    -36.38599674 </i>
   </energy>
  </scstep>
  <scstep>
   <time name="dav">    0.05    0.05</time>
   <time name="total">    0.13    0.13</time>
   <energy>
    <i name="e_fr_energy">    -36.38995559 </i>
    <i name="e_wo_entrp">    -36.38995559 </i>
    <i name="e_0_energy">    -36.38995559 </i>
   </energy>
  </scstep>
  <scstep>
   <time name="dav">    0.05    0.05</time>
   <time name="total">    0.13    0.13</time>
   <energy>
    <i name="e_fr_energy">    -36.39301644 </i>
    <i name="e_wo_entrp">    -36.39301644 </i>
    <i name="e_0_energy">    -36.39301644 </i>
   </energy>
  </scstep>
  <scstep>
   <time name="dav">    0.04    0.04</time>
   <time name="total">    0.12    0.12</time>
   <energy>
    <i name="e_fr_energy">    -36.39384626 </i>
    <i name="e_wo_entrp">    -36.39384626 </i>
    <i name="e_0_energy">    -36.39384626 </i>
   </energy>
  </scstep>
  <scstep>
   <time name="dav">    0.05    0.05</time>
   <time name="total">    0.13    0.13</time>
   <energy>
    <i name="e_fr_energy">    -36.39424272 </i>
    <i name="e_wo_entrp">    -36.39424272 </i>
    <i name="e_0_energy">    -36.39424272 </i>
   </energy>
  </scstep>
  <scstep>
   <time name="dav">    0.06    0.06</time>
   <time name="total">    0.14    0.14</time>
   <energy>
    <i name="e_fr_energy">    -36.39436914 </i>
    <i name="e_wo_entrp">    -36.39436914 </i>
    <i name="e_0_energy">    -36.39436914 </i>
   </energy>
  </scstep>
  <scstep>
   <time name="dav">    0.04    0.04</time>
   <time name="total">    0.13    0.13</time>
   <energy>
    <i name="e_fr_energy">    -36.39443055 </i>
    <i name="e_wo_entrp">    -36.39443055 </i>
    <i name="e_0_energy">    -36.39443055 </i>
   </energy>
  </scstep>
  <scstep>
   <time name="dav">    0.05    0.05</time>
   <time name="total">    0.14    0.14</time>
   <energy>
    <i name="e_fr_energy">    -36.39444612 </i>
    <i name="e_wo_entrp">    -36.39444612 </i>
    <i name="e_0_energy">    -36.39444612 </i>
   </energy>
  </scstep>
  <scstep>
   <time name="dav">    0.04    0.04</time>
   <time name="total">    0.12    0.12</time>
   <energy>
    <i name="alphaZ">      0.46971828 </i>
    <i name="ewald">    368.27449241 </i>
    <i name="hartreedc">   -690.59535399 </i>
    <i name="XCdc">     46.13027668 </i>
    <i name="pawpsdc">    224.50652336 </i>
    <i name="pawaedc">   -227.23553969 </i>
    <i name="eentropy">     -0.00000000 </i>
    <i name="bandstr">   -167.64939935 </i>
    <i name="atom">    409.70482936 </i>
    <i name="e_fr_energy">    -36.39445295 </i>
    <i name="e_wo_entrp">    -36.39445295 </i>
    <i name="e_0_energy">    -36.39445295 </i>
   </energy>
  </scstep>
  <structure>
   <crystal>
    <varray name="basis" >
     <v>      12.00000000       0.00000000       0.00000000 </v>
     <v>       0.00000000      12.00000000       0.00000000 </v>
     <v>       0.00000000       0.00000000      12.00000000 </v>
    </varray>
    <i name="volume">   1728.00000000 </i>
    <varray name="rec_basis" >
     <v>       0.08333333       0.00000000       0.00000000 </v>
     <v>       0.00000000       0.08333333       0.00000000 </v>
     <v>       0.00000000       0.00000000       0.08333333 </v>
    </varray>
   </crystal>
   <varray name="positions" >
    <v>       0.49588242       0.50797775       0.42915990 </v>
    <v>       0.49411860       0.59264392       0.59640648 </v>
    <v>       0.55907328       0.46507951       0.59233977 </v>
    <v>       0.42520215       0.47096198       0.59870297 </v>
    <v>       0.41772454       0.57147099       0.40129703 </v>
    <v>       0.50066548       0.40735608       0.41203173 </v>
    <v>       0.58227546       0.55463205       0.41623755 </v>
    <v>       0.49150607       0.50811607       0.56929370 </v>
   </varray>
  </structure>
  <varray name="forces" >
   <v>      -0.60822482       0.30041187       0.87344678 </v>
   <v>       0.08221566      -1.36582336      -0.09276844 </v>
   <v>       0.97786711      -0.30756388       0.63533013 </v>
   <v>      -1.90806111      -0.90301045       0.87468209 </v>
   <v>       0.25375935      -0.81307723      -0.06601174 </v>
   <v>      -0.33573487       0.20806460      -0.47628068 </v>
   <v>       0.74289422       0.24008576      -0.43287315 </v>
   <v>       0.79528445       2.64091269      -1.31552500 </v>
  </varray>
  <varray name="stress" >
   <v>      -1.51458560       1.32795876      -0.56087978 </v>
   <v>       1.32795876      -5.54925101      -0.50709977 </v>
   <v>      -0.56087978      -0.50709977      -3.33438531 </v>
  </varray>
  <energy>
   <i name="e_fr_energy">    -36.39445295 </i>
   <i name="e_wo_entrp">    -36.39445295 </i>
   <i name="e_0_energy">    -36.39445295 </i>
  </energy>
  <time name="totalsc">    2.65    2.66</time>
  <eigenvalues>
   <array>
    <dimension dim="1">band</dimension>
    <dimension dim="2">kpoint</dimension>
    <dimension dim="3">spin</dimension>
    <field>eigene</field>
    <field>occ</field>
    <set>
     <set comment="spin 1">
      <set comment="kpoint 1">
       <r>  -23.5886    1.0000 </r>
       <r>  -13.6167    1.0000 </r>
       <r>  -13.3987    1.0000 </r>
       <r>  -12.1544    1.0000 </r>
       <r>   -8.1305    1.0000 </r>
       <r>   -6.7065    1.0000 </r>
       <r>   -6.2294    1.0000 </r>
       <r>   -1.2047    0.0000 </r>
       <r>    0.1364    0.0000 </r>
       <r>    0.2249    0.0000 </r>
       <r>    0.3351    0.0000 </r>
       <r>    0.5811    0.0000 </r>
      </set>
     </set>
    </set>
   </array>
  </eigenvalues>
  <separator name="orbital magnetization" >
   <v name="MAGDIPOLOUT">      0.00000000      0.00000000      0.00000000</v>
  </separator>
  <dos>
   <i name="efermi">     -5.99811990 </i>
   <total>
    <array>
     <dimension dim="1">gridpoints</dimension>
     <dimension dim="2">spin</dimension>
     <field>energy</field>
     <field>total</field>
     <field>integrated</field>
     <set>
      <set comment="spin 1">
       <r>   -24.7971     0.0000     0.0000 </r>
       <r>   -24.7084     0.0000     0.0000 </r>
       <r>   -24.6198     0.0000     0.0000 </r>
       <r>   -24.5312     0.0000     0.0000 </r>
       <r>   -24.4426     0.0000     0.0000 </r>
       <r>   -24.3540     0.0000     0.0000 </r>
       <r>   -24.2653     0.0000     0.0000 </r>
       <r>   -24.1767     0.0000     0.0000 </r>
       <r>   -24.0881     0.0000     0.0000 </r>
       <r>   -23.9995     0.0000     0.0000 </r>
       <r>   -23.9108     0.0000     0.0000 </r>
       <r>   -23.8222     0.0000     0.0000 </r>
       <r>   -23.7336     0.0005     0.0000 </r>
       <r>   -23.6450     1.2485     0.1107 </r>
       <r>   -23.5564    17.2336     1.6380 </r>
       <r>   -23.4677     4.0780     1.9994 </r>
       <r>   -23.3791     0.0071     2.0000 </r>
       <r>   -23.2905     0.0000     2.0000 </r>
       <r>   -23.2019     0.0000     2.0000 </r>
       <r>   -23.1133     0.0000     2.0000 </r>
       <r>   -23.0246     0.0000     2.0000 </r>
       <r>   -22.9360     0.0000     2.0000 </r>
       <r>   -22.8474     0.0000     2.0000 </r>
       <r>   -22.7588     0.0000     2.0000 </r>
       <r>   -22.6701     0.0000     2.0000 </r>
       <r>   -22.5815     0.0000     2.0000 </r>
       <r>   -22.4929     0.0000     2.0000 </r>
       <r>   -22.4043     0.0000     2.0000 </r>
       <r>   -22.3157     0.0000     2.0000 </r>
       <r>   -22.2270     0.0000     2.0000 </r>
       <r>   -22.1384     0.0000     2.0000 </r>
       <r>   -22.0498     0.0000     2.0000 </r>
       <r>   -21.9612     0.0000     2.0000 </r>
       <r>   -21.8725     0.0000     2.0000 </r>
       <r>   -21.7839     0.0000     2.0000 </r>
       <r>   -21.6953     0.0000     2.0000 </r>
       <r>   -21.6067     0.0000     2.0000 </r>
       <r>   -21.5181     0.0000     2.0000 </r>
       <r>   -21.4294     0.0000     2.0000 </r>
       <r>   -21.3408     0.0000     2.0000 </r>
       <r>   -21.2522     0.0000     2.0000 </r>
       <r>   -21.1636     0.0000     2.0000 </r>
       <r>   -21.0749     0.0000     2.0000 </r>
       <r>   -20.9863     0.0000     2.0000 </r>
       <r>   -20.8977     0.0000     2.0000 </r>
       <r>   -20.8091     0.0000     2.0000 </r>
       <r>   -20.7205     0.0000     2.0000 </r>
       <r>   -20.6318     0.0000     2.0000 </r>
       <r>   -20.5432     0.0000     2.0000 </r>
       <r>   -20.4546     0.0000     2.0000 </r>
       <r>   -20.3660     0.0000     2.0000 </r>
       <r>   -20.2773     0.0000     2.0000 </r>
       <r>   -20.1887     0.0000     2.0000 </r>
       <r>   -20.1001     0.0000     2.0000 </r>
       <r>   -20.0115     0.0000     2.0000 </r>
       <r>   -19.9229     0.0000     2.0000 </r>
       <r>   -19.8342     0.0000     2.0000 </r>
       <r>   -19.7456     0.0000     2.0000 </r>
       <r>   -19.6570     0.0000     2.0000 </r>
       <r>   -19.5684     0.0000     2.0000 </r>
       <r>   -19.4797     0.0000     2.0000 </r>
       <r>   -19.3911     0.0000     2.0000 </r>
       <r>   -19.3025     0.0000     2.0000 </r>
       <r>   -19.2139     0.0000     2.0000 </r>
       <r>   -19.1253     0.0000     2.0000 </r>
       <r>   -19.0366     0.0000     2.0000 </r>
       <r>   -18.9480     0.0000     2.0000 </r>
       <r>   -18.8594     0.0000     2.0000 </r>
       <r>   -18.7708     0.0000     2.0000 </r>
       <r>   -18.6821     0.0000     2.0000 </r>
       <r>   -18.5935     0.0000     2.0000 </r>
       <r>   -18.5049     0.0000     2.0000 </r>
       <r>   -18.4163     0.0000     2.0000 </r>
       <r>   -18.3277     0.0000     2.0000 </r>
       <r>   -18.2390     0.0000     2.0000 </r>
       <r>   -18.1504     0.0000     2.0000 </r>
       <r>   -18.0618     0.0000     2.0000 </r>
       <r>   -17.9732     0.0000     2.0000 </r>
       <r>   -17.8846     0.0000     2.0000 </r>
       <r>   -17.7959     0.0000     2.0000 </r>
       <r>   -17.7073     0.0000     2.0000 </r>
       <r>   -17.6187     0.0000     2.0000 </r>
       <r>   -17.5301     0.0000     2.0000 </r>
       <r>   -17.4414     0.0000     2.0000 </r>
       <r>   -17.3528     0.0000     2.0000 </r>
       <r>   -17.2642     0.0000     2.0000 </r>
       <r>   -17.1756     0.0000     2.0000 </r>
       <r>   -17.0870     0.0000     2.0000 </r>
       <r>   -16.9983     0.0000     2.0000 </r>
       <r>   -16.9097     0.0000     2.0000 </r>
       <r>   -16.8211     0.0000     2.0000 </r>
       <r>   -16.7325     0.0000     2.0000 </r>
       <r>   -16.6438     0.0000     2.0000 </r>
       <r>   -16.5552     0.0000     2.0000 </r>
       <r>   -16.4666     0.0000     2.0000 </r>
       <r>   -16.3780     0.0000     2.0000 </r>
       <r>   -16.2894     0.0000     2.0000 </r>
       <r>   -16.2007     0.0000     2.0000 </r>
       <r>   -16.1121     0.0000     2.0000 </r>
       <r>   -16.0235     0.0000     2.0000 </r>
       <r>   -15.9349     0.0000     2.0000 </r>
       <r>   -15.8462     0.0000     2.0000 </r>
       <r>   -15.7576     0.0000     2.0000 </r>
       <r>   -15.6690     0.0000     2.0000 </r>
       <r>   -15.5804     0.0000     2.0000 </r>
       <r>   -15.4918     0.0000     2.0000 </r>
       <r>   -15.4031     0.0000     2.0000 </r>
       <r>   -15.3145     0.0000     2.0000 </r>
       <r>   -15.2259     0.0000     2.0000 </r>
       <r>   -15.1373     0.0000     2.0000 </r>
       <r>   -15.0486     0.0000     2.0000 </r>
       <r>   -14.9600     0.0000     2.0000 </r>
       <r>   -14.8714     0.0000     2.0000 </r>
       <r>   -14.7828     0.0000     2.0000 </r>
       <r>   -14.6942     0.0000     2.0000 </r>
       <r>   -14.6055     0.0000     2.0000 </r>
       <r>   -14.5169     0.0000     2.0000 </r>
       <r>   -14.4283     0.0000     2.0000 </r>
       <r>   -14.3397     0.0000     2.0000 </r>
       <r>   -14.2510     0.0000     2.0000 </r>
       <r>   -14.1624     0.0000     2.0000 </r>
       <r>   -14.0738     0.0000     2.0000 </r>
       <r>   -13.9852     0.0000     2.0000 </r>
       <r>   -13.8966     0.0000     2.0000 </r>
       <r>   -13.8079     0.0000     2.0000 </r>
       <r>   -13.7193     0.0417     2.0037 </r>
       <r>   -13.6307     7.7613     2.6915 </r>
       <r>   -13.5421    14.3719     3.9652 </r>
       <r>   -13.4534     1.7648     4.1216 </r>
       <r>   -13.3648    17.3837     5.6622 </r>
       <r>   -13.2762     3.8062     5.9995 </r>
       <r>   -13.1876     0.0060     6.0000 </r>
       <r>   -13.0990     0.0000     6.0000 </r>
       <r>   -13.0103     0.0000     6.0000 </r>
       <r>   -12.9217     0.0000     6.0000 </r>
       <r>   -12.8331     0.0000     6.0000 </r>
       <r>   -12.7445     0.0000     6.0000 </r>
       <r>   -12.6559     0.0000     6.0000 </r>
       <r>   -12.5672     0.0000     6.0000 </r>
       <r>   -12.4786     0.0000     6.0000 </r>
       <r>   -12.3900     0.0000     6.0000 </r>
       <r>   -12.3014     0.0004     6.0000 </r>
       <r>   -12.2127     1.1145     6.0988 </r>
       <r>   -12.1241    17.0292     7.6080 </r>
       <r>   -12.0355     4.4150     7.9992 </r>
       <r>   -11.9469     0.0087     8.0000 </r>
       <r>   -11.8583     0.0000     8.0000 </r>
       <r>   -11.7696     0.0000     8.0000 </r>
       <r>   -11.6810     0.0000     8.0000 </r>
       <r>   -11.5924     0.0000     8.0000 </r>
       <r>   -11.5038     0.0000     8.0000 </r>
       <r>   -11.4151     0.0000     8.0000 </r>
       <r>   -11.3265     0.0000     8.0000 </r>
       <r>   -11.2379     0.0000     8.0000 </r>
       <r>   -11.1493     0.0000     8.0000 </r>
       <r>   -11.0607     0.0000     8.0000 </r>
       <r>   -10.9720     0.0000     8.0000 </r>
       <r>   -10.8834     0.0000     8.0000 </r>
       <r>   -10.7948     0.0000     8.0000 </r>
       <r>   -10.7062     0.0000     8.0000 </r>
       <r>   -10.6175     0.0000     8.0000 </r>
       <r>   -10.5289     0.0000     8.0000 </r>
       <r>   -10.4403     0.0000     8.0000 </r>
       <r>   -10.3517     0.0000     8.0000 </r>
       <r>   -10.2631     0.0000     8.0000 </r>
       <r>   -10.1744     0.0000     8.0000 </r>
       <r>   -10.0858     0.0000     8.0000 </r>
       <r>    -9.9972     0.0000     8.0000 </r>
       <r>    -9.9086     0.0000     8.0000 </r>
       <r>    -9.8199     0.0000     8.0000 </r>
       <r>    -9.7313     0.0000     8.0000 </r>
       <r>    -9.6427     0.0000     8.0000 </r>
       <r>    -9.5541     0.0000     8.0000 </r>
       <r>    -9.4655     0.0000     8.0000 </r>
       <r>    -9.3768     0.0000     8.0000 </r>
       <r>    -9.2882     0.0000     8.0000 </r>
       <r>    -9.1996     0.0000     8.0000 </r>
       <r>    -9.1110     0.0000     8.0000 </r>
       <r>    -9.0223     0.0000     8.0000 </r>
       <r>    -8.9337     0.0000     8.0000 </r>
       <r>    -8.8451     0.0000     8.0000 </r>
       <r>    -8.7565     0.0000     8.0000 </r>
       <r>    -8.6679     0.0000     8.0000 </r>
       <r>    -8.5792     0.0000     8.0000 </r>
       <r>    -8.4906     0.0000     8.0000 </r>
       <r>    -8.4020     0.0000     8.0000 </r>
       <r>    -8.3134     0.0000     8.0000 </r>
       <r>    -8.2247     0.0863     8.0077 </r>
       <r>    -8.1361     9.7590     8.8725 </r>
       <r>    -8.0475    12.5084     9.9810 </r>
       <r>    -7.9589     0.2140    10.0000 </r>
       <r>    -7.8703     0.0000    10.0000 </r>
       <r>    -7.7816     0.0000    10.0000 </r>
       <r>    -7.6930     0.0000    10.0000 </r>
       <r>    -7.6044     0.0000    10.0000 </r>
       <r>    -7.5158     0.0000    10.0000 </r>
       <r>    -7.4272     0.0000    10.0000 </r>
       <r>    -7.3385     0.0000    10.0000 </r>
       <r>    -7.2499     0.0000    10.0000 </r>
       <r>    -7.1613     0.0000    10.0000 </r>
       <r>    -7.0727     0.0000    10.0000 </r>
       <r>    -6.9840     0.0000    10.0000 </r>
       <r>    -6.8954     0.0000    10.0000 </r>
       <r>    -6.8068     0.0515    10.0046 </r>
       <r>    -6.7182     8.3165    10.7416 </r>
       <r>    -6.6296    13.8670    11.9705 </r>
       <r>    -6.5409     0.3327    12.0000 </r>
       <r>    -6.4523     0.0000    12.0000 </r>
       <r>    -6.3637     0.0016    12.0001 </r>
       <r>    -6.2751     2.2142    12.1964 </r>
       <r>    -6.1864    17.8187    13.7755 </r>
       <r>    -6.0978     2.5310    13.9998 </r>
       <r>    -6.0092     0.0022    14.0000 </r>
       <r>    -5.9206     0.0000    14.0000 </r>
       <r>    -5.8320     0.0000    14.0000 </r>
       <r>    -5.7433     0.0000    14.0000 </r>
       <r>    -5.6547     0.0000    14.0000 </r>
       <r>    -5.5661     0.0000    14.0000 </r>
       <r>    -5.4775     0.0000    14.0000 </r>
       <r>    -5.3888     0.0000    14.0000 </r>
       <r>    -5.3002     0.0000    14.0000 </r>
       <r>    -5.2116     0.0000    14.0000 </r>
       <r>    -5.1230     0.0000    14.0000 </r>
       <r>    -5.0344     0.0000    14.0000 </r>
       <r>    -4.9457     0.0000    14.0000 </r>
       <r>    -4.8571     0.0000    14.0000 </r>
       <r>    -4.7685     0.0000    14.0000 </r>
       <r>    -4.6799     0.0000    14.0000 </r>
       <r>    -4.5912     0.0000    14.0000 </r>
       <r>    -4.5026     0.0000    14.0000 </r>
       <r>    -4.4140     0.0000    14.0000 </r>
       <r>    -4.3254     0.0000    14.0000 </r>
       <r>    -4.2368     0.0000    14.0000 </r>
       <r>    -4.1481     0.0000    14.0000 </r>
       <r>    -4.0595     0.0000    14.0000 </r>
       <r>    -3.9709     0.0000    14.0000 </r>
       <r>    -3.8823     0.0000    14.0000 </r>
       <r>    -3.7936     0.0000    14.0000 </r>
       <r>    -3.7050     0.0000    14.0000 </r>
       <r>    -3.6164     0.0000    14.0000 </r>
       <r>    -3.5278     0.0000    14.0000 </r>
       <r>    -3.4392     0.0000    14.0000 </r>
       <r>    -3.3505     0.0000    14.0000 </r>
       <r>    -3.2619     0.0000    14.0000 </r>
       <r>    -3.1733     0.0000    14.0000 </r>
       <r>    -3.0847     0.0000    14.0000 </r>
       <r>    -2.9960     0.0000    14.0000 </r>
       <r>    -2.9074     0.0000    14.0000 </r>
       <r>    -2.8188     0.0000    14.0000 </r>
       <r>    -2.7302     0.0000    14.0000 </r>
       <r>    -2.6416     0.0000    14.0000 </r>
       <r>    -2.5529     0.0000    14.0000 </r>
       <r>    -2.4643     0.0000    14.0000 </r>
       <r>    -2.3757     0.0000    14.0000 </r>
       <r>    -2.2871     0.0000    14.0000 </r>
       <r>    -2.1984     0.0000    14.0000 </r>
       <r>    -2.1098     0.0000    14.0000 </r>
       <r>    -2.0212     0.0000    14.0000 </r>
       <r>    -1.9326     0.0000    14.0000 </r>
       <r>    -1.8440     0.0000    14.0000 </r>
       <r>    -1.7553     0.0000    14.0000 </r>
       <r>    -1.6667     0.0000    14.0000 </r>
       <r>    -1.5781     0.0000    14.0000 </r>
       <r>    -1.4895     0.0000    14.0000 </r>
       <r>    -1.4009     0.0000    14.0000 </r>
       <r>    -1.3122     0.0267    14.0024 </r>
       <r>    -1.2236     6.6709    14.5936 </r>
       <r>    -1.1350    15.3229    15.9515 </r>
       <r>    -1.0464     0.5472    16.0000 </r>
       <r>    -0.9577     0.0001    16.0000 </r>
       <r>    -0.8691     0.0000    16.0000 </r>
       <r>    -0.7805     0.0000    16.0000 </r>
       <r>    -0.6919     0.0000    16.0000 </r>
       <r>    -0.6033     0.0000    16.0000 </r>
       <r>    -0.5146     0.0000    16.0000 </r>
       <r>    -0.4260     0.0000    16.0000 </r>
       <r>    -0.3374     0.0000    16.0000 </r>
       <r>    -0.2488     0.0000    16.0000 </r>
       <r>    -0.1601     0.0000    16.0000 </r>
       <r>    -0.0715     0.0000    16.0000 </r>
       <r>     0.0171     0.0084    16.0007 </r>
       <r>     0.1057     4.3577    16.3869 </r>
       <r>     0.1943    21.4298    18.2861 </r>
       <r>     0.2830    19.7841    20.0394 </r>
       <r>     0.3716    18.7102    21.6975 </r>
       <r>     0.4602     3.4156    22.0002 </r>
       <r>     0.5488     4.0826    22.3620 </r>
       <r>     0.6375    17.2336    23.8893 </r>
       <r>     0.7261     1.2485    24.0000 </r>
       <r>     0.8147     0.0005    24.0000 </r>
       <r>     0.9033     0.0000    24.0000 </r>
       <r>     0.9919     0.0000    24.0000 </r>
       <r>     1.0806     0.0000    24.0000 </r>
       <r>     1.1692     0.0000    24.0000 </r>
       <r>     1.2578     0.0000    24.0000 </r>
       <r>     1.3464     0.0000    24.0000 </r>
       <r>     1.4351     0.0000    24.0000 </r>
       <r>     1.5237     0.0000    24.0000 </r>
       <r>     1.6123     0.0000    24.0000 </r>
       <r>     1.7009     0.0000    24.0000 </r>
       <r>     1.7895     0.0000    24.0000 </r>
      </set>
     </set>
    </array>
   </total>
  </dos>
 </calculation>
 <structure name="finalpos" >
  <crystal>
   <varray name="basis" >
    <v>      12.00000000       0.00000000       0.00000000 </v>
    <v>       0.00000000      12.00000000       0.00000000 </v>
    <v>       0.00000000       0.00000000      12.00000000 </v>
   </varray>
   <i name="volume">   1728.00000000 </i>
   <varray name="rec_basis" >
    <v>       0.08333333       0.00000000       0.00000000 </v>
    <v>       0.00000000       0.08333333       0.00000000 </v>
    <v>       0.00000000       0.00000000       0.08333333 </v>
   </varray>
  </crystal>
  <varray name="positions" >
   <v>       0.49588242       0.50797775       0.42915990 </v>
   <v>       0.49411860       0.59264392       0.59640648 </v>
   <v>       0.55907328       0.46507951       0.59233977 </v>
   <v>       0.42520215       0.47096198       0.59870297 </v>
   <v>       0.41772454       0.57147099       0.40129703 </v>
   <v>       0.50066548       0.40735608       0.41203173 </v>
   <v>       0.58227546       0.55463205       0.41623755 </v>
   <v>       0.49150607       0.50811607       0.56929370 </v>
  </varray>
 </structure>
</modeling>
