13-Butadiene                            
           1
    12.000000    0.000000    0.000000
     0.000000   12.000000    0.000000
     0.000000    0.000000   12.000000
   B    H    N 
     1     6     1
Direct configuration=     1
   0.49588242  0.50797775  0.42915990
   0.49411860  0.59264392  0.59640648
   0.55907328  0.46507951  0.59233977
   0.42520215  0.47096198  0.59870297
   0.41772454  0.57147099  0.40129703
   0.50066548  0.40735608  0.41203173
   0.58227546  0.55463205  0.41623755
   0.49150607  0.50811607  0.56929370
