B  H  N 
 1.0000000000000000
    12.0000000000000000    0.0000000000000000    0.0000000000000000
     0.0000000000000000   12.0000000000000000    0.0000000000000000
     0.0000000000000000    0.0000000000000000   12.0000000000000000
 B   H   N  
   1   6   1
Cartesian
  6.1787393465617404  6.1121517804033658  5.2169189609929845
  6.3444880252513087  6.6059196103491331  7.3363673726182554
  6.6716750395355291  5.0720494882115759  7.0412542685945567
  5.0913914090413641  5.6005076765792410  6.8731494637646904
  6.4774238960402073  5.2001025343869287  4.6636326273817446
  6.9086085909586350  6.9279505117884241  5.0203531812621947
  5.2038402909130070  6.5001649615776094  5.0201046286837112
  6.0855602577802586  5.8356315472608458  6.6831346569806973
