B  H  N 
 1.0000000000000000
    12.0000000000000000    0.0000000000000000    0.0000000000000000
     0.0000000000000000   12.0000000000000000    0.0000000000000000
     0.0000000000000000    0.0000000000000000   12.0000000000000000
 B   H   N  
   1   6   1
Cartesian
  7.3939172361143015  4.3639443668321043  6.2088187988647618
  3.6088357325213769  8.1567442854496086  5.4450204751002254
  5.0436113000138203  7.1734462563643966  5.2039051598352533
  4.5907106830515954  7.6119803001303019  6.8635305234415309
  6.5909171507011175  3.8432557145503949  6.9640368391412899
  8.3911642674786240  4.8645746978271269  6.6279834785444871
  7.3305575472182110  4.2552436420339781  5.0359631608587119
  4.3828081732575939  7.6267006536278039  5.8695907393302189
