B  H  N 
 1.0000000000000000
    12.0000000000000000    0.0000000000000000    0.0000000000000000
     0.0000000000000000   12.0000000000000000    0.0000000000000000
     0.0000000000000000    0.0000000000000000   12.0000000000000000
 B   H   N  
   1   6   1
Cartesian
  5.8878817993612884  5.6334880373393617  6.6249255743637718
  6.3744757679460378  5.7674138366882630  4.5953883221954470
  7.0621940048065497  6.9877211012421299  5.3242035691478833
  5.3873728645381220  7.0498813350712624  5.0982411752050467
  5.8407143827637213  6.3820347387805612  7.4046116778045379
  6.7400081743643758  5.0406137124490726  6.8582941599743910
  4.9378059951934716  4.9501186649287376  6.4610417476885971
  6.1936172545449182  6.4455847004416285  5.2870264885476530
