8
Lattice="12.0 0.0 0.0 0.0 12.0 0.0 0.0 0.0 12.0" Properties=species:S:1:pos:R:3:momenta:R:3:forces:R:3 energy=-439.99222831663 free_energy=-439.99222831663 stress="-0.0017864577462899 -0.00046713254300463 0.001243495261362 -0.00046713254300463 -0.0019925897283569 -0.00015445956572347 0.001243495261362 -0.00015445956572347 0.0018352207196929" pbc="T T T"
B        5.74140981       6.09897017       4.97359090      -0.08657778       0.01714007       2.42835996      -0.46580266       1.25023684       2.62437119
H        6.28588777       6.95449873       7.38800572      -0.00374580       0.34867202      -0.00093195      -0.00643003       0.28845627       0.03992379
H        7.13335389       5.48664741       7.05444799       0.20133076      -0.09682438      -0.18910544       0.73425427      -0.35703826      -0.06949477
H        5.46192189       5.44050204       7.38915415      -0.11841350       0.01977133      -0.07372408      -0.97936420      -0.61218994       0.51129746
H        4.86664611       6.85335086       4.97059371      -0.07984062       0.04172786       0.04783101      -0.36921669       0.43605990       0.25082315
H        5.41755033       5.04550127       4.82990899      -0.22407941       0.28013631       0.05786077      -0.17914796      -2.08964468      -0.36735276
H        6.71707344       6.50933729       4.61084585      -0.18587081       0.09583038       0.01778061       1.62620098       0.29931378      -0.73309953
N        6.23729726       5.98697828       7.01760637      -0.02359410       0.09925967      -1.15302845      -0.35828801       0.78771969      -2.23698030
8
Lattice="12.0 0.0 0.0 0.0 12.0 0.0 0.0 0.0 12.0" Properties=species:S:1:pos:R:3:momenta:R:3:forces:R:3 energy=-440.02159048954 free_energy=-440.02159048954 stress="-0.00028642559008647 -0.00039625534910953 -0.00042733288890712 -0.00039625534910953 -0.0014293404775297 0.00085032181221448 -0.00042733288890712 0.00085032181221448 -0.0010112131913367" pbc="T T T"
B        5.15186356       6.29428573       6.41095553       1.28422512      -0.31240136       0.49787761       4.30599071       0.46984805      -1.27043853
H        7.02840526       6.45857530       4.95473767      -0.05134675       0.01842524      -0.09291742      -0.09907192      -0.01933846       0.20922018
H        6.49387401       4.82637764       4.98754616      -0.10880221      -0.02401574       0.07453284      -0.07611488       0.65316446       0.59203136
H        7.36092504       5.48032651       6.36372522      -0.01921963       0.12027653       0.00482400      -0.88325304       0.30178958      -1.09982072
H        5.70840543       7.17362236       6.86822652       0.00641793       0.02932596      -0.07570245      -0.33611196       1.21962658       0.89261056
H        5.05366971       5.41666063       7.04526233      -0.10417425       0.00773406      -0.11540484      -1.43754340      -2.20388870       1.91063871
H        4.63907496       6.48418788       5.46507130      -0.18938340       0.12161217       0.18011340      -2.51384668       0.54220001      -1.75740809
N        6.64015023       5.70557573       5.58397293      -1.22133580       0.66347983       0.40634731       1.04260694      -0.97054611       0.52917277
8
Lattice="12.0 0.0 0.0 0.0 12.0 0.0 0.0 0.0 12.0" Properties=species:S:1:pos:R:3:momenta:R:3:forces:R:3 energy=-440.20954759761 free_energy=-440.20954759761 stress="-0.0020228489126114 9.2809172244854e-05 -0.00076570694108073 9.2809172244854e-05 -0.0027910904457468 -5.0558888303547e-05 -0.00076570694108073 -5.0558888303547e-05 -0.0018970941859688" pbc="T T T"
B        5.49928927       5.64611101       5.42236948      -0.97178335      -0.65363232      -0.55416900      -0.15260575       0.91791891       2.03648713
H        6.14568419       7.28299531       6.70746105       0.03566648       0.19089140       0.08563914      -0.63190680       1.53706499       0.12954016
H        7.41975801       6.51147968       5.98413078       0.18341498       0.04598452      -0.01128716       1.08030242      -0.00156704      -0.27107595
H        6.63180751       5.88079701       7.35214853       0.21533423      -0.10262410       0.10912369       0.36800654      -0.95808528       0.72836565
H        4.58024199       5.64019385       6.14138027       0.13687007       0.12300143       0.05280249      -0.74167451      -0.60300873      -0.76768041
H        6.09781225       4.71700469       5.25082944       0.10596492       0.04268663       0.07661924       0.08778008      -1.90106875      -0.86762647
H        5.56458843       6.45732464       4.64785147       0.01492660       0.00977607       0.06919644      -0.75830935       0.54061439      -1.83560201
N        6.51296480       6.36549164       6.45009601       0.06298083       0.47833452       0.10217094       0.74481143       0.46960126       0.85060820
8
Lattice="12.0 0.0 0.0 0.0 12.0 0.0 0.0 0.0 12.0" Properties=species:S:1:pos:R:3:momenta:R:3:forces:R:3 energy=-440.0598976443 free_energy=-440.0598976443 stress="4.9576085672788e-05 0.00074568167730383 0.00039312201798474 0.00074568167730383 -0.000309775782194 5.8548677180959e-05 0.00039312201798474 5.8548677180959e-05 0.0012152988063456" pbc="T T T"
B        6.49238650       6.06220340       6.86741404      -0.94302223      -0.05506242      -1.14731885       0.18310297      -0.79611523      -3.91650263
H        4.48219631       6.14569790       5.75084360      -0.01575140      -0.06482724       0.01352915       0.44192934      -0.22046891      -0.82182018
H        5.53992118       5.13978481       4.65916092      -0.14550626       0.03668459       0.22004504      -0.26805677       1.54794455       1.01418653
H        5.74329481       6.96336676       4.76606323      -0.07582339       0.01517666      -0.13929511      -0.81500918      -1.86916817       0.66138256
H        5.98953793       6.90610258       7.34083908       0.04441187       0.18228928      -0.02329134      -1.10501898       2.27104093       1.54225875
H        7.51780369       6.25149646       6.36091327       0.28428959       0.09561088      -0.00689667       0.52226087      -0.07352298       0.34309483
H        6.20532621       5.03663324       7.19676061       0.10052876      -0.08370531      -0.01940227      -0.01852305      -1.72869515       1.02904543
N        5.41626985       6.04023552       5.25769040       0.47567735       0.04459530       1.01382532       1.06543972       0.86979278       0.15580547
