B  H  N 
 1.0000000000000000
    12.0000000000000000    0.0000000000000000    0.0000000000000000
     0.0000000000000000   12.0000000000000000    0.0000000000000000
     0.0000000000000000    0.0000000000000000   12.0000000000000000
 B   H   N  
   1   6   1
Cartesian
  5.9262038844379319  5.6190956760108008  6.6910633482660558
  6.3036214566518538  5.6729261925953267  4.5976265291789247
  7.0525363981454134  7.0463432891822029  5.3064774655976805
  5.3594751511926120  6.9709368031414272  5.1927691629531978
  5.6085906130564851  6.4086832156737046  7.4023734708210611
  6.7872937628023422  4.9536567108178247  6.8756381307849210
  4.9474636018545795  5.1359497068104076  6.4544958859568311
  6.2151926093754559  6.3811700934812166  5.3343462748380119
