B  H  N 
 1.0000000000000000
    12.0000000000000000    0.0000000000000000    0.0000000000000000
     0.0000000000000000   12.0000000000000000    0.0000000000000000
     0.0000000000000000    0.0000000000000000   12.0000000000000000
 B   H   N  
   1   6   1
Cartesian
  5.9355109757670519  6.1241700285567324  6.7782440188452711
  6.4349832451997449  4.8661134005889153  5.0631781355236285
  6.9560737720764720  6.3912470719591568  4.8960632760235256
  5.3969447446208250  6.1870666502075835  4.7127127204104511
  5.5686946974946068  7.1338865994111131  6.9855193079788052
  6.8484562537690366  5.6887888427697533  7.2872872795895338
  5.0439262279235209  5.4434697943940762  6.9037855005651636
  6.1871684805736811  5.8514663012282142  5.2759468973993933
