B  H  N                                 
   1.0000000000000000     
    12.0000000000000000    0.0000000000000000    0.0000000000000000
     0.0000000000000000   12.0000000000000000    0.0000000000000000
     0.0000000000000000    0.0000000000000000   12.0000000000000000
   B    H    N 
     1     6     1
Direct
  0.4450329972611655  0.4786286181046506  0.4829881112884422
  0.5727848530473238  0.4029059023878432  0.5965672217338991
  0.5718179276518427  0.5368350766883765  0.6203757769850782
  0.6396554122655687  0.4814571902382383  0.5021170911295130
  0.4659546417489295  0.4457960032666222  0.3796242230149218
  0.3603445877344313  0.4162768304122579  0.5382992368421426
  0.4087151367888424  0.5970940976121568  0.4749555487928276
  0.5709850109277710  0.4799655775506650  0.5530122182164661

  0.00000000E+00  0.00000000E+00  0.00000000E+00
  0.00000000E+00  0.00000000E+00  0.00000000E+00
  0.00000000E+00  0.00000000E+00  0.00000000E+00
  0.00000000E+00  0.00000000E+00  0.00000000E+00
  0.00000000E+00  0.00000000E+00  0.00000000E+00
  0.00000000E+00  0.00000000E+00  0.00000000E+00
  0.00000000E+00  0.00000000E+00  0.00000000E+00
  0.00000000E+00  0.00000000E+00  0.00000000E+00
