ENCUT = 300.000000
SIGMA = 0.050000
EDIFF = 1.00e-05
GGA = PE
PREC = Normal
SYSTEM = 13-Butadiene
ICHARG = 2
ISMEAR = 0
ISPIN = 1
ISTART = 0
NSIM = 4
NWRITE = 2
NCORE = 2
KGAMMA = .FALSE.
LCHARG = .FALSE.
LPLANE = .TRUE.
LSCALU = .FALSE.
LWAVE = .FALSE.
