B  H  N 
 1.0000000000000000
    12.0000000000000000    0.0000000000000000    0.0000000000000000
     0.0000000000000000   12.0000000000000000    0.0000000000000000
     0.0000000000000000    0.0000000000000000   12.0000000000000000
 B   H   N  
   1   6   1
Cartesian
  6.1170898880161308  5.4367556798218288  6.7503848969972529
  6.6708127294420976  6.4976186398305202  4.7977656421452295
  5.0389137462336961  6.0816065286270771  4.6622314767542044
  5.7548178223125603  7.5552110096317255  5.6226666308107873
  5.0014878361569899  5.2694765336189278  7.2994847570856614
  6.6544964569385741  4.4447889903682807  6.3158767283209913
  6.9985121638430172  6.1306860111614299  7.3377685232457948
  5.8114286217572726  6.4671183003780461  5.3880693493889140
