B  H  N 
 1.0000000000000000
    12.0000000000000000    0.0000000000000000    0.0000000000000000
     0.0000000000000000   12.0000000000000000    0.0000000000000000
     0.0000000000000000    0.0000000000000000   12.0000000000000000
 B   H   N  
   1   6   1
Cartesian
  6.2584569042246230  4.3763545911610606  5.3148905129929069
  5.3180747053002975  6.9304885143854733  7.4981749946945904
  5.3203039887922685  8.0390419997577283  6.2615967604873317
  6.5464857314532763  7.9603599639936098  7.3416361609288954
  6.8739405684475336  4.9704511230825972  4.5018250053054167
  5.1260594315524592  3.9609580002422717  5.0344679843806155
  6.6885633729244276  4.0501027383123471  6.4395297257277049
  5.8617909281494178  7.4177771812753113  6.7799150297279489
