B  H  N 
 1.0000000000000000
    12.0000000000000000    0.0000000000000000    0.0000000000000000
     0.0000000000000000   12.0000000000000000    0.0000000000000000
     0.0000000000000000    0.0000000000000000   12.0000000000000000
 B   H   N  
   1   6   1
Cartesian
  6.1067575850453473  5.0342576978059821  4.1028765058177150
  5.0480333234447770  7.7767344409058881  7.0415443158541722
  6.5081602776441247  7.2436945242837343  7.8602822803271106
  4.8997713916388808  6.5711182176357337  8.2950276055379462
  5.1063221182249201  5.3282955543946340  3.7049723944620547
  6.2950274237171753  4.2232655590941111  4.9178814091359859
  7.1002286083611192  5.5404352413487761  3.8026730127097386
  5.4756150287299334  7.0405061383001675  7.5919496646796354
